p cnf 105 35490
1 2 3 15 16 28 0
1 2 4 15 17 29 0
1 2 5 15 18 30 0
1 2 6 15 19 31 0
1 2 7 15 20 32 0
1 2 8 15 21 33 0
1 2 9 15 22 34 0
1 2 10 15 23 35 0
1 2 11 15 24 36 0
1 2 12 15 25 37 0
1 2 13 15 26 38 0
1 2 14 15 27 39 0
1 3 4 16 17 40 0
1 3 5 16 18 41 0
1 3 6 16 19 42 0
1 3 7 16 20 43 0
1 3 8 16 21 44 0
1 3 9 16 22 45 0
1 3 10 16 23 46 0
1 3 11 16 24 47 0
1 3 12 16 25 48 0
1 3 13 16 26 49 0
1 3 14 16 27 50 0
1 4 5 17 18 51 0
1 4 6 17 19 52 0
1 4 7 17 20 53 0
1 4 8 17 21 54 0
1 4 9 17 22 55 0
1 4 10 17 23 56 0
1 4 11 17 24 57 0
1 4 12 17 25 58 0
1 4 13 17 26 59 0
1 4 14 17 27 60 0
1 5 6 18 19 61 0
1 5 7 18 20 62 0
1 5 8 18 21 63 0
1 5 9 18 22 64 0
1 5 10 18 23 65 0
1 5 11 18 24 66 0
1 5 12 18 25 67 0
1 5 13 18 26 68 0
1 5 14 18 27 69 0
1 6 7 19 20 70 0
1 6 8 19 21 71 0
1 6 9 19 22 72 0
1 6 10 19 23 73 0
1 6 11 19 24 74 0
1 6 12 19 25 75 0
1 6 13 19 26 76 0
1 6 14 19 27 77 0
1 7 8 20 21 78 0
1 7 9 20 22 79 0
1 7 10 20 23 80 0
1 7 11 20 24 81 0
1 7 12 20 25 82 0
1 7 13 20 26 83 0
1 7 14 20 27 84 0
1 8 9 21 22 85 0
1 8 10 21 23 86 0
1 8 11 21 24 87 0
1 8 12 21 25 88 0
1 8 13 21 26 89 0
1 8 14 21 27 90 0
1 9 10 22 23 91 0
1 9 11 22 24 92 0
1 9 12 22 25 93 0
1 9 13 22 26 94 0
1 9 14 22 27 95 0
1 10 11 23 24 96 0
1 10 12 23 25 97 0
1 10 13 23 26 98 0
1 10 14 23 27 99 0
1 11 12 24 25 100 0
1 11 13 24 26 101 0
1 11 14 24 27 102 0
1 12 13 25 26 103 0
1 12 14 25 27 104 0
1 13 14 26 27 105 0
2 3 4 28 29 40 0
2 3 5 28 30 41 0
2 3 6 28 31 42 0
2 3 7 28 32 43 0
2 3 8 28 33 44 0
2 3 9 28 34 45 0
2 3 10 28 35 46 0
2 3 11 28 36 47 0
2 3 12 28 37 48 0
2 3 13 28 38 49 0
2 3 14 28 39 50 0
2 4 5 29 30 51 0
2 4 6 29 31 52 0
2 4 7 29 32 53 0
2 4 8 29 33 54 0
2 4 9 29 34 55 0
2 4 10 29 35 56 0
2 4 11 29 36 57 0
2 4 12 29 37 58 0
2 4 13 29 38 59 0
2 4 14 29 39 60 0
2 5 6 30 31 61 0
2 5 7 30 32 62 0
2 5 8 30 33 63 0
2 5 9 30 34 64 0
2 5 10 30 35 65 0
2 5 11 30 36 66 0
2 5 12 30 37 67 0
2 5 13 30 38 68 0
2 5 14 30 39 69 0
2 6 7 31 32 70 0
2 6 8 31 33 71 0
2 6 9 31 34 72 0
2 6 10 31 35 73 0
2 6 11 31 36 74 0
2 6 12 31 37 75 0
2 6 13 31 38 76 0
2 6 14 31 39 77 0
2 7 8 32 33 78 0
2 7 9 32 34 79 0
2 7 10 32 35 80 0
2 7 11 32 36 81 0
2 7 12 32 37 82 0
2 7 13 32 38 83 0
2 7 14 32 39 84 0
2 8 9 33 34 85 0
2 8 10 33 35 86 0
2 8 11 33 36 87 0
2 8 12 33 37 88 0
2 8 13 33 38 89 0
2 8 14 33 39 90 0
2 9 10 34 35 91 0
2 9 11 34 36 92 0
2 9 12 34 37 93 0
2 9 13 34 38 94 0
2 9 14 34 39 95 0
2 10 11 35 36 96 0
2 10 12 35 37 97 0
2 10 13 35 38 98 0
2 10 14 35 39 99 0
2 11 12 36 37 100 0
2 11 13 36 38 101 0
2 11 14 36 39 102 0
2 12 13 37 38 103 0
2 12 14 37 39 104 0
2 13 14 38 39 105 0
3 4 5 40 41 51 0
3 4 6 40 42 52 0
3 4 7 40 43 53 0
3 4 8 40 44 54 0
3 4 9 40 45 55 0
3 4 10 40 46 56 0
3 4 11 40 47 57 0
3 4 12 40 48 58 0
3 4 13 40 49 59 0
3 4 14 40 50 60 0
3 5 6 41 42 61 0
3 5 7 41 43 62 0
3 5 8 41 44 63 0
3 5 9 41 45 64 0
3 5 10 41 46 65 0
3 5 11 41 47 66 0
3 5 12 41 48 67 0
3 5 13 41 49 68 0
3 5 14 41 50 69 0
3 6 7 42 43 70 0
3 6 8 42 44 71 0
3 6 9 42 45 72 0
3 6 10 42 46 73 0
3 6 11 42 47 74 0
3 6 12 42 48 75 0
3 6 13 42 49 76 0
3 6 14 42 50 77 0
3 7 8 43 44 78 0
3 7 9 43 45 79 0
3 7 10 43 46 80 0
3 7 11 43 47 81 0
3 7 12 43 48 82 0
3 7 13 43 49 83 0
3 7 14 43 50 84 0
3 8 9 44 45 85 0
3 8 10 44 46 86 0
3 8 11 44 47 87 0
3 8 12 44 48 88 0
3 8 13 44 49 89 0
3 8 14 44 50 90 0
3 9 10 45 46 91 0
3 9 11 45 47 92 0
3 9 12 45 48 93 0
3 9 13 45 49 94 0
3 9 14 45 50 95 0
3 10 11 46 47 96 0
3 10 12 46 48 97 0
3 10 13 46 49 98 0
3 10 14 46 50 99 0
3 11 12 47 48 100 0
3 11 13 47 49 101 0
3 11 14 47 50 102 0
3 12 13 48 49 103 0
3 12 14 48 50 104 0
3 13 14 49 50 105 0
4 5 6 51 52 61 0
4 5 7 51 53 62 0
4 5 8 51 54 63 0
4 5 9 51 55 64 0
4 5 10 51 56 65 0
4 5 11 51 57 66 0
4 5 12 51 58 67 0
4 5 13 51 59 68 0
4 5 14 51 60 69 0
4 6 7 52 53 70 0
4 6 8 52 54 71 0
4 6 9 52 55 72 0
4 6 10 52 56 73 0
4 6 11 52 57 74 0
4 6 12 52 58 75 0
4 6 13 52 59 76 0
4 6 14 52 60 77 0
4 7 8 53 54 78 0
4 7 9 53 55 79 0
4 7 10 53 56 80 0
4 7 11 53 57 81 0
4 7 12 53 58 82 0
4 7 13 53 59 83 0
4 7 14 53 60 84 0
4 8 9 54 55 85 0
4 8 10 54 56 86 0
4 8 11 54 57 87 0
4 8 12 54 58 88 0
4 8 13 54 59 89 0
4 8 14 54 60 90 0
4 9 10 55 56 91 0
4 9 11 55 57 92 0
4 9 12 55 58 93 0
4 9 13 55 59 94 0
4 9 14 55 60 95 0
4 10 11 56 57 96 0
4 10 12 56 58 97 0
4 10 13 56 59 98 0
4 10 14 56 60 99 0
4 11 12 57 58 100 0
4 11 13 57 59 101 0
4 11 14 57 60 102 0
4 12 13 58 59 103 0
4 12 14 58 60 104 0
4 13 14 59 60 105 0
5 6 7 61 62 70 0
5 6 8 61 63 71 0
5 6 9 61 64 72 0
5 6 10 61 65 73 0
5 6 11 61 66 74 0
5 6 12 61 67 75 0
5 6 13 61 68 76 0
5 6 14 61 69 77 0
5 7 8 62 63 78 0
5 7 9 62 64 79 0
5 7 10 62 65 80 0
5 7 11 62 66 81 0
5 7 12 62 67 82 0
5 7 13 62 68 83 0
5 7 14 62 69 84 0
5 8 9 63 64 85 0
5 8 10 63 65 86 0
5 8 11 63 66 87 0
5 8 12 63 67 88 0
5 8 13 63 68 89 0
5 8 14 63 69 90 0
5 9 10 64 65 91 0
5 9 11 64 66 92 0
5 9 12 64 67 93 0
5 9 13 64 68 94 0
5 9 14 64 69 95 0
5 10 11 65 66 96 0
5 10 12 65 67 97 0
5 10 13 65 68 98 0
5 10 14 65 69 99 0
5 11 12 66 67 100 0
5 11 13 66 68 101 0
5 11 14 66 69 102 0
5 12 13 67 68 103 0
5 12 14 67 69 104 0
5 13 14 68 69 105 0
6 7 8 70 71 78 0
6 7 9 70 72 79 0
6 7 10 70 73 80 0
6 7 11 70 74 81 0
6 7 12 70 75 82 0
6 7 13 70 76 83 0
6 7 14 70 77 84 0
6 8 9 71 72 85 0
6 8 10 71 73 86 0
6 8 11 71 74 87 0
6 8 12 71 75 88 0
6 8 13 71 76 89 0
6 8 14 71 77 90 0
6 9 10 72 73 91 0
6 9 11 72 74 92 0
6 9 12 72 75 93 0
6 9 13 72 76 94 0
6 9 14 72 77 95 0
6 10 11 73 74 96 0
6 10 12 73 75 97 0
6 10 13 73 76 98 0
6 10 14 73 77 99 0
6 11 12 74 75 100 0
6 11 13 74 76 101 0
6 11 14 74 77 102 0
6 12 13 75 76 103 0
6 12 14 75 77 104 0
6 13 14 76 77 105 0
7 8 9 78 79 85 0
7 8 10 78 80 86 0
7 8 11 78 81 87 0
7 8 12 78 82 88 0
7 8 13 78 83 89 0
7 8 14 78 84 90 0
7 9 10 79 80 91 0
7 9 11 79 81 92 0
7 9 12 79 82 93 0
7 9 13 79 83 94 0
7 9 14 79 84 95 0
7 10 11 80 81 96 0
7 10 12 80 82 97 0
7 10 13 80 83 98 0
7 10 14 80 84 99 0
7 11 12 81 82 100 0
7 11 13 81 83 101 0
7 11 14 81 84 102 0
7 12 13 82 83 103 0
7 12 14 82 84 104 0
7 13 14 83 84 105 0
8 9 10 85 86 91 0
8 9 11 85 87 92 0
8 9 12 85 88 93 0
8 9 13 85 89 94 0
8 9 14 85 90 95 0
8 10 11 86 87 96 0
8 10 12 86 88 97 0
8 10 13 86 89 98 0
8 10 14 86 90 99 0
8 11 12 87 88 100 0
8 11 13 87 89 101 0
8 11 14 87 90 102 0
8 12 13 88 89 103 0
8 12 14 88 90 104 0
8 13 14 89 90 105 0
9 10 11 91 92 96 0
9 10 12 91 93 97 0
9 10 13 91 94 98 0
9 10 14 91 95 99 0
9 11 12 92 93 100 0
9 11 13 92 94 101 0
9 11 14 92 95 102 0
9 12 13 93 94 103 0
9 12 14 93 95 104 0
9 13 14 94 95 105 0
10 11 12 96 97 100 0
10 11 13 96 98 101 0
10 11 14 96 99 102 0
10 12 13 97 98 103 0
10 12 14 97 99 104 0
10 13 14 98 99 105 0
11 12 13 100 101 103 0
11 12 14 100 102 104 0
11 13 14 101 102 105 0
12 13 14 103 104 105 0
15 16 17 28 29 40 0
15 16 18 28 30 41 0
15 16 19 28 31 42 0
15 16 20 28 32 43 0
15 16 21 28 33 44 0
15 16 22 28 34 45 0
15 16 23 28 35 46 0
15 16 24 28 36 47 0
15 16 25 28 37 48 0
15 16 26 28 38 49 0
15 16 27 28 39 50 0
15 16 1 28 2 3 0
15 17 18 29 30 51 0
15 17 19 29 31 52 0
15 17 20 29 32 53 0
15 17 21 29 33 54 0
15 17 22 29 34 55 0
15 17 23 29 35 56 0
15 17 24 29 36 57 0
15 17 25 29 37 58 0
15 17 26 29 38 59 0
15 17 27 29 39 60 0
15 17 1 29 2 4 0
15 18 19 30 31 61 0
15 18 20 30 32 62 0
15 18 21 30 33 63 0
15 18 22 30 34 64 0
15 18 23 30 35 65 0
15 18 24 30 36 66 0
15 18 25 30 37 67 0
15 18 26 30 38 68 0
15 18 27 30 39 69 0
15 18 1 30 2 5 0
15 19 20 31 32 70 0
15 19 21 31 33 71 0
15 19 22 31 34 72 0
15 19 23 31 35 73 0
15 19 24 31 36 74 0
15 19 25 31 37 75 0
15 19 26 31 38 76 0
15 19 27 31 39 77 0
15 19 1 31 2 6 0
15 20 21 32 33 78 0
15 20 22 32 34 79 0
15 20 23 32 35 80 0
15 20 24 32 36 81 0
15 20 25 32 37 82 0
15 20 26 32 38 83 0
15 20 27 32 39 84 0
15 20 1 32 2 7 0
15 21 22 33 34 85 0
15 21 23 33 35 86 0
15 21 24 33 36 87 0
15 21 25 33 37 88 0
15 21 26 33 38 89 0
15 21 27 33 39 90 0
15 21 1 33 2 8 0
15 22 23 34 35 91 0
15 22 24 34 36 92 0
15 22 25 34 37 93 0
15 22 26 34 38 94 0
15 22 27 34 39 95 0
15 22 1 34 2 9 0
15 23 24 35 36 96 0
15 23 25 35 37 97 0
15 23 26 35 38 98 0
15 23 27 35 39 99 0
15 23 1 35 2 10 0
15 24 25 36 37 100 0
15 24 26 36 38 101 0
15 24 27 36 39 102 0
15 24 1 36 2 11 0
15 25 26 37 38 103 0
15 25 27 37 39 104 0
15 25 1 37 2 12 0
15 26 27 38 39 105 0
15 26 1 38 2 13 0
15 27 1 39 2 14 0
16 17 18 40 41 51 0
16 17 19 40 42 52 0
16 17 20 40 43 53 0
16 17 21 40 44 54 0
16 17 22 40 45 55 0
16 17 23 40 46 56 0
16 17 24 40 47 57 0
16 17 25 40 48 58 0
16 17 26 40 49 59 0
16 17 27 40 50 60 0
16 17 1 40 3 4 0
16 18 19 41 42 61 0
16 18 20 41 43 62 0
16 18 21 41 44 63 0
16 18 22 41 45 64 0
16 18 23 41 46 65 0
16 18 24 41 47 66 0
16 18 25 41 48 67 0
16 18 26 41 49 68 0
16 18 27 41 50 69 0
16 18 1 41 3 5 0
16 19 20 42 43 70 0
16 19 21 42 44 71 0
16 19 22 42 45 72 0
16 19 23 42 46 73 0
16 19 24 42 47 74 0
16 19 25 42 48 75 0
16 19 26 42 49 76 0
16 19 27 42 50 77 0
16 19 1 42 3 6 0
16 20 21 43 44 78 0
16 20 22 43 45 79 0
16 20 23 43 46 80 0
16 20 24 43 47 81 0
16 20 25 43 48 82 0
16 20 26 43 49 83 0
16 20 27 43 50 84 0
16 20 1 43 3 7 0
16 21 22 44 45 85 0
16 21 23 44 46 86 0
16 21 24 44 47 87 0
16 21 25 44 48 88 0
16 21 26 44 49 89 0
16 21 27 44 50 90 0
16 21 1 44 3 8 0
16 22 23 45 46 91 0
16 22 24 45 47 92 0
16 22 25 45 48 93 0
16 22 26 45 49 94 0
16 22 27 45 50 95 0
16 22 1 45 3 9 0
16 23 24 46 47 96 0
16 23 25 46 48 97 0
16 23 26 46 49 98 0
16 23 27 46 50 99 0
16 23 1 46 3 10 0
16 24 25 47 48 100 0
16 24 26 47 49 101 0
16 24 27 47 50 102 0
16 24 1 47 3 11 0
16 25 26 48 49 103 0
16 25 27 48 50 104 0
16 25 1 48 3 12 0
16 26 27 49 50 105 0
16 26 1 49 3 13 0
16 27 1 50 3 14 0
17 18 19 51 52 61 0
17 18 20 51 53 62 0
17 18 21 51 54 63 0
17 18 22 51 55 64 0
17 18 23 51 56 65 0
17 18 24 51 57 66 0
17 18 25 51 58 67 0
17 18 26 51 59 68 0
17 18 27 51 60 69 0
17 18 1 51 4 5 0
17 19 20 52 53 70 0
17 19 21 52 54 71 0
17 19 22 52 55 72 0
17 19 23 52 56 73 0
17 19 24 52 57 74 0
17 19 25 52 58 75 0
17 19 26 52 59 76 0
17 19 27 52 60 77 0
17 19 1 52 4 6 0
17 20 21 53 54 78 0
17 20 22 53 55 79 0
17 20 23 53 56 80 0
17 20 24 53 57 81 0
17 20 25 53 58 82 0
17 20 26 53 59 83 0
17 20 27 53 60 84 0
17 20 1 53 4 7 0
17 21 22 54 55 85 0
17 21 23 54 56 86 0
17 21 24 54 57 87 0
17 21 25 54 58 88 0
17 21 26 54 59 89 0
17 21 27 54 60 90 0
17 21 1 54 4 8 0
17 22 23 55 56 91 0
17 22 24 55 57 92 0
17 22 25 55 58 93 0
17 22 26 55 59 94 0
17 22 27 55 60 95 0
17 22 1 55 4 9 0
17 23 24 56 57 96 0
17 23 25 56 58 97 0
17 23 26 56 59 98 0
17 23 27 56 60 99 0
17 23 1 56 4 10 0
17 24 25 57 58 100 0
17 24 26 57 59 101 0
17 24 27 57 60 102 0
17 24 1 57 4 11 0
17 25 26 58 59 103 0
17 25 27 58 60 104 0
17 25 1 58 4 12 0
17 26 27 59 60 105 0
17 26 1 59 4 13 0
17 27 1 60 4 14 0
18 19 20 61 62 70 0
18 19 21 61 63 71 0
18 19 22 61 64 72 0
18 19 23 61 65 73 0
18 19 24 61 66 74 0
18 19 25 61 67 75 0
18 19 26 61 68 76 0
18 19 27 61 69 77 0
18 19 1 61 5 6 0
18 20 21 62 63 78 0
18 20 22 62 64 79 0
18 20 23 62 65 80 0
18 20 24 62 66 81 0
18 20 25 62 67 82 0
18 20 26 62 68 83 0
18 20 27 62 69 84 0
18 20 1 62 5 7 0
18 21 22 63 64 85 0
18 21 23 63 65 86 0
18 21 24 63 66 87 0
18 21 25 63 67 88 0
18 21 26 63 68 89 0
18 21 27 63 69 90 0
18 21 1 63 5 8 0
18 22 23 64 65 91 0
18 22 24 64 66 92 0
18 22 25 64 67 93 0
18 22 26 64 68 94 0
18 22 27 64 69 95 0
18 22 1 64 5 9 0
18 23 24 65 66 96 0
18 23 25 65 67 97 0
18 23 26 65 68 98 0
18 23 27 65 69 99 0
18 23 1 65 5 10 0
18 24 25 66 67 100 0
18 24 26 66 68 101 0
18 24 27 66 69 102 0
18 24 1 66 5 11 0
18 25 26 67 68 103 0
18 25 27 67 69 104 0
18 25 1 67 5 12 0
18 26 27 68 69 105 0
18 26 1 68 5 13 0
18 27 1 69 5 14 0
19 20 21 70 71 78 0
19 20 22 70 72 79 0
19 20 23 70 73 80 0
19 20 24 70 74 81 0
19 20 25 70 75 82 0
19 20 26 70 76 83 0
19 20 27 70 77 84 0
19 20 1 70 6 7 0
19 21 22 71 72 85 0
19 21 23 71 73 86 0
19 21 24 71 74 87 0
19 21 25 71 75 88 0
19 21 26 71 76 89 0
19 21 27 71 77 90 0
19 21 1 71 6 8 0
19 22 23 72 73 91 0
19 22 24 72 74 92 0
19 22 25 72 75 93 0
19 22 26 72 76 94 0
19 22 27 72 77 95 0
19 22 1 72 6 9 0
19 23 24 73 74 96 0
19 23 25 73 75 97 0
19 23 26 73 76 98 0
19 23 27 73 77 99 0
19 23 1 73 6 10 0
19 24 25 74 75 100 0
19 24 26 74 76 101 0
19 24 27 74 77 102 0
19 24 1 74 6 11 0
19 25 26 75 76 103 0
19 25 27 75 77 104 0
19 25 1 75 6 12 0
19 26 27 76 77 105 0
19 26 1 76 6 13 0
19 27 1 77 6 14 0
20 21 22 78 79 85 0
20 21 23 78 80 86 0
20 21 24 78 81 87 0
20 21 25 78 82 88 0
20 21 26 78 83 89 0
20 21 27 78 84 90 0
20 21 1 78 7 8 0
20 22 23 79 80 91 0
20 22 24 79 81 92 0
20 22 25 79 82 93 0
20 22 26 79 83 94 0
20 22 27 79 84 95 0
20 22 1 79 7 9 0
20 23 24 80 81 96 0
20 23 25 80 82 97 0
20 23 26 80 83 98 0
20 23 27 80 84 99 0
20 23 1 80 7 10 0
20 24 25 81 82 100 0
20 24 26 81 83 101 0
20 24 27 81 84 102 0
20 24 1 81 7 11 0
20 25 26 82 83 103 0
20 25 27 82 84 104 0
20 25 1 82 7 12 0
20 26 27 83 84 105 0
20 26 1 83 7 13 0
20 27 1 84 7 14 0
21 22 23 85 86 91 0
21 22 24 85 87 92 0
21 22 25 85 88 93 0
21 22 26 85 89 94 0
21 22 27 85 90 95 0
21 22 1 85 8 9 0
21 23 24 86 87 96 0
21 23 25 86 88 97 0
21 23 26 86 89 98 0
21 23 27 86 90 99 0
21 23 1 86 8 10 0
21 24 25 87 88 100 0
21 24 26 87 89 101 0
21 24 27 87 90 102 0
21 24 1 87 8 11 0
21 25 26 88 89 103 0
21 25 27 88 90 104 0
21 25 1 88 8 12 0
21 26 27 89 90 105 0
21 26 1 89 8 13 0
21 27 1 90 8 14 0
22 23 24 91 92 96 0
22 23 25 91 93 97 0
22 23 26 91 94 98 0
22 23 27 91 95 99 0
22 23 1 91 9 10 0
22 24 25 92 93 100 0
22 24 26 92 94 101 0
22 24 27 92 95 102 0
22 24 1 92 9 11 0
22 25 26 93 94 103 0
22 25 27 93 95 104 0
22 25 1 93 9 12 0
22 26 27 94 95 105 0
22 26 1 94 9 13 0
22 27 1 95 9 14 0
23 24 25 96 97 100 0
23 24 26 96 98 101 0
23 24 27 96 99 102 0
23 24 1 96 10 11 0
23 25 26 97 98 103 0
23 25 27 97 99 104 0
23 25 1 97 10 12 0
23 26 27 98 99 105 0
23 26 1 98 10 13 0
23 27 1 99 10 14 0
24 25 26 100 101 103 0
24 25 27 100 102 104 0
24 25 1 100 11 12 0
24 26 27 101 102 105 0
24 26 1 101 11 13 0
24 27 1 102 11 14 0
25 26 27 103 104 105 0
25 26 1 103 12 13 0
25 27 1 104 12 14 0
26 27 1 105 13 14 0
28 29 30 40 41 51 0
28 29 31 40 42 52 0
28 29 32 40 43 53 0
28 29 33 40 44 54 0
28 29 34 40 45 55 0
28 29 35 40 46 56 0
28 29 36 40 47 57 0
28 29 37 40 48 58 0
28 29 38 40 49 59 0
28 29 39 40 50 60 0
28 29 2 40 3 4 0
28 29 15 40 16 17 0
28 30 31 41 42 61 0
28 30 32 41 43 62 0
28 30 33 41 44 63 0
28 30 34 41 45 64 0
28 30 35 41 46 65 0
28 30 36 41 47 66 0
28 30 37 41 48 67 0
28 30 38 41 49 68 0
28 30 39 41 50 69 0
28 30 2 41 3 5 0
28 30 15 41 16 18 0
28 31 32 42 43 70 0
28 31 33 42 44 71 0
28 31 34 42 45 72 0
28 31 35 42 46 73 0
28 31 36 42 47 74 0
28 31 37 42 48 75 0
28 31 38 42 49 76 0
28 31 39 42 50 77 0
28 31 2 42 3 6 0
28 31 15 42 16 19 0
28 32 33 43 44 78 0
28 32 34 43 45 79 0
28 32 35 43 46 80 0
28 32 36 43 47 81 0
28 32 37 43 48 82 0
28 32 38 43 49 83 0
28 32 39 43 50 84 0
28 32 2 43 3 7 0
28 32 15 43 16 20 0
28 33 34 44 45 85 0
28 33 35 44 46 86 0
28 33 36 44 47 87 0
28 33 37 44 48 88 0
28 33 38 44 49 89 0
28 33 39 44 50 90 0
28 33 2 44 3 8 0
28 33 15 44 16 21 0
28 34 35 45 46 91 0
28 34 36 45 47 92 0
28 34 37 45 48 93 0
28 34 38 45 49 94 0
28 34 39 45 50 95 0
28 34 2 45 3 9 0
28 34 15 45 16 22 0
28 35 36 46 47 96 0
28 35 37 46 48 97 0
28 35 38 46 49 98 0
28 35 39 46 50 99 0
28 35 2 46 3 10 0
28 35 15 46 16 23 0
28 36 37 47 48 100 0
28 36 38 47 49 101 0
28 36 39 47 50 102 0
28 36 2 47 3 11 0
28 36 15 47 16 24 0
28 37 38 48 49 103 0
28 37 39 48 50 104 0
28 37 2 48 3 12 0
28 37 15 48 16 25 0
28 38 39 49 50 105 0
28 38 2 49 3 13 0
28 38 15 49 16 26 0
28 39 2 50 3 14 0
28 39 15 50 16 27 0
28 2 15 3 16 1 0
29 30 31 51 52 61 0
29 30 32 51 53 62 0
29 30 33 51 54 63 0
29 30 34 51 55 64 0
29 30 35 51 56 65 0
29 30 36 51 57 66 0
29 30 37 51 58 67 0
29 30 38 51 59 68 0
29 30 39 51 60 69 0
29 30 2 51 4 5 0
29 30 15 51 17 18 0
29 31 32 52 53 70 0
29 31 33 52 54 71 0
29 31 34 52 55 72 0
29 31 35 52 56 73 0
29 31 36 52 57 74 0
29 31 37 52 58 75 0
29 31 38 52 59 76 0
29 31 39 52 60 77 0
29 31 2 52 4 6 0
29 31 15 52 17 19 0
29 32 33 53 54 78 0
29 32 34 53 55 79 0
29 32 35 53 56 80 0
29 32 36 53 57 81 0
29 32 37 53 58 82 0
29 32 38 53 59 83 0
29 32 39 53 60 84 0
29 32 2 53 4 7 0
29 32 15 53 17 20 0
29 33 34 54 55 85 0
29 33 35 54 56 86 0
29 33 36 54 57 87 0
29 33 37 54 58 88 0
29 33 38 54 59 89 0
29 33 39 54 60 90 0
29 33 2 54 4 8 0
29 33 15 54 17 21 0
29 34 35 55 56 91 0
29 34 36 55 57 92 0
29 34 37 55 58 93 0
29 34 38 55 59 94 0
29 34 39 55 60 95 0
29 34 2 55 4 9 0
29 34 15 55 17 22 0
29 35 36 56 57 96 0
29 35 37 56 58 97 0
29 35 38 56 59 98 0
29 35 39 56 60 99 0
29 35 2 56 4 10 0
29 35 15 56 17 23 0
29 36 37 57 58 100 0
29 36 38 57 59 101 0
29 36 39 57 60 102 0
29 36 2 57 4 11 0
29 36 15 57 17 24 0
29 37 38 58 59 103 0
29 37 39 58 60 104 0
29 37 2 58 4 12 0
29 37 15 58 17 25 0
29 38 39 59 60 105 0
29 38 2 59 4 13 0
29 38 15 59 17 26 0
29 39 2 60 4 14 0
29 39 15 60 17 27 0
29 2 15 4 17 1 0
30 31 32 61 62 70 0
30 31 33 61 63 71 0
30 31 34 61 64 72 0
30 31 35 61 65 73 0
30 31 36 61 66 74 0
30 31 37 61 67 75 0
30 31 38 61 68 76 0
30 31 39 61 69 77 0
30 31 2 61 5 6 0
30 31 15 61 18 19 0
30 32 33 62 63 78 0
30 32 34 62 64 79 0
30 32 35 62 65 80 0
30 32 36 62 66 81 0
30 32 37 62 67 82 0
30 32 38 62 68 83 0
30 32 39 62 69 84 0
30 32 2 62 5 7 0
30 32 15 62 18 20 0
30 33 34 63 64 85 0
30 33 35 63 65 86 0
30 33 36 63 66 87 0
30 33 37 63 67 88 0
30 33 38 63 68 89 0
30 33 39 63 69 90 0
30 33 2 63 5 8 0
30 33 15 63 18 21 0
30 34 35 64 65 91 0
30 34 36 64 66 92 0
30 34 37 64 67 93 0
30 34 38 64 68 94 0
30 34 39 64 69 95 0
30 34 2 64 5 9 0
30 34 15 64 18 22 0
30 35 36 65 66 96 0
30 35 37 65 67 97 0
30 35 38 65 68 98 0
30 35 39 65 69 99 0
30 35 2 65 5 10 0
30 35 15 65 18 23 0
30 36 37 66 67 100 0
30 36 38 66 68 101 0
30 36 39 66 69 102 0
30 36 2 66 5 11 0
30 36 15 66 18 24 0
30 37 38 67 68 103 0
30 37 39 67 69 104 0
30 37 2 67 5 12 0
30 37 15 67 18 25 0
30 38 39 68 69 105 0
30 38 2 68 5 13 0
30 38 15 68 18 26 0
30 39 2 69 5 14 0
30 39 15 69 18 27 0
30 2 15 5 18 1 0
31 32 33 70 71 78 0
31 32 34 70 72 79 0
31 32 35 70 73 80 0
31 32 36 70 74 81 0
31 32 37 70 75 82 0
31 32 38 70 76 83 0
31 32 39 70 77 84 0
31 32 2 70 6 7 0
31 32 15 70 19 20 0
31 33 34 71 72 85 0
31 33 35 71 73 86 0
31 33 36 71 74 87 0
31 33 37 71 75 88 0
31 33 38 71 76 89 0
31 33 39 71 77 90 0
31 33 2 71 6 8 0
31 33 15 71 19 21 0
31 34 35 72 73 91 0
31 34 36 72 74 92 0
31 34 37 72 75 93 0
31 34 38 72 76 94 0
31 34 39 72 77 95 0
31 34 2 72 6 9 0
31 34 15 72 19 22 0
31 35 36 73 74 96 0
31 35 37 73 75 97 0
31 35 38 73 76 98 0
31 35 39 73 77 99 0
31 35 2 73 6 10 0
31 35 15 73 19 23 0
31 36 37 74 75 100 0
31 36 38 74 76 101 0
31 36 39 74 77 102 0
31 36 2 74 6 11 0
31 36 15 74 19 24 0
31 37 38 75 76 103 0
31 37 39 75 77 104 0
31 37 2 75 6 12 0
31 37 15 75 19 25 0
31 38 39 76 77 105 0
31 38 2 76 6 13 0
31 38 15 76 19 26 0
31 39 2 77 6 14 0
31 39 15 77 19 27 0
31 2 15 6 19 1 0
32 33 34 78 79 85 0
32 33 35 78 80 86 0
32 33 36 78 81 87 0
32 33 37 78 82 88 0
32 33 38 78 83 89 0
32 33 39 78 84 90 0
32 33 2 78 7 8 0
32 33 15 78 20 21 0
32 34 35 79 80 91 0
32 34 36 79 81 92 0
32 34 37 79 82 93 0
32 34 38 79 83 94 0
32 34 39 79 84 95 0
32 34 2 79 7 9 0
32 34 15 79 20 22 0
32 35 36 80 81 96 0
32 35 37 80 82 97 0
32 35 38 80 83 98 0
32 35 39 80 84 99 0
32 35 2 80 7 10 0
32 35 15 80 20 23 0
32 36 37 81 82 100 0
32 36 38 81 83 101 0
32 36 39 81 84 102 0
32 36 2 81 7 11 0
32 36 15 81 20 24 0
32 37 38 82 83 103 0
32 37 39 82 84 104 0
32 37 2 82 7 12 0
32 37 15 82 20 25 0
32 38 39 83 84 105 0
32 38 2 83 7 13 0
32 38 15 83 20 26 0
32 39 2 84 7 14 0
32 39 15 84 20 27 0
32 2 15 7 20 1 0
33 34 35 85 86 91 0
33 34 36 85 87 92 0
33 34 37 85 88 93 0
33 34 38 85 89 94 0
33 34 39 85 90 95 0
33 34 2 85 8 9 0
33 34 15 85 21 22 0
33 35 36 86 87 96 0
33 35 37 86 88 97 0
33 35 38 86 89 98 0
33 35 39 86 90 99 0
33 35 2 86 8 10 0
33 35 15 86 21 23 0
33 36 37 87 88 100 0
33 36 38 87 89 101 0
33 36 39 87 90 102 0
33 36 2 87 8 11 0
33 36 15 87 21 24 0
33 37 38 88 89 103 0
33 37 39 88 90 104 0
33 37 2 88 8 12 0
33 37 15 88 21 25 0
33 38 39 89 90 105 0
33 38 2 89 8 13 0
33 38 15 89 21 26 0
33 39 2 90 8 14 0
33 39 15 90 21 27 0
33 2 15 8 21 1 0
34 35 36 91 92 96 0
34 35 37 91 93 97 0
34 35 38 91 94 98 0
34 35 39 91 95 99 0
34 35 2 91 9 10 0
34 35 15 91 22 23 0
34 36 37 92 93 100 0
34 36 38 92 94 101 0
34 36 39 92 95 102 0
34 36 2 92 9 11 0
34 36 15 92 22 24 0
34 37 38 93 94 103 0
34 37 39 93 95 104 0
34 37 2 93 9 12 0
34 37 15 93 22 25 0
34 38 39 94 95 105 0
34 38 2 94 9 13 0
34 38 15 94 22 26 0
34 39 2 95 9 14 0
34 39 15 95 22 27 0
34 2 15 9 22 1 0
35 36 37 96 97 100 0
35 36 38 96 98 101 0
35 36 39 96 99 102 0
35 36 2 96 10 11 0
35 36 15 96 23 24 0
35 37 38 97 98 103 0
35 37 39 97 99 104 0
35 37 2 97 10 12 0
35 37 15 97 23 25 0
35 38 39 98 99 105 0
35 38 2 98 10 13 0
35 38 15 98 23 26 0
35 39 2 99 10 14 0
35 39 15 99 23 27 0
35 2 15 10 23 1 0
36 37 38 100 101 103 0
36 37 39 100 102 104 0
36 37 2 100 11 12 0
36 37 15 100 24 25 0
36 38 39 101 102 105 0
36 38 2 101 11 13 0
36 38 15 101 24 26 0
36 39 2 102 11 14 0
36 39 15 102 24 27 0
36 2 15 11 24 1 0
37 38 39 103 104 105 0
37 38 2 103 12 13 0
37 38 15 103 25 26 0
37 39 2 104 12 14 0
37 39 15 104 25 27 0
37 2 15 12 25 1 0
38 39 2 105 13 14 0
38 39 15 105 26 27 0
38 2 15 13 26 1 0
39 2 15 14 27 1 0
40 41 42 51 52 61 0
40 41 43 51 53 62 0
40 41 44 51 54 63 0
40 41 45 51 55 64 0
40 41 46 51 56 65 0
40 41 47 51 57 66 0
40 41 48 51 58 67 0
40 41 49 51 59 68 0
40 41 50 51 60 69 0
40 41 3 51 4 5 0
40 41 16 51 17 18 0
40 41 28 51 29 30 0
40 42 43 52 53 70 0
40 42 44 52 54 71 0
40 42 45 52 55 72 0
40 42 46 52 56 73 0
40 42 47 52 57 74 0
40 42 48 52 58 75 0
40 42 49 52 59 76 0
40 42 50 52 60 77 0
40 42 3 52 4 6 0
40 42 16 52 17 19 0
40 42 28 52 29 31 0
40 43 44 53 54 78 0
40 43 45 53 55 79 0
40 43 46 53 56 80 0
40 43 47 53 57 81 0
40 43 48 53 58 82 0
40 43 49 53 59 83 0
40 43 50 53 60 84 0
40 43 3 53 4 7 0
40 43 16 53 17 20 0
40 43 28 53 29 32 0
40 44 45 54 55 85 0
40 44 46 54 56 86 0
40 44 47 54 57 87 0
40 44 48 54 58 88 0
40 44 49 54 59 89 0
40 44 50 54 60 90 0
40 44 3 54 4 8 0
40 44 16 54 17 21 0
40 44 28 54 29 33 0
40 45 46 55 56 91 0
40 45 47 55 57 92 0
40 45 48 55 58 93 0
40 45 49 55 59 94 0
40 45 50 55 60 95 0
40 45 3 55 4 9 0
40 45 16 55 17 22 0
40 45 28 55 29 34 0
40 46 47 56 57 96 0
40 46 48 56 58 97 0
40 46 49 56 59 98 0
40 46 50 56 60 99 0
40 46 3 56 4 10 0
40 46 16 56 17 23 0
40 46 28 56 29 35 0
40 47 48 57 58 100 0
40 47 49 57 59 101 0
40 47 50 57 60 102 0
40 47 3 57 4 11 0
40 47 16 57 17 24 0
40 47 28 57 29 36 0
40 48 49 58 59 103 0
40 48 50 58 60 104 0
40 48 3 58 4 12 0
40 48 16 58 17 25 0
40 48 28 58 29 37 0
40 49 50 59 60 105 0
40 49 3 59 4 13 0
40 49 16 59 17 26 0
40 49 28 59 29 38 0
40 50 3 60 4 14 0
40 50 16 60 17 27 0
40 50 28 60 29 39 0
40 3 16 4 17 1 0
40 3 28 4 29 2 0
40 16 28 17 29 15 0
41 42 43 61 62 70 0
41 42 44 61 63 71 0
41 42 45 61 64 72 0
41 42 46 61 65 73 0
41 42 47 61 66 74 0
41 42 48 61 67 75 0
41 42 49 61 68 76 0
41 42 50 61 69 77 0
41 42 3 61 5 6 0
41 42 16 61 18 19 0
41 42 28 61 30 31 0
41 43 44 62 63 78 0
41 43 45 62 64 79 0
41 43 46 62 65 80 0
41 43 47 62 66 81 0
41 43 48 62 67 82 0
41 43 49 62 68 83 0
41 43 50 62 69 84 0
41 43 3 62 5 7 0
41 43 16 62 18 20 0
41 43 28 62 30 32 0
41 44 45 63 64 85 0
41 44 46 63 65 86 0
41 44 47 63 66 87 0
41 44 48 63 67 88 0
41 44 49 63 68 89 0
41 44 50 63 69 90 0
41 44 3 63 5 8 0
41 44 16 63 18 21 0
41 44 28 63 30 33 0
41 45 46 64 65 91 0
41 45 47 64 66 92 0
41 45 48 64 67 93 0
41 45 49 64 68 94 0
41 45 50 64 69 95 0
41 45 3 64 5 9 0
41 45 16 64 18 22 0
41 45 28 64 30 34 0
41 46 47 65 66 96 0
41 46 48 65 67 97 0
41 46 49 65 68 98 0
41 46 50 65 69 99 0
41 46 3 65 5 10 0
41 46 16 65 18 23 0
41 46 28 65 30 35 0
41 47 48 66 67 100 0
41 47 49 66 68 101 0
41 47 50 66 69 102 0
41 47 3 66 5 11 0
41 47 16 66 18 24 0
41 47 28 66 30 36 0
41 48 49 67 68 103 0
41 48 50 67 69 104 0
41 48 3 67 5 12 0
41 48 16 67 18 25 0
41 48 28 67 30 37 0
41 49 50 68 69 105 0
41 49 3 68 5 13 0
41 49 16 68 18 26 0
41 49 28 68 30 38 0
41 50 3 69 5 14 0
41 50 16 69 18 27 0
41 50 28 69 30 39 0
41 3 16 5 18 1 0
41 3 28 5 30 2 0
41 16 28 18 30 15 0
42 43 44 70 71 78 0
42 43 45 70 72 79 0
42 43 46 70 73 80 0
42 43 47 70 74 81 0
42 43 48 70 75 82 0
42 43 49 70 76 83 0
42 43 50 70 77 84 0
42 43 3 70 6 7 0
42 43 16 70 19 20 0
42 43 28 70 31 32 0
42 44 45 71 72 85 0
42 44 46 71 73 86 0
42 44 47 71 74 87 0
42 44 48 71 75 88 0
42 44 49 71 76 89 0
42 44 50 71 77 90 0
42 44 3 71 6 8 0
42 44 16 71 19 21 0
42 44 28 71 31 33 0
42 45 46 72 73 91 0
42 45 47 72 74 92 0
42 45 48 72 75 93 0
42 45 49 72 76 94 0
42 45 50 72 77 95 0
42 45 3 72 6 9 0
42 45 16 72 19 22 0
42 45 28 72 31 34 0
42 46 47 73 74 96 0
42 46 48 73 75 97 0
42 46 49 73 76 98 0
42 46 50 73 77 99 0
42 46 3 73 6 10 0
42 46 16 73 19 23 0
42 46 28 73 31 35 0
42 47 48 74 75 100 0
42 47 49 74 76 101 0
42 47 50 74 77 102 0
42 47 3 74 6 11 0
42 47 16 74 19 24 0
42 47 28 74 31 36 0
42 48 49 75 76 103 0
42 48 50 75 77 104 0
42 48 3 75 6 12 0
42 48 16 75 19 25 0
42 48 28 75 31 37 0
42 49 50 76 77 105 0
42 49 3 76 6 13 0
42 49 16 76 19 26 0
42 49 28 76 31 38 0
42 50 3 77 6 14 0
42 50 16 77 19 27 0
42 50 28 77 31 39 0
42 3 16 6 19 1 0
42 3 28 6 31 2 0
42 16 28 19 31 15 0
43 44 45 78 79 85 0
43 44 46 78 80 86 0
43 44 47 78 81 87 0
43 44 48 78 82 88 0
43 44 49 78 83 89 0
43 44 50 78 84 90 0
43 44 3 78 7 8 0
43 44 16 78 20 21 0
43 44 28 78 32 33 0
43 45 46 79 80 91 0
43 45 47 79 81 92 0
43 45 48 79 82 93 0
43 45 49 79 83 94 0
43 45 50 79 84 95 0
43 45 3 79 7 9 0
43 45 16 79 20 22 0
43 45 28 79 32 34 0
43 46 47 80 81 96 0
43 46 48 80 82 97 0
43 46 49 80 83 98 0
43 46 50 80 84 99 0
43 46 3 80 7 10 0
43 46 16 80 20 23 0
43 46 28 80 32 35 0
43 47 48 81 82 100 0
43 47 49 81 83 101 0
43 47 50 81 84 102 0
43 47 3 81 7 11 0
43 47 16 81 20 24 0
43 47 28 81 32 36 0
43 48 49 82 83 103 0
43 48 50 82 84 104 0
43 48 3 82 7 12 0
43 48 16 82 20 25 0
43 48 28 82 32 37 0
43 49 50 83 84 105 0
43 49 3 83 7 13 0
43 49 16 83 20 26 0
43 49 28 83 32 38 0
43 50 3 84 7 14 0
43 50 16 84 20 27 0
43 50 28 84 32 39 0
43 3 16 7 20 1 0
43 3 28 7 32 2 0
43 16 28 20 32 15 0
44 45 46 85 86 91 0
44 45 47 85 87 92 0
44 45 48 85 88 93 0
44 45 49 85 89 94 0
44 45 50 85 90 95 0
44 45 3 85 8 9 0
44 45 16 85 21 22 0
44 45 28 85 33 34 0
44 46 47 86 87 96 0
44 46 48 86 88 97 0
44 46 49 86 89 98 0
44 46 50 86 90 99 0
44 46 3 86 8 10 0
44 46 16 86 21 23 0
44 46 28 86 33 35 0
44 47 48 87 88 100 0
44 47 49 87 89 101 0
44 47 50 87 90 102 0
44 47 3 87 8 11 0
44 47 16 87 21 24 0
44 47 28 87 33 36 0
44 48 49 88 89 103 0
44 48 50 88 90 104 0
44 48 3 88 8 12 0
44 48 16 88 21 25 0
44 48 28 88 33 37 0
44 49 50 89 90 105 0
44 49 3 89 8 13 0
44 49 16 89 21 26 0
44 49 28 89 33 38 0
44 50 3 90 8 14 0
44 50 16 90 21 27 0
44 50 28 90 33 39 0
44 3 16 8 21 1 0
44 3 28 8 33 2 0
44 16 28 21 33 15 0
45 46 47 91 92 96 0
45 46 48 91 93 97 0
45 46 49 91 94 98 0
45 46 50 91 95 99 0
45 46 3 91 9 10 0
45 46 16 91 22 23 0
45 46 28 91 34 35 0
45 47 48 92 93 100 0
45 47 49 92 94 101 0
45 47 50 92 95 102 0
45 47 3 92 9 11 0
45 47 16 92 22 24 0
45 47 28 92 34 36 0
45 48 49 93 94 103 0
45 48 50 93 95 104 0
45 48 3 93 9 12 0
45 48 16 93 22 25 0
45 48 28 93 34 37 0
45 49 50 94 95 105 0
45 49 3 94 9 13 0
45 49 16 94 22 26 0
45 49 28 94 34 38 0
45 50 3 95 9 14 0
45 50 16 95 22 27 0
45 50 28 95 34 39 0
45 3 16 9 22 1 0
45 3 28 9 34 2 0
45 16 28 22 34 15 0
46 47 48 96 97 100 0
46 47 49 96 98 101 0
46 47 50 96 99 102 0
46 47 3 96 10 11 0
46 47 16 96 23 24 0
46 47 28 96 35 36 0
46 48 49 97 98 103 0
46 48 50 97 99 104 0
46 48 3 97 10 12 0
46 48 16 97 23 25 0
46 48 28 97 35 37 0
46 49 50 98 99 105 0
46 49 3 98 10 13 0
46 49 16 98 23 26 0
46 49 28 98 35 38 0
46 50 3 99 10 14 0
46 50 16 99 23 27 0
46 50 28 99 35 39 0
46 3 16 10 23 1 0
46 3 28 10 35 2 0
46 16 28 23 35 15 0
47 48 49 100 101 103 0
47 48 50 100 102 104 0
47 48 3 100 11 12 0
47 48 16 100 24 25 0
47 48 28 100 36 37 0
47 49 50 101 102 105 0
47 49 3 101 11 13 0
47 49 16 101 24 26 0
47 49 28 101 36 38 0
47 50 3 102 11 14 0
47 50 16 102 24 27 0
47 50 28 102 36 39 0
47 3 16 11 24 1 0
47 3 28 11 36 2 0
47 16 28 24 36 15 0
48 49 50 103 104 105 0
48 49 3 103 12 13 0
48 49 16 103 25 26 0
48 49 28 103 37 38 0
48 50 3 104 12 14 0
48 50 16 104 25 27 0
48 50 28 104 37 39 0
48 3 16 12 25 1 0
48 3 28 12 37 2 0
48 16 28 25 37 15 0
49 50 3 105 13 14 0
49 50 16 105 26 27 0
49 50 28 105 38 39 0
49 3 16 13 26 1 0
49 3 28 13 38 2 0
49 16 28 26 38 15 0
50 3 16 14 27 1 0
50 3 28 14 39 2 0
50 16 28 27 39 15 0
3 16 28 1 2 15 0
51 52 53 61 62 70 0
51 52 54 61 63 71 0
51 52 55 61 64 72 0
51 52 56 61 65 73 0
51 52 57 61 66 74 0
51 52 58 61 67 75 0
51 52 59 61 68 76 0
51 52 60 61 69 77 0
51 52 4 61 5 6 0
51 52 17 61 18 19 0
51 52 29 61 30 31 0
51 52 40 61 41 42 0
51 53 54 62 63 78 0
51 53 55 62 64 79 0
51 53 56 62 65 80 0
51 53 57 62 66 81 0
51 53 58 62 67 82 0
51 53 59 62 68 83 0
51 53 60 62 69 84 0
51 53 4 62 5 7 0
51 53 17 62 18 20 0
51 53 29 62 30 32 0
51 53 40 62 41 43 0
51 54 55 63 64 85 0
51 54 56 63 65 86 0
51 54 57 63 66 87 0
51 54 58 63 67 88 0
51 54 59 63 68 89 0
51 54 60 63 69 90 0
51 54 4 63 5 8 0
51 54 17 63 18 21 0
51 54 29 63 30 33 0
51 54 40 63 41 44 0
51 55 56 64 65 91 0
51 55 57 64 66 92 0
51 55 58 64 67 93 0
51 55 59 64 68 94 0
51 55 60 64 69 95 0
51 55 4 64 5 9 0
51 55 17 64 18 22 0
51 55 29 64 30 34 0
51 55 40 64 41 45 0
51 56 57 65 66 96 0
51 56 58 65 67 97 0
51 56 59 65 68 98 0
51 56 60 65 69 99 0
51 56 4 65 5 10 0
51 56 17 65 18 23 0
51 56 29 65 30 35 0
51 56 40 65 41 46 0
51 57 58 66 67 100 0
51 57 59 66 68 101 0
51 57 60 66 69 102 0
51 57 4 66 5 11 0
51 57 17 66 18 24 0
51 57 29 66 30 36 0
51 57 40 66 41 47 0
51 58 59 67 68 103 0
51 58 60 67 69 104 0
51 58 4 67 5 12 0
51 58 17 67 18 25 0
51 58 29 67 30 37 0
51 58 40 67 41 48 0
51 59 60 68 69 105 0
51 59 4 68 5 13 0
51 59 17 68 18 26 0
51 59 29 68 30 38 0
51 59 40 68 41 49 0
51 60 4 69 5 14 0
51 60 17 69 18 27 0
51 60 29 69 30 39 0
51 60 40 69 41 50 0
51 4 17 5 18 1 0
51 4 29 5 30 2 0
51 4 40 5 41 3 0
51 17 29 18 30 15 0
51 17 40 18 41 16 0
51 29 40 30 41 28 0
52 53 54 70 71 78 0
52 53 55 70 72 79 0
52 53 56 70 73 80 0
52 53 57 70 74 81 0
52 53 58 70 75 82 0
52 53 59 70 76 83 0
52 53 60 70 77 84 0
52 53 4 70 6 7 0
52 53 17 70 19 20 0
52 53 29 70 31 32 0
52 53 40 70 42 43 0
52 54 55 71 72 85 0
52 54 56 71 73 86 0
52 54 57 71 74 87 0
52 54 58 71 75 88 0
52 54 59 71 76 89 0
52 54 60 71 77 90 0
52 54 4 71 6 8 0
52 54 17 71 19 21 0
52 54 29 71 31 33 0
52 54 40 71 42 44 0
52 55 56 72 73 91 0
52 55 57 72 74 92 0
52 55 58 72 75 93 0
52 55 59 72 76 94 0
52 55 60 72 77 95 0
52 55 4 72 6 9 0
52 55 17 72 19 22 0
52 55 29 72 31 34 0
52 55 40 72 42 45 0
52 56 57 73 74 96 0
52 56 58 73 75 97 0
52 56 59 73 76 98 0
52 56 60 73 77 99 0
52 56 4 73 6 10 0
52 56 17 73 19 23 0
52 56 29 73 31 35 0
52 56 40 73 42 46 0
52 57 58 74 75 100 0
52 57 59 74 76 101 0
52 57 60 74 77 102 0
52 57 4 74 6 11 0
52 57 17 74 19 24 0
52 57 29 74 31 36 0
52 57 40 74 42 47 0
52 58 59 75 76 103 0
52 58 60 75 77 104 0
52 58 4 75 6 12 0
52 58 17 75 19 25 0
52 58 29 75 31 37 0
52 58 40 75 42 48 0
52 59 60 76 77 105 0
52 59 4 76 6 13 0
52 59 17 76 19 26 0
52 59 29 76 31 38 0
52 59 40 76 42 49 0
52 60 4 77 6 14 0
52 60 17 77 19 27 0
52 60 29 77 31 39 0
52 60 40 77 42 50 0
52 4 17 6 19 1 0
52 4 29 6 31 2 0
52 4 40 6 42 3 0
52 17 29 19 31 15 0
52 17 40 19 42 16 0
52 29 40 31 42 28 0
53 54 55 78 79 85 0
53 54 56 78 80 86 0
53 54 57 78 81 87 0
53 54 58 78 82 88 0
53 54 59 78 83 89 0
53 54 60 78 84 90 0
53 54 4 78 7 8 0
53 54 17 78 20 21 0
53 54 29 78 32 33 0
53 54 40 78 43 44 0
53 55 56 79 80 91 0
53 55 57 79 81 92 0
53 55 58 79 82 93 0
53 55 59 79 83 94 0
53 55 60 79 84 95 0
53 55 4 79 7 9 0
53 55 17 79 20 22 0
53 55 29 79 32 34 0
53 55 40 79 43 45 0
53 56 57 80 81 96 0
53 56 58 80 82 97 0
53 56 59 80 83 98 0
53 56 60 80 84 99 0
53 56 4 80 7 10 0
53 56 17 80 20 23 0
53 56 29 80 32 35 0
53 56 40 80 43 46 0
53 57 58 81 82 100 0
53 57 59 81 83 101 0
53 57 60 81 84 102 0
53 57 4 81 7 11 0
53 57 17 81 20 24 0
53 57 29 81 32 36 0
53 57 40 81 43 47 0
53 58 59 82 83 103 0
53 58 60 82 84 104 0
53 58 4 82 7 12 0
53 58 17 82 20 25 0
53 58 29 82 32 37 0
53 58 40 82 43 48 0
53 59 60 83 84 105 0
53 59 4 83 7 13 0
53 59 17 83 20 26 0
53 59 29 83 32 38 0
53 59 40 83 43 49 0
53 60 4 84 7 14 0
53 60 17 84 20 27 0
53 60 29 84 32 39 0
53 60 40 84 43 50 0
53 4 17 7 20 1 0
53 4 29 7 32 2 0
53 4 40 7 43 3 0
53 17 29 20 32 15 0
53 17 40 20 43 16 0
53 29 40 32 43 28 0
54 55 56 85 86 91 0
54 55 57 85 87 92 0
54 55 58 85 88 93 0
54 55 59 85 89 94 0
54 55 60 85 90 95 0
54 55 4 85 8 9 0
54 55 17 85 21 22 0
54 55 29 85 33 34 0
54 55 40 85 44 45 0
54 56 57 86 87 96 0
54 56 58 86 88 97 0
54 56 59 86 89 98 0
54 56 60 86 90 99 0
54 56 4 86 8 10 0
54 56 17 86 21 23 0
54 56 29 86 33 35 0
54 56 40 86 44 46 0
54 57 58 87 88 100 0
54 57 59 87 89 101 0
54 57 60 87 90 102 0
54 57 4 87 8 11 0
54 57 17 87 21 24 0
54 57 29 87 33 36 0
54 57 40 87 44 47 0
54 58 59 88 89 103 0
54 58 60 88 90 104 0
54 58 4 88 8 12 0
54 58 17 88 21 25 0
54 58 29 88 33 37 0
54 58 40 88 44 48 0
54 59 60 89 90 105 0
54 59 4 89 8 13 0
54 59 17 89 21 26 0
54 59 29 89 33 38 0
54 59 40 89 44 49 0
54 60 4 90 8 14 0
54 60 17 90 21 27 0
54 60 29 90 33 39 0
54 60 40 90 44 50 0
54 4 17 8 21 1 0
54 4 29 8 33 2 0
54 4 40 8 44 3 0
54 17 29 21 33 15 0
54 17 40 21 44 16 0
54 29 40 33 44 28 0
55 56 57 91 92 96 0
55 56 58 91 93 97 0
55 56 59 91 94 98 0
55 56 60 91 95 99 0
55 56 4 91 9 10 0
55 56 17 91 22 23 0
55 56 29 91 34 35 0
55 56 40 91 45 46 0
55 57 58 92 93 100 0
55 57 59 92 94 101 0
55 57 60 92 95 102 0
55 57 4 92 9 11 0
55 57 17 92 22 24 0
55 57 29 92 34 36 0
55 57 40 92 45 47 0
55 58 59 93 94 103 0
55 58 60 93 95 104 0
55 58 4 93 9 12 0
55 58 17 93 22 25 0
55 58 29 93 34 37 0
55 58 40 93 45 48 0
55 59 60 94 95 105 0
55 59 4 94 9 13 0
55 59 17 94 22 26 0
55 59 29 94 34 38 0
55 59 40 94 45 49 0
55 60 4 95 9 14 0
55 60 17 95 22 27 0
55 60 29 95 34 39 0
55 60 40 95 45 50 0
55 4 17 9 22 1 0
55 4 29 9 34 2 0
55 4 40 9 45 3 0
55 17 29 22 34 15 0
55 17 40 22 45 16 0
55 29 40 34 45 28 0
56 57 58 96 97 100 0
56 57 59 96 98 101 0
56 57 60 96 99 102 0
56 57 4 96 10 11 0
56 57 17 96 23 24 0
56 57 29 96 35 36 0
56 57 40 96 46 47 0
56 58 59 97 98 103 0
56 58 60 97 99 104 0
56 58 4 97 10 12 0
56 58 17 97 23 25 0
56 58 29 97 35 37 0
56 58 40 97 46 48 0
56 59 60 98 99 105 0
56 59 4 98 10 13 0
56 59 17 98 23 26 0
56 59 29 98 35 38 0
56 59 40 98 46 49 0
56 60 4 99 10 14 0
56 60 17 99 23 27 0
56 60 29 99 35 39 0
56 60 40 99 46 50 0
56 4 17 10 23 1 0
56 4 29 10 35 2 0
56 4 40 10 46 3 0
56 17 29 23 35 15 0
56 17 40 23 46 16 0
56 29 40 35 46 28 0
57 58 59 100 101 103 0
57 58 60 100 102 104 0
57 58 4 100 11 12 0
57 58 17 100 24 25 0
57 58 29 100 36 37 0
57 58 40 100 47 48 0
57 59 60 101 102 105 0
57 59 4 101 11 13 0
57 59 17 101 24 26 0
57 59 29 101 36 38 0
57 59 40 101 47 49 0
57 60 4 102 11 14 0
57 60 17 102 24 27 0
57 60 29 102 36 39 0
57 60 40 102 47 50 0
57 4 17 11 24 1 0
57 4 29 11 36 2 0
57 4 40 11 47 3 0
57 17 29 24 36 15 0
57 17 40 24 47 16 0
57 29 40 36 47 28 0
58 59 60 103 104 105 0
58 59 4 103 12 13 0
58 59 17 103 25 26 0
58 59 29 103 37 38 0
58 59 40 103 48 49 0
58 60 4 104 12 14 0
58 60 17 104 25 27 0
58 60 29 104 37 39 0
58 60 40 104 48 50 0
58 4 17 12 25 1 0
58 4 29 12 37 2 0
58 4 40 12 48 3 0
58 17 29 25 37 15 0
58 17 40 25 48 16 0
58 29 40 37 48 28 0
59 60 4 105 13 14 0
59 60 17 105 26 27 0
59 60 29 105 38 39 0
59 60 40 105 49 50 0
59 4 17 13 26 1 0
59 4 29 13 38 2 0
59 4 40 13 49 3 0
59 17 29 26 38 15 0
59 17 40 26 49 16 0
59 29 40 38 49 28 0
60 4 17 14 27 1 0
60 4 29 14 39 2 0
60 4 40 14 50 3 0
60 17 29 27 39 15 0
60 17 40 27 50 16 0
60 29 40 39 50 28 0
4 17 29 1 2 15 0
4 17 40 1 3 16 0
4 29 40 2 3 28 0
17 29 40 15 16 28 0
61 62 63 70 71 78 0
61 62 64 70 72 79 0
61 62 65 70 73 80 0
61 62 66 70 74 81 0
61 62 67 70 75 82 0
61 62 68 70 76 83 0
61 62 69 70 77 84 0
61 62 5 70 6 7 0
61 62 18 70 19 20 0
61 62 30 70 31 32 0
61 62 41 70 42 43 0
61 62 51 70 52 53 0
61 63 64 71 72 85 0
61 63 65 71 73 86 0
61 63 66 71 74 87 0
61 63 67 71 75 88 0
61 63 68 71 76 89 0
61 63 69 71 77 90 0
61 63 5 71 6 8 0
61 63 18 71 19 21 0
61 63 30 71 31 33 0
61 63 41 71 42 44 0
61 63 51 71 52 54 0
61 64 65 72 73 91 0
61 64 66 72 74 92 0
61 64 67 72 75 93 0
61 64 68 72 76 94 0
61 64 69 72 77 95 0
61 64 5 72 6 9 0
61 64 18 72 19 22 0
61 64 30 72 31 34 0
61 64 41 72 42 45 0
61 64 51 72 52 55 0
61 65 66 73 74 96 0
61 65 67 73 75 97 0
61 65 68 73 76 98 0
61 65 69 73 77 99 0
61 65 5 73 6 10 0
61 65 18 73 19 23 0
61 65 30 73 31 35 0
61 65 41 73 42 46 0
61 65 51 73 52 56 0
61 66 67 74 75 100 0
61 66 68 74 76 101 0
61 66 69 74 77 102 0
61 66 5 74 6 11 0
61 66 18 74 19 24 0
61 66 30 74 31 36 0
61 66 41 74 42 47 0
61 66 51 74 52 57 0
61 67 68 75 76 103 0
61 67 69 75 77 104 0
61 67 5 75 6 12 0
61 67 18 75 19 25 0
61 67 30 75 31 37 0
61 67 41 75 42 48 0
61 67 51 75 52 58 0
61 68 69 76 77 105 0
61 68 5 76 6 13 0
61 68 18 76 19 26 0
61 68 30 76 31 38 0
61 68 41 76 42 49 0
61 68 51 76 52 59 0
61 69 5 77 6 14 0
61 69 18 77 19 27 0
61 69 30 77 31 39 0
61 69 41 77 42 50 0
61 69 51 77 52 60 0
61 5 18 6 19 1 0
61 5 30 6 31 2 0
61 5 41 6 42 3 0
61 5 51 6 52 4 0
61 18 30 19 31 15 0
61 18 41 19 42 16 0
61 18 51 19 52 17 0
61 30 41 31 42 28 0
61 30 51 31 52 29 0
61 41 51 42 52 40 0
62 63 64 78 79 85 0
62 63 65 78 80 86 0
62 63 66 78 81 87 0
62 63 67 78 82 88 0
62 63 68 78 83 89 0
62 63 69 78 84 90 0
62 63 5 78 7 8 0
62 63 18 78 20 21 0
62 63 30 78 32 33 0
62 63 41 78 43 44 0
62 63 51 78 53 54 0
62 64 65 79 80 91 0
62 64 66 79 81 92 0
62 64 67 79 82 93 0
62 64 68 79 83 94 0
62 64 69 79 84 95 0
62 64 5 79 7 9 0
62 64 18 79 20 22 0
62 64 30 79 32 34 0
62 64 41 79 43 45 0
62 64 51 79 53 55 0
62 65 66 80 81 96 0
62 65 67 80 82 97 0
62 65 68 80 83 98 0
62 65 69 80 84 99 0
62 65 5 80 7 10 0
62 65 18 80 20 23 0
62 65 30 80 32 35 0
62 65 41 80 43 46 0
62 65 51 80 53 56 0
62 66 67 81 82 100 0
62 66 68 81 83 101 0
62 66 69 81 84 102 0
62 66 5 81 7 11 0
62 66 18 81 20 24 0
62 66 30 81 32 36 0
62 66 41 81 43 47 0
62 66 51 81 53 57 0
62 67 68 82 83 103 0
62 67 69 82 84 104 0
62 67 5 82 7 12 0
62 67 18 82 20 25 0
62 67 30 82 32 37 0
62 67 41 82 43 48 0
62 67 51 82 53 58 0
62 68 69 83 84 105 0
62 68 5 83 7 13 0
62 68 18 83 20 26 0
62 68 30 83 32 38 0
62 68 41 83 43 49 0
62 68 51 83 53 59 0
62 69 5 84 7 14 0
62 69 18 84 20 27 0
62 69 30 84 32 39 0
62 69 41 84 43 50 0
62 69 51 84 53 60 0
62 5 18 7 20 1 0
62 5 30 7 32 2 0
62 5 41 7 43 3 0
62 5 51 7 53 4 0
62 18 30 20 32 15 0
62 18 41 20 43 16 0
62 18 51 20 53 17 0
62 30 41 32 43 28 0
62 30 51 32 53 29 0
62 41 51 43 53 40 0
63 64 65 85 86 91 0
63 64 66 85 87 92 0
63 64 67 85 88 93 0
63 64 68 85 89 94 0
63 64 69 85 90 95 0
63 64 5 85 8 9 0
63 64 18 85 21 22 0
63 64 30 85 33 34 0
63 64 41 85 44 45 0
63 64 51 85 54 55 0
63 65 66 86 87 96 0
63 65 67 86 88 97 0
63 65 68 86 89 98 0
63 65 69 86 90 99 0
63 65 5 86 8 10 0
63 65 18 86 21 23 0
63 65 30 86 33 35 0
63 65 41 86 44 46 0
63 65 51 86 54 56 0
63 66 67 87 88 100 0
63 66 68 87 89 101 0
63 66 69 87 90 102 0
63 66 5 87 8 11 0
63 66 18 87 21 24 0
63 66 30 87 33 36 0
63 66 41 87 44 47 0
63 66 51 87 54 57 0
63 67 68 88 89 103 0
63 67 69 88 90 104 0
63 67 5 88 8 12 0
63 67 18 88 21 25 0
63 67 30 88 33 37 0
63 67 41 88 44 48 0
63 67 51 88 54 58 0
63 68 69 89 90 105 0
63 68 5 89 8 13 0
63 68 18 89 21 26 0
63 68 30 89 33 38 0
63 68 41 89 44 49 0
63 68 51 89 54 59 0
63 69 5 90 8 14 0
63 69 18 90 21 27 0
63 69 30 90 33 39 0
63 69 41 90 44 50 0
63 69 51 90 54 60 0
63 5 18 8 21 1 0
63 5 30 8 33 2 0
63 5 41 8 44 3 0
63 5 51 8 54 4 0
63 18 30 21 33 15 0
63 18 41 21 44 16 0
63 18 51 21 54 17 0
63 30 41 33 44 28 0
63 30 51 33 54 29 0
63 41 51 44 54 40 0
64 65 66 91 92 96 0
64 65 67 91 93 97 0
64 65 68 91 94 98 0
64 65 69 91 95 99 0
64 65 5 91 9 10 0
64 65 18 91 22 23 0
64 65 30 91 34 35 0
64 65 41 91 45 46 0
64 65 51 91 55 56 0
64 66 67 92 93 100 0
64 66 68 92 94 101 0
64 66 69 92 95 102 0
64 66 5 92 9 11 0
64 66 18 92 22 24 0
64 66 30 92 34 36 0
64 66 41 92 45 47 0
64 66 51 92 55 57 0
64 67 68 93 94 103 0
64 67 69 93 95 104 0
64 67 5 93 9 12 0
64 67 18 93 22 25 0
64 67 30 93 34 37 0
64 67 41 93 45 48 0
64 67 51 93 55 58 0
64 68 69 94 95 105 0
64 68 5 94 9 13 0
64 68 18 94 22 26 0
64 68 30 94 34 38 0
64 68 41 94 45 49 0
64 68 51 94 55 59 0
64 69 5 95 9 14 0
64 69 18 95 22 27 0
64 69 30 95 34 39 0
64 69 41 95 45 50 0
64 69 51 95 55 60 0
64 5 18 9 22 1 0
64 5 30 9 34 2 0
64 5 41 9 45 3 0
64 5 51 9 55 4 0
64 18 30 22 34 15 0
64 18 41 22 45 16 0
64 18 51 22 55 17 0
64 30 41 34 45 28 0
64 30 51 34 55 29 0
64 41 51 45 55 40 0
65 66 67 96 97 100 0
65 66 68 96 98 101 0
65 66 69 96 99 102 0
65 66 5 96 10 11 0
65 66 18 96 23 24 0
65 66 30 96 35 36 0
65 66 41 96 46 47 0
65 66 51 96 56 57 0
65 67 68 97 98 103 0
65 67 69 97 99 104 0
65 67 5 97 10 12 0
65 67 18 97 23 25 0
65 67 30 97 35 37 0
65 67 41 97 46 48 0
65 67 51 97 56 58 0
65 68 69 98 99 105 0
65 68 5 98 10 13 0
65 68 18 98 23 26 0
65 68 30 98 35 38 0
65 68 41 98 46 49 0
65 68 51 98 56 59 0
65 69 5 99 10 14 0
65 69 18 99 23 27 0
65 69 30 99 35 39 0
65 69 41 99 46 50 0
65 69 51 99 56 60 0
65 5 18 10 23 1 0
65 5 30 10 35 2 0
65 5 41 10 46 3 0
65 5 51 10 56 4 0
65 18 30 23 35 15 0
65 18 41 23 46 16 0
65 18 51 23 56 17 0
65 30 41 35 46 28 0
65 30 51 35 56 29 0
65 41 51 46 56 40 0
66 67 68 100 101 103 0
66 67 69 100 102 104 0
66 67 5 100 11 12 0
66 67 18 100 24 25 0
66 67 30 100 36 37 0
66 67 41 100 47 48 0
66 67 51 100 57 58 0
66 68 69 101 102 105 0
66 68 5 101 11 13 0
66 68 18 101 24 26 0
66 68 30 101 36 38 0
66 68 41 101 47 49 0
66 68 51 101 57 59 0
66 69 5 102 11 14 0
66 69 18 102 24 27 0
66 69 30 102 36 39 0
66 69 41 102 47 50 0
66 69 51 102 57 60 0
66 5 18 11 24 1 0
66 5 30 11 36 2 0
66 5 41 11 47 3 0
66 5 51 11 57 4 0
66 18 30 24 36 15 0
66 18 41 24 47 16 0
66 18 51 24 57 17 0
66 30 41 36 47 28 0
66 30 51 36 57 29 0
66 41 51 47 57 40 0
67 68 69 103 104 105 0
67 68 5 103 12 13 0
67 68 18 103 25 26 0
67 68 30 103 37 38 0
67 68 41 103 48 49 0
67 68 51 103 58 59 0
67 69 5 104 12 14 0
67 69 18 104 25 27 0
67 69 30 104 37 39 0
67 69 41 104 48 50 0
67 69 51 104 58 60 0
67 5 18 12 25 1 0
67 5 30 12 37 2 0
67 5 41 12 48 3 0
67 5 51 12 58 4 0
67 18 30 25 37 15 0
67 18 41 25 48 16 0
67 18 51 25 58 17 0
67 30 41 37 48 28 0
67 30 51 37 58 29 0
67 41 51 48 58 40 0
68 69 5 105 13 14 0
68 69 18 105 26 27 0
68 69 30 105 38 39 0
68 69 41 105 49 50 0
68 69 51 105 59 60 0
68 5 18 13 26 1 0
68 5 30 13 38 2 0
68 5 41 13 49 3 0
68 5 51 13 59 4 0
68 18 30 26 38 15 0
68 18 41 26 49 16 0
68 18 51 26 59 17 0
68 30 41 38 49 28 0
68 30 51 38 59 29 0
68 41 51 49 59 40 0
69 5 18 14 27 1 0
69 5 30 14 39 2 0
69 5 41 14 50 3 0
69 5 51 14 60 4 0
69 18 30 27 39 15 0
69 18 41 27 50 16 0
69 18 51 27 60 17 0
69 30 41 39 50 28 0
69 30 51 39 60 29 0
69 41 51 50 60 40 0
5 18 30 1 2 15 0
5 18 41 1 3 16 0
5 18 51 1 4 17 0
5 30 41 2 3 28 0
5 30 51 2 4 29 0
5 41 51 3 4 40 0
18 30 41 15 16 28 0
18 30 51 15 17 29 0
18 41 51 16 17 40 0
30 41 51 28 29 40 0
70 71 72 78 79 85 0
70 71 73 78 80 86 0
70 71 74 78 81 87 0
70 71 75 78 82 88 0
70 71 76 78 83 89 0
70 71 77 78 84 90 0
70 71 6 78 7 8 0
70 71 19 78 20 21 0
70 71 31 78 32 33 0
70 71 42 78 43 44 0
70 71 52 78 53 54 0
70 71 61 78 62 63 0
70 72 73 79 80 91 0
70 72 74 79 81 92 0
70 72 75 79 82 93 0
70 72 76 79 83 94 0
70 72 77 79 84 95 0
70 72 6 79 7 9 0
70 72 19 79 20 22 0
70 72 31 79 32 34 0
70 72 42 79 43 45 0
70 72 52 79 53 55 0
70 72 61 79 62 64 0
70 73 74 80 81 96 0
70 73 75 80 82 97 0
70 73 76 80 83 98 0
70 73 77 80 84 99 0
70 73 6 80 7 10 0
70 73 19 80 20 23 0
70 73 31 80 32 35 0
70 73 42 80 43 46 0
70 73 52 80 53 56 0
70 73 61 80 62 65 0
70 74 75 81 82 100 0
70 74 76 81 83 101 0
70 74 77 81 84 102 0
70 74 6 81 7 11 0
70 74 19 81 20 24 0
70 74 31 81 32 36 0
70 74 42 81 43 47 0
70 74 52 81 53 57 0
70 74 61 81 62 66 0
70 75 76 82 83 103 0
70 75 77 82 84 104 0
70 75 6 82 7 12 0
70 75 19 82 20 25 0
70 75 31 82 32 37 0
70 75 42 82 43 48 0
70 75 52 82 53 58 0
70 75 61 82 62 67 0
70 76 77 83 84 105 0
70 76 6 83 7 13 0
70 76 19 83 20 26 0
70 76 31 83 32 38 0
70 76 42 83 43 49 0
70 76 52 83 53 59 0
70 76 61 83 62 68 0
70 77 6 84 7 14 0
70 77 19 84 20 27 0
70 77 31 84 32 39 0
70 77 42 84 43 50 0
70 77 52 84 53 60 0
70 77 61 84 62 69 0
70 6 19 7 20 1 0
70 6 31 7 32 2 0
70 6 42 7 43 3 0
70 6 52 7 53 4 0
70 6 61 7 62 5 0
70 19 31 20 32 15 0
70 19 42 20 43 16 0
70 19 52 20 53 17 0
70 19 61 20 62 18 0
70 31 42 32 43 28 0
70 31 52 32 53 29 0
70 31 61 32 62 30 0
70 42 52 43 53 40 0
70 42 61 43 62 41 0
70 52 61 53 62 51 0
71 72 73 85 86 91 0
71 72 74 85 87 92 0
71 72 75 85 88 93 0
71 72 76 85 89 94 0
71 72 77 85 90 95 0
71 72 6 85 8 9 0
71 72 19 85 21 22 0
71 72 31 85 33 34 0
71 72 42 85 44 45 0
71 72 52 85 54 55 0
71 72 61 85 63 64 0
71 73 74 86 87 96 0
71 73 75 86 88 97 0
71 73 76 86 89 98 0
71 73 77 86 90 99 0
71 73 6 86 8 10 0
71 73 19 86 21 23 0
71 73 31 86 33 35 0
71 73 42 86 44 46 0
71 73 52 86 54 56 0
71 73 61 86 63 65 0
71 74 75 87 88 100 0
71 74 76 87 89 101 0
71 74 77 87 90 102 0
71 74 6 87 8 11 0
71 74 19 87 21 24 0
71 74 31 87 33 36 0
71 74 42 87 44 47 0
71 74 52 87 54 57 0
71 74 61 87 63 66 0
71 75 76 88 89 103 0
71 75 77 88 90 104 0
71 75 6 88 8 12 0
71 75 19 88 21 25 0
71 75 31 88 33 37 0
71 75 42 88 44 48 0
71 75 52 88 54 58 0
71 75 61 88 63 67 0
71 76 77 89 90 105 0
71 76 6 89 8 13 0
71 76 19 89 21 26 0
71 76 31 89 33 38 0
71 76 42 89 44 49 0
71 76 52 89 54 59 0
71 76 61 89 63 68 0
71 77 6 90 8 14 0
71 77 19 90 21 27 0
71 77 31 90 33 39 0
71 77 42 90 44 50 0
71 77 52 90 54 60 0
71 77 61 90 63 69 0
71 6 19 8 21 1 0
71 6 31 8 33 2 0
71 6 42 8 44 3 0
71 6 52 8 54 4 0
71 6 61 8 63 5 0
71 19 31 21 33 15 0
71 19 42 21 44 16 0
71 19 52 21 54 17 0
71 19 61 21 63 18 0
71 31 42 33 44 28 0
71 31 52 33 54 29 0
71 31 61 33 63 30 0
71 42 52 44 54 40 0
71 42 61 44 63 41 0
71 52 61 54 63 51 0
72 73 74 91 92 96 0
72 73 75 91 93 97 0
72 73 76 91 94 98 0
72 73 77 91 95 99 0
72 73 6 91 9 10 0
72 73 19 91 22 23 0
72 73 31 91 34 35 0
72 73 42 91 45 46 0
72 73 52 91 55 56 0
72 73 61 91 64 65 0
72 74 75 92 93 100 0
72 74 76 92 94 101 0
72 74 77 92 95 102 0
72 74 6 92 9 11 0
72 74 19 92 22 24 0
72 74 31 92 34 36 0
72 74 42 92 45 47 0
72 74 52 92 55 57 0
72 74 61 92 64 66 0
72 75 76 93 94 103 0
72 75 77 93 95 104 0
72 75 6 93 9 12 0
72 75 19 93 22 25 0
72 75 31 93 34 37 0
72 75 42 93 45 48 0
72 75 52 93 55 58 0
72 75 61 93 64 67 0
72 76 77 94 95 105 0
72 76 6 94 9 13 0
72 76 19 94 22 26 0
72 76 31 94 34 38 0
72 76 42 94 45 49 0
72 76 52 94 55 59 0
72 76 61 94 64 68 0
72 77 6 95 9 14 0
72 77 19 95 22 27 0
72 77 31 95 34 39 0
72 77 42 95 45 50 0
72 77 52 95 55 60 0
72 77 61 95 64 69 0
72 6 19 9 22 1 0
72 6 31 9 34 2 0
72 6 42 9 45 3 0
72 6 52 9 55 4 0
72 6 61 9 64 5 0
72 19 31 22 34 15 0
72 19 42 22 45 16 0
72 19 52 22 55 17 0
72 19 61 22 64 18 0
72 31 42 34 45 28 0
72 31 52 34 55 29 0
72 31 61 34 64 30 0
72 42 52 45 55 40 0
72 42 61 45 64 41 0
72 52 61 55 64 51 0
73 74 75 96 97 100 0
73 74 76 96 98 101 0
73 74 77 96 99 102 0
73 74 6 96 10 11 0
73 74 19 96 23 24 0
73 74 31 96 35 36 0
73 74 42 96 46 47 0
73 74 52 96 56 57 0
73 74 61 96 65 66 0
73 75 76 97 98 103 0
73 75 77 97 99 104 0
73 75 6 97 10 12 0
73 75 19 97 23 25 0
73 75 31 97 35 37 0
73 75 42 97 46 48 0
73 75 52 97 56 58 0
73 75 61 97 65 67 0
73 76 77 98 99 105 0
73 76 6 98 10 13 0
73 76 19 98 23 26 0
73 76 31 98 35 38 0
73 76 42 98 46 49 0
73 76 52 98 56 59 0
73 76 61 98 65 68 0
73 77 6 99 10 14 0
73 77 19 99 23 27 0
73 77 31 99 35 39 0
73 77 42 99 46 50 0
73 77 52 99 56 60 0
73 77 61 99 65 69 0
73 6 19 10 23 1 0
73 6 31 10 35 2 0
73 6 42 10 46 3 0
73 6 52 10 56 4 0
73 6 61 10 65 5 0
73 19 31 23 35 15 0
73 19 42 23 46 16 0
73 19 52 23 56 17 0
73 19 61 23 65 18 0
73 31 42 35 46 28 0
73 31 52 35 56 29 0
73 31 61 35 65 30 0
73 42 52 46 56 40 0
73 42 61 46 65 41 0
73 52 61 56 65 51 0
74 75 76 100 101 103 0
74 75 77 100 102 104 0
74 75 6 100 11 12 0
74 75 19 100 24 25 0
74 75 31 100 36 37 0
74 75 42 100 47 48 0
74 75 52 100 57 58 0
74 75 61 100 66 67 0
74 76 77 101 102 105 0
74 76 6 101 11 13 0
74 76 19 101 24 26 0
74 76 31 101 36 38 0
74 76 42 101 47 49 0
74 76 52 101 57 59 0
74 76 61 101 66 68 0
74 77 6 102 11 14 0
74 77 19 102 24 27 0
74 77 31 102 36 39 0
74 77 42 102 47 50 0
74 77 52 102 57 60 0
74 77 61 102 66 69 0
74 6 19 11 24 1 0
74 6 31 11 36 2 0
74 6 42 11 47 3 0
74 6 52 11 57 4 0
74 6 61 11 66 5 0
74 19 31 24 36 15 0
74 19 42 24 47 16 0
74 19 52 24 57 17 0
74 19 61 24 66 18 0
74 31 42 36 47 28 0
74 31 52 36 57 29 0
74 31 61 36 66 30 0
74 42 52 47 57 40 0
74 42 61 47 66 41 0
74 52 61 57 66 51 0
75 76 77 103 104 105 0
75 76 6 103 12 13 0
75 76 19 103 25 26 0
75 76 31 103 37 38 0
75 76 42 103 48 49 0
75 76 52 103 58 59 0
75 76 61 103 67 68 0
75 77 6 104 12 14 0
75 77 19 104 25 27 0
75 77 31 104 37 39 0
75 77 42 104 48 50 0
75 77 52 104 58 60 0
75 77 61 104 67 69 0
75 6 19 12 25 1 0
75 6 31 12 37 2 0
75 6 42 12 48 3 0
75 6 52 12 58 4 0
75 6 61 12 67 5 0
75 19 31 25 37 15 0
75 19 42 25 48 16 0
75 19 52 25 58 17 0
75 19 61 25 67 18 0
75 31 42 37 48 28 0
75 31 52 37 58 29 0
75 31 61 37 67 30 0
75 42 52 48 58 40 0
75 42 61 48 67 41 0
75 52 61 58 67 51 0
76 77 6 105 13 14 0
76 77 19 105 26 27 0
76 77 31 105 38 39 0
76 77 42 105 49 50 0
76 77 52 105 59 60 0
76 77 61 105 68 69 0
76 6 19 13 26 1 0
76 6 31 13 38 2 0
76 6 42 13 49 3 0
76 6 52 13 59 4 0
76 6 61 13 68 5 0
76 19 31 26 38 15 0
76 19 42 26 49 16 0
76 19 52 26 59 17 0
76 19 61 26 68 18 0
76 31 42 38 49 28 0
76 31 52 38 59 29 0
76 31 61 38 68 30 0
76 42 52 49 59 40 0
76 42 61 49 68 41 0
76 52 61 59 68 51 0
77 6 19 14 27 1 0
77 6 31 14 39 2 0
77 6 42 14 50 3 0
77 6 52 14 60 4 0
77 6 61 14 69 5 0
77 19 31 27 39 15 0
77 19 42 27 50 16 0
77 19 52 27 60 17 0
77 19 61 27 69 18 0
77 31 42 39 50 28 0
77 31 52 39 60 29 0
77 31 61 39 69 30 0
77 42 52 50 60 40 0
77 42 61 50 69 41 0
77 52 61 60 69 51 0
6 19 31 1 2 15 0
6 19 42 1 3 16 0
6 19 52 1 4 17 0
6 19 61 1 5 18 0
6 31 42 2 3 28 0
6 31 52 2 4 29 0
6 31 61 2 5 30 0
6 42 52 3 4 40 0
6 42 61 3 5 41 0
6 52 61 4 5 51 0
19 31 42 15 16 28 0
19 31 52 15 17 29 0
19 31 61 15 18 30 0
19 42 52 16 17 40 0
19 42 61 16 18 41 0
19 52 61 17 18 51 0
31 42 52 28 29 40 0
31 42 61 28 30 41 0
31 52 61 29 30 51 0
42 52 61 40 41 51 0
78 79 80 85 86 91 0
78 79 81 85 87 92 0
78 79 82 85 88 93 0
78 79 83 85 89 94 0
78 79 84 85 90 95 0
78 79 7 85 8 9 0
78 79 20 85 21 22 0
78 79 32 85 33 34 0
78 79 43 85 44 45 0
78 79 53 85 54 55 0
78 79 62 85 63 64 0
78 79 70 85 71 72 0
78 80 81 86 87 96 0
78 80 82 86 88 97 0
78 80 83 86 89 98 0
78 80 84 86 90 99 0
78 80 7 86 8 10 0
78 80 20 86 21 23 0
78 80 32 86 33 35 0
78 80 43 86 44 46 0
78 80 53 86 54 56 0
78 80 62 86 63 65 0
78 80 70 86 71 73 0
78 81 82 87 88 100 0
78 81 83 87 89 101 0
78 81 84 87 90 102 0
78 81 7 87 8 11 0
78 81 20 87 21 24 0
78 81 32 87 33 36 0
78 81 43 87 44 47 0
78 81 53 87 54 57 0
78 81 62 87 63 66 0
78 81 70 87 71 74 0
78 82 83 88 89 103 0
78 82 84 88 90 104 0
78 82 7 88 8 12 0
78 82 20 88 21 25 0
78 82 32 88 33 37 0
78 82 43 88 44 48 0
78 82 53 88 54 58 0
78 82 62 88 63 67 0
78 82 70 88 71 75 0
78 83 84 89 90 105 0
78 83 7 89 8 13 0
78 83 20 89 21 26 0
78 83 32 89 33 38 0
78 83 43 89 44 49 0
78 83 53 89 54 59 0
78 83 62 89 63 68 0
78 83 70 89 71 76 0
78 84 7 90 8 14 0
78 84 20 90 21 27 0
78 84 32 90 33 39 0
78 84 43 90 44 50 0
78 84 53 90 54 60 0
78 84 62 90 63 69 0
78 84 70 90 71 77 0
78 7 20 8 21 1 0
78 7 32 8 33 2 0
78 7 43 8 44 3 0
78 7 53 8 54 4 0
78 7 62 8 63 5 0
78 7 70 8 71 6 0
78 20 32 21 33 15 0
78 20 43 21 44 16 0
78 20 53 21 54 17 0
78 20 62 21 63 18 0
78 20 70 21 71 19 0
78 32 43 33 44 28 0
78 32 53 33 54 29 0
78 32 62 33 63 30 0
78 32 70 33 71 31 0
78 43 53 44 54 40 0
78 43 62 44 63 41 0
78 43 70 44 71 42 0
78 53 62 54 63 51 0
78 53 70 54 71 52 0
78 62 70 63 71 61 0
79 80 81 91 92 96 0
79 80 82 91 93 97 0
79 80 83 91 94 98 0
79 80 84 91 95 99 0
79 80 7 91 9 10 0
79 80 20 91 22 23 0
79 80 32 91 34 35 0
79 80 43 91 45 46 0
79 80 53 91 55 56 0
79 80 62 91 64 65 0
79 80 70 91 72 73 0
79 81 82 92 93 100 0
79 81 83 92 94 101 0
79 81 84 92 95 102 0
79 81 7 92 9 11 0
79 81 20 92 22 24 0
79 81 32 92 34 36 0
79 81 43 92 45 47 0
79 81 53 92 55 57 0
79 81 62 92 64 66 0
79 81 70 92 72 74 0
79 82 83 93 94 103 0
79 82 84 93 95 104 0
79 82 7 93 9 12 0
79 82 20 93 22 25 0
79 82 32 93 34 37 0
79 82 43 93 45 48 0
79 82 53 93 55 58 0
79 82 62 93 64 67 0
79 82 70 93 72 75 0
79 83 84 94 95 105 0
79 83 7 94 9 13 0
79 83 20 94 22 26 0
79 83 32 94 34 38 0
79 83 43 94 45 49 0
79 83 53 94 55 59 0
79 83 62 94 64 68 0
79 83 70 94 72 76 0
79 84 7 95 9 14 0
79 84 20 95 22 27 0
79 84 32 95 34 39 0
79 84 43 95 45 50 0
79 84 53 95 55 60 0
79 84 62 95 64 69 0
79 84 70 95 72 77 0
79 7 20 9 22 1 0
79 7 32 9 34 2 0
79 7 43 9 45 3 0
79 7 53 9 55 4 0
79 7 62 9 64 5 0
79 7 70 9 72 6 0
79 20 32 22 34 15 0
79 20 43 22 45 16 0
79 20 53 22 55 17 0
79 20 62 22 64 18 0
79 20 70 22 72 19 0
79 32 43 34 45 28 0
79 32 53 34 55 29 0
79 32 62 34 64 30 0
79 32 70 34 72 31 0
79 43 53 45 55 40 0
79 43 62 45 64 41 0
79 43 70 45 72 42 0
79 53 62 55 64 51 0
79 53 70 55 72 52 0
79 62 70 64 72 61 0
80 81 82 96 97 100 0
80 81 83 96 98 101 0
80 81 84 96 99 102 0
80 81 7 96 10 11 0
80 81 20 96 23 24 0
80 81 32 96 35 36 0
80 81 43 96 46 47 0
80 81 53 96 56 57 0
80 81 62 96 65 66 0
80 81 70 96 73 74 0
80 82 83 97 98 103 0
80 82 84 97 99 104 0
80 82 7 97 10 12 0
80 82 20 97 23 25 0
80 82 32 97 35 37 0
80 82 43 97 46 48 0
80 82 53 97 56 58 0
80 82 62 97 65 67 0
80 82 70 97 73 75 0
80 83 84 98 99 105 0
80 83 7 98 10 13 0
80 83 20 98 23 26 0
80 83 32 98 35 38 0
80 83 43 98 46 49 0
80 83 53 98 56 59 0
80 83 62 98 65 68 0
80 83 70 98 73 76 0
80 84 7 99 10 14 0
80 84 20 99 23 27 0
80 84 32 99 35 39 0
80 84 43 99 46 50 0
80 84 53 99 56 60 0
80 84 62 99 65 69 0
80 84 70 99 73 77 0
80 7 20 10 23 1 0
80 7 32 10 35 2 0
80 7 43 10 46 3 0
80 7 53 10 56 4 0
80 7 62 10 65 5 0
80 7 70 10 73 6 0
80 20 32 23 35 15 0
80 20 43 23 46 16 0
80 20 53 23 56 17 0
80 20 62 23 65 18 0
80 20 70 23 73 19 0
80 32 43 35 46 28 0
80 32 53 35 56 29 0
80 32 62 35 65 30 0
80 32 70 35 73 31 0
80 43 53 46 56 40 0
80 43 62 46 65 41 0
80 43 70 46 73 42 0
80 53 62 56 65 51 0
80 53 70 56 73 52 0
80 62 70 65 73 61 0
81 82 83 100 101 103 0
81 82 84 100 102 104 0
81 82 7 100 11 12 0
81 82 20 100 24 25 0
81 82 32 100 36 37 0
81 82 43 100 47 48 0
81 82 53 100 57 58 0
81 82 62 100 66 67 0
81 82 70 100 74 75 0
81 83 84 101 102 105 0
81 83 7 101 11 13 0
81 83 20 101 24 26 0
81 83 32 101 36 38 0
81 83 43 101 47 49 0
81 83 53 101 57 59 0
81 83 62 101 66 68 0
81 83 70 101 74 76 0
81 84 7 102 11 14 0
81 84 20 102 24 27 0
81 84 32 102 36 39 0
81 84 43 102 47 50 0
81 84 53 102 57 60 0
81 84 62 102 66 69 0
81 84 70 102 74 77 0
81 7 20 11 24 1 0
81 7 32 11 36 2 0
81 7 43 11 47 3 0
81 7 53 11 57 4 0
81 7 62 11 66 5 0
81 7 70 11 74 6 0
81 20 32 24 36 15 0
81 20 43 24 47 16 0
81 20 53 24 57 17 0
81 20 62 24 66 18 0
81 20 70 24 74 19 0
81 32 43 36 47 28 0
81 32 53 36 57 29 0
81 32 62 36 66 30 0
81 32 70 36 74 31 0
81 43 53 47 57 40 0
81 43 62 47 66 41 0
81 43 70 47 74 42 0
81 53 62 57 66 51 0
81 53 70 57 74 52 0
81 62 70 66 74 61 0
82 83 84 103 104 105 0
82 83 7 103 12 13 0
82 83 20 103 25 26 0
82 83 32 103 37 38 0
82 83 43 103 48 49 0
82 83 53 103 58 59 0
82 83 62 103 67 68 0
82 83 70 103 75 76 0
82 84 7 104 12 14 0
82 84 20 104 25 27 0
82 84 32 104 37 39 0
82 84 43 104 48 50 0
82 84 53 104 58 60 0
82 84 62 104 67 69 0
82 84 70 104 75 77 0
82 7 20 12 25 1 0
82 7 32 12 37 2 0
82 7 43 12 48 3 0
82 7 53 12 58 4 0
82 7 62 12 67 5 0
82 7 70 12 75 6 0
82 20 32 25 37 15 0
82 20 43 25 48 16 0
82 20 53 25 58 17 0
82 20 62 25 67 18 0
82 20 70 25 75 19 0
82 32 43 37 48 28 0
82 32 53 37 58 29 0
82 32 62 37 67 30 0
82 32 70 37 75 31 0
82 43 53 48 58 40 0
82 43 62 48 67 41 0
82 43 70 48 75 42 0
82 53 62 58 67 51 0
82 53 70 58 75 52 0
82 62 70 67 75 61 0
83 84 7 105 13 14 0
83 84 20 105 26 27 0
83 84 32 105 38 39 0
83 84 43 105 49 50 0
83 84 53 105 59 60 0
83 84 62 105 68 69 0
83 84 70 105 76 77 0
83 7 20 13 26 1 0
83 7 32 13 38 2 0
83 7 43 13 49 3 0
83 7 53 13 59 4 0
83 7 62 13 68 5 0
83 7 70 13 76 6 0
83 20 32 26 38 15 0
83 20 43 26 49 16 0
83 20 53 26 59 17 0
83 20 62 26 68 18 0
83 20 70 26 76 19 0
83 32 43 38 49 28 0
83 32 53 38 59 29 0
83 32 62 38 68 30 0
83 32 70 38 76 31 0
83 43 53 49 59 40 0
83 43 62 49 68 41 0
83 43 70 49 76 42 0
83 53 62 59 68 51 0
83 53 70 59 76 52 0
83 62 70 68 76 61 0
84 7 20 14 27 1 0
84 7 32 14 39 2 0
84 7 43 14 50 3 0
84 7 53 14 60 4 0
84 7 62 14 69 5 0
84 7 70 14 77 6 0
84 20 32 27 39 15 0
84 20 43 27 50 16 0
84 20 53 27 60 17 0
84 20 62 27 69 18 0
84 20 70 27 77 19 0
84 32 43 39 50 28 0
84 32 53 39 60 29 0
84 32 62 39 69 30 0
84 32 70 39 77 31 0
84 43 53 50 60 40 0
84 43 62 50 69 41 0
84 43 70 50 77 42 0
84 53 62 60 69 51 0
84 53 70 60 77 52 0
84 62 70 69 77 61 0
7 20 32 1 2 15 0
7 20 43 1 3 16 0
7 20 53 1 4 17 0
7 20 62 1 5 18 0
7 20 70 1 6 19 0
7 32 43 2 3 28 0
7 32 53 2 4 29 0
7 32 62 2 5 30 0
7 32 70 2 6 31 0
7 43 53 3 4 40 0
7 43 62 3 5 41 0
7 43 70 3 6 42 0
7 53 62 4 5 51 0
7 53 70 4 6 52 0
7 62 70 5 6 61 0
20 32 43 15 16 28 0
20 32 53 15 17 29 0
20 32 62 15 18 30 0
20 32 70 15 19 31 0
20 43 53 16 17 40 0
20 43 62 16 18 41 0
20 43 70 16 19 42 0
20 53 62 17 18 51 0
20 53 70 17 19 52 0
20 62 70 18 19 61 0
32 43 53 28 29 40 0
32 43 62 28 30 41 0
32 43 70 28 31 42 0
32 53 62 29 30 51 0
32 53 70 29 31 52 0
32 62 70 30 31 61 0
43 53 62 40 41 51 0
43 53 70 40 42 52 0
43 62 70 41 42 61 0
53 62 70 51 52 61 0
85 86 87 91 92 96 0
85 86 88 91 93 97 0
85 86 89 91 94 98 0
85 86 90 91 95 99 0
85 86 8 91 9 10 0
85 86 21 91 22 23 0
85 86 33 91 34 35 0
85 86 44 91 45 46 0
85 86 54 91 55 56 0
85 86 63 91 64 65 0
85 86 71 91 72 73 0
85 86 78 91 79 80 0
85 87 88 92 93 100 0
85 87 89 92 94 101 0
85 87 90 92 95 102 0
85 87 8 92 9 11 0
85 87 21 92 22 24 0
85 87 33 92 34 36 0
85 87 44 92 45 47 0
85 87 54 92 55 57 0
85 87 63 92 64 66 0
85 87 71 92 72 74 0
85 87 78 92 79 81 0
85 88 89 93 94 103 0
85 88 90 93 95 104 0
85 88 8 93 9 12 0
85 88 21 93 22 25 0
85 88 33 93 34 37 0
85 88 44 93 45 48 0
85 88 54 93 55 58 0
85 88 63 93 64 67 0
85 88 71 93 72 75 0
85 88 78 93 79 82 0
85 89 90 94 95 105 0
85 89 8 94 9 13 0
85 89 21 94 22 26 0
85 89 33 94 34 38 0
85 89 44 94 45 49 0
85 89 54 94 55 59 0
85 89 63 94 64 68 0
85 89 71 94 72 76 0
85 89 78 94 79 83 0
85 90 8 95 9 14 0
85 90 21 95 22 27 0
85 90 33 95 34 39 0
85 90 44 95 45 50 0
85 90 54 95 55 60 0
85 90 63 95 64 69 0
85 90 71 95 72 77 0
85 90 78 95 79 84 0
85 8 21 9 22 1 0
85 8 33 9 34 2 0
85 8 44 9 45 3 0
85 8 54 9 55 4 0
85 8 63 9 64 5 0
85 8 71 9 72 6 0
85 8 78 9 79 7 0
85 21 33 22 34 15 0
85 21 44 22 45 16 0
85 21 54 22 55 17 0
85 21 63 22 64 18 0
85 21 71 22 72 19 0
85 21 78 22 79 20 0
85 33 44 34 45 28 0
85 33 54 34 55 29 0
85 33 63 34 64 30 0
85 33 71 34 72 31 0
85 33 78 34 79 32 0
85 44 54 45 55 40 0
85 44 63 45 64 41 0
85 44 71 45 72 42 0
85 44 78 45 79 43 0
85 54 63 55 64 51 0
85 54 71 55 72 52 0
85 54 78 55 79 53 0
85 63 71 64 72 61 0
85 63 78 64 79 62 0
85 71 78 72 79 70 0
86 87 88 96 97 100 0
86 87 89 96 98 101 0
86 87 90 96 99 102 0
86 87 8 96 10 11 0
86 87 21 96 23 24 0
86 87 33 96 35 36 0
86 87 44 96 46 47 0
86 87 54 96 56 57 0
86 87 63 96 65 66 0
86 87 71 96 73 74 0
86 87 78 96 80 81 0
86 88 89 97 98 103 0
86 88 90 97 99 104 0
86 88 8 97 10 12 0
86 88 21 97 23 25 0
86 88 33 97 35 37 0
86 88 44 97 46 48 0
86 88 54 97 56 58 0
86 88 63 97 65 67 0
86 88 71 97 73 75 0
86 88 78 97 80 82 0
86 89 90 98 99 105 0
86 89 8 98 10 13 0
86 89 21 98 23 26 0
86 89 33 98 35 38 0
86 89 44 98 46 49 0
86 89 54 98 56 59 0
86 89 63 98 65 68 0
86 89 71 98 73 76 0
86 89 78 98 80 83 0
86 90 8 99 10 14 0
86 90 21 99 23 27 0
86 90 33 99 35 39 0
86 90 44 99 46 50 0
86 90 54 99 56 60 0
86 90 63 99 65 69 0
86 90 71 99 73 77 0
86 90 78 99 80 84 0
86 8 21 10 23 1 0
86 8 33 10 35 2 0
86 8 44 10 46 3 0
86 8 54 10 56 4 0
86 8 63 10 65 5 0
86 8 71 10 73 6 0
86 8 78 10 80 7 0
86 21 33 23 35 15 0
86 21 44 23 46 16 0
86 21 54 23 56 17 0
86 21 63 23 65 18 0
86 21 71 23 73 19 0
86 21 78 23 80 20 0
86 33 44 35 46 28 0
86 33 54 35 56 29 0
86 33 63 35 65 30 0
86 33 71 35 73 31 0
86 33 78 35 80 32 0
86 44 54 46 56 40 0
86 44 63 46 65 41 0
86 44 71 46 73 42 0
86 44 78 46 80 43 0
86 54 63 56 65 51 0
86 54 71 56 73 52 0
86 54 78 56 80 53 0
86 63 71 65 73 61 0
86 63 78 65 80 62 0
86 71 78 73 80 70 0
87 88 89 100 101 103 0
87 88 90 100 102 104 0
87 88 8 100 11 12 0
87 88 21 100 24 25 0
87 88 33 100 36 37 0
87 88 44 100 47 48 0
87 88 54 100 57 58 0
87 88 63 100 66 67 0
87 88 71 100 74 75 0
87 88 78 100 81 82 0
87 89 90 101 102 105 0
87 89 8 101 11 13 0
87 89 21 101 24 26 0
87 89 33 101 36 38 0
87 89 44 101 47 49 0
87 89 54 101 57 59 0
87 89 63 101 66 68 0
87 89 71 101 74 76 0
87 89 78 101 81 83 0
87 90 8 102 11 14 0
87 90 21 102 24 27 0
87 90 33 102 36 39 0
87 90 44 102 47 50 0
87 90 54 102 57 60 0
87 90 63 102 66 69 0
87 90 71 102 74 77 0
87 90 78 102 81 84 0
87 8 21 11 24 1 0
87 8 33 11 36 2 0
87 8 44 11 47 3 0
87 8 54 11 57 4 0
87 8 63 11 66 5 0
87 8 71 11 74 6 0
87 8 78 11 81 7 0
87 21 33 24 36 15 0
87 21 44 24 47 16 0
87 21 54 24 57 17 0
87 21 63 24 66 18 0
87 21 71 24 74 19 0
87 21 78 24 81 20 0
87 33 44 36 47 28 0
87 33 54 36 57 29 0
87 33 63 36 66 30 0
87 33 71 36 74 31 0
87 33 78 36 81 32 0
87 44 54 47 57 40 0
87 44 63 47 66 41 0
87 44 71 47 74 42 0
87 44 78 47 81 43 0
87 54 63 57 66 51 0
87 54 71 57 74 52 0
87 54 78 57 81 53 0
87 63 71 66 74 61 0
87 63 78 66 81 62 0
87 71 78 74 81 70 0
88 89 90 103 104 105 0
88 89 8 103 12 13 0
88 89 21 103 25 26 0
88 89 33 103 37 38 0
88 89 44 103 48 49 0
88 89 54 103 58 59 0
88 89 63 103 67 68 0
88 89 71 103 75 76 0
88 89 78 103 82 83 0
88 90 8 104 12 14 0
88 90 21 104 25 27 0
88 90 33 104 37 39 0
88 90 44 104 48 50 0
88 90 54 104 58 60 0
88 90 63 104 67 69 0
88 90 71 104 75 77 0
88 90 78 104 82 84 0
88 8 21 12 25 1 0
88 8 33 12 37 2 0
88 8 44 12 48 3 0
88 8 54 12 58 4 0
88 8 63 12 67 5 0
88 8 71 12 75 6 0
88 8 78 12 82 7 0
88 21 33 25 37 15 0
88 21 44 25 48 16 0
88 21 54 25 58 17 0
88 21 63 25 67 18 0
88 21 71 25 75 19 0
88 21 78 25 82 20 0
88 33 44 37 48 28 0
88 33 54 37 58 29 0
88 33 63 37 67 30 0
88 33 71 37 75 31 0
88 33 78 37 82 32 0
88 44 54 48 58 40 0
88 44 63 48 67 41 0
88 44 71 48 75 42 0
88 44 78 48 82 43 0
88 54 63 58 67 51 0
88 54 71 58 75 52 0
88 54 78 58 82 53 0
88 63 71 67 75 61 0
88 63 78 67 82 62 0
88 71 78 75 82 70 0
89 90 8 105 13 14 0
89 90 21 105 26 27 0
89 90 33 105 38 39 0
89 90 44 105 49 50 0
89 90 54 105 59 60 0
89 90 63 105 68 69 0
89 90 71 105 76 77 0
89 90 78 105 83 84 0
89 8 21 13 26 1 0
89 8 33 13 38 2 0
89 8 44 13 49 3 0
89 8 54 13 59 4 0
89 8 63 13 68 5 0
89 8 71 13 76 6 0
89 8 78 13 83 7 0
89 21 33 26 38 15 0
89 21 44 26 49 16 0
89 21 54 26 59 17 0
89 21 63 26 68 18 0
89 21 71 26 76 19 0
89 21 78 26 83 20 0
89 33 44 38 49 28 0
89 33 54 38 59 29 0
89 33 63 38 68 30 0
89 33 71 38 76 31 0
89 33 78 38 83 32 0
89 44 54 49 59 40 0
89 44 63 49 68 41 0
89 44 71 49 76 42 0
89 44 78 49 83 43 0
89 54 63 59 68 51 0
89 54 71 59 76 52 0
89 54 78 59 83 53 0
89 63 71 68 76 61 0
89 63 78 68 83 62 0
89 71 78 76 83 70 0
90 8 21 14 27 1 0
90 8 33 14 39 2 0
90 8 44 14 50 3 0
90 8 54 14 60 4 0
90 8 63 14 69 5 0
90 8 71 14 77 6 0
90 8 78 14 84 7 0
90 21 33 27 39 15 0
90 21 44 27 50 16 0
90 21 54 27 60 17 0
90 21 63 27 69 18 0
90 21 71 27 77 19 0
90 21 78 27 84 20 0
90 33 44 39 50 28 0
90 33 54 39 60 29 0
90 33 63 39 69 30 0
90 33 71 39 77 31 0
90 33 78 39 84 32 0
90 44 54 50 60 40 0
90 44 63 50 69 41 0
90 44 71 50 77 42 0
90 44 78 50 84 43 0
90 54 63 60 69 51 0
90 54 71 60 77 52 0
90 54 78 60 84 53 0
90 63 71 69 77 61 0
90 63 78 69 84 62 0
90 71 78 77 84 70 0
8 21 33 1 2 15 0
8 21 44 1 3 16 0
8 21 54 1 4 17 0
8 21 63 1 5 18 0
8 21 71 1 6 19 0
8 21 78 1 7 20 0
8 33 44 2 3 28 0
8 33 54 2 4 29 0
8 33 63 2 5 30 0
8 33 71 2 6 31 0
8 33 78 2 7 32 0
8 44 54 3 4 40 0
8 44 63 3 5 41 0
8 44 71 3 6 42 0
8 44 78 3 7 43 0
8 54 63 4 5 51 0
8 54 71 4 6 52 0
8 54 78 4 7 53 0
8 63 71 5 6 61 0
8 63 78 5 7 62 0
8 71 78 6 7 70 0
21 33 44 15 16 28 0
21 33 54 15 17 29 0
21 33 63 15 18 30 0
21 33 71 15 19 31 0
21 33 78 15 20 32 0
21 44 54 16 17 40 0
21 44 63 16 18 41 0
21 44 71 16 19 42 0
21 44 78 16 20 43 0
21 54 63 17 18 51 0
21 54 71 17 19 52 0
21 54 78 17 20 53 0
21 63 71 18 19 61 0
21 63 78 18 20 62 0
21 71 78 19 20 70 0
33 44 54 28 29 40 0
33 44 63 28 30 41 0
33 44 71 28 31 42 0
33 44 78 28 32 43 0
33 54 63 29 30 51 0
33 54 71 29 31 52 0
33 54 78 29 32 53 0
33 63 71 30 31 61 0
33 63 78 30 32 62 0
33 71 78 31 32 70 0
44 54 63 40 41 51 0
44 54 71 40 42 52 0
44 54 78 40 43 53 0
44 63 71 41 42 61 0
44 63 78 41 43 62 0
44 71 78 42 43 70 0
54 63 71 51 52 61 0
54 63 78 51 53 62 0
54 71 78 52 53 70 0
63 71 78 61 62 70 0
91 92 93 96 97 100 0
91 92 94 96 98 101 0
91 92 95 96 99 102 0
91 92 9 96 10 11 0
91 92 22 96 23 24 0
91 92 34 96 35 36 0
91 92 45 96 46 47 0
91 92 55 96 56 57 0
91 92 64 96 65 66 0
91 92 72 96 73 74 0
91 92 79 96 80 81 0
91 92 85 96 86 87 0
91 93 94 97 98 103 0
91 93 95 97 99 104 0
91 93 9 97 10 12 0
91 93 22 97 23 25 0
91 93 34 97 35 37 0
91 93 45 97 46 48 0
91 93 55 97 56 58 0
91 93 64 97 65 67 0
91 93 72 97 73 75 0
91 93 79 97 80 82 0
91 93 85 97 86 88 0
91 94 95 98 99 105 0
91 94 9 98 10 13 0
91 94 22 98 23 26 0
91 94 34 98 35 38 0
91 94 45 98 46 49 0
91 94 55 98 56 59 0
91 94 64 98 65 68 0
91 94 72 98 73 76 0
91 94 79 98 80 83 0
91 94 85 98 86 89 0
91 95 9 99 10 14 0
91 95 22 99 23 27 0
91 95 34 99 35 39 0
91 95 45 99 46 50 0
91 95 55 99 56 60 0
91 95 64 99 65 69 0
91 95 72 99 73 77 0
91 95 79 99 80 84 0
91 95 85 99 86 90 0
91 9 22 10 23 1 0
91 9 34 10 35 2 0
91 9 45 10 46 3 0
91 9 55 10 56 4 0
91 9 64 10 65 5 0
91 9 72 10 73 6 0
91 9 79 10 80 7 0
91 9 85 10 86 8 0
91 22 34 23 35 15 0
91 22 45 23 46 16 0
91 22 55 23 56 17 0
91 22 64 23 65 18 0
91 22 72 23 73 19 0
91 22 79 23 80 20 0
91 22 85 23 86 21 0
91 34 45 35 46 28 0
91 34 55 35 56 29 0
91 34 64 35 65 30 0
91 34 72 35 73 31 0
91 34 79 35 80 32 0
91 34 85 35 86 33 0
91 45 55 46 56 40 0
91 45 64 46 65 41 0
91 45 72 46 73 42 0
91 45 79 46 80 43 0
91 45 85 46 86 44 0
91 55 64 56 65 51 0
91 55 72 56 73 52 0
91 55 79 56 80 53 0
91 55 85 56 86 54 0
91 64 72 65 73 61 0
91 64 79 65 80 62 0
91 64 85 65 86 63 0
91 72 79 73 80 70 0
91 72 85 73 86 71 0
91 79 85 80 86 78 0
92 93 94 100 101 103 0
92 93 95 100 102 104 0
92 93 9 100 11 12 0
92 93 22 100 24 25 0
92 93 34 100 36 37 0
92 93 45 100 47 48 0
92 93 55 100 57 58 0
92 93 64 100 66 67 0
92 93 72 100 74 75 0
92 93 79 100 81 82 0
92 93 85 100 87 88 0
92 94 95 101 102 105 0
92 94 9 101 11 13 0
92 94 22 101 24 26 0
92 94 34 101 36 38 0
92 94 45 101 47 49 0
92 94 55 101 57 59 0
92 94 64 101 66 68 0
92 94 72 101 74 76 0
92 94 79 101 81 83 0
92 94 85 101 87 89 0
92 95 9 102 11 14 0
92 95 22 102 24 27 0
92 95 34 102 36 39 0
92 95 45 102 47 50 0
92 95 55 102 57 60 0
92 95 64 102 66 69 0
92 95 72 102 74 77 0
92 95 79 102 81 84 0
92 95 85 102 87 90 0
92 9 22 11 24 1 0
92 9 34 11 36 2 0
92 9 45 11 47 3 0
92 9 55 11 57 4 0
92 9 64 11 66 5 0
92 9 72 11 74 6 0
92 9 79 11 81 7 0
92 9 85 11 87 8 0
92 22 34 24 36 15 0
92 22 45 24 47 16 0
92 22 55 24 57 17 0
92 22 64 24 66 18 0
92 22 72 24 74 19 0
92 22 79 24 81 20 0
92 22 85 24 87 21 0
92 34 45 36 47 28 0
92 34 55 36 57 29 0
92 34 64 36 66 30 0
92 34 72 36 74 31 0
92 34 79 36 81 32 0
92 34 85 36 87 33 0
92 45 55 47 57 40 0
92 45 64 47 66 41 0
92 45 72 47 74 42 0
92 45 79 47 81 43 0
92 45 85 47 87 44 0
92 55 64 57 66 51 0
92 55 72 57 74 52 0
92 55 79 57 81 53 0
92 55 85 57 87 54 0
92 64 72 66 74 61 0
92 64 79 66 81 62 0
92 64 85 66 87 63 0
92 72 79 74 81 70 0
92 72 85 74 87 71 0
92 79 85 81 87 78 0
93 94 95 103 104 105 0
93 94 9 103 12 13 0
93 94 22 103 25 26 0
93 94 34 103 37 38 0
93 94 45 103 48 49 0
93 94 55 103 58 59 0
93 94 64 103 67 68 0
93 94 72 103 75 76 0
93 94 79 103 82 83 0
93 94 85 103 88 89 0
93 95 9 104 12 14 0
93 95 22 104 25 27 0
93 95 34 104 37 39 0
93 95 45 104 48 50 0
93 95 55 104 58 60 0
93 95 64 104 67 69 0
93 95 72 104 75 77 0
93 95 79 104 82 84 0
93 95 85 104 88 90 0
93 9 22 12 25 1 0
93 9 34 12 37 2 0
93 9 45 12 48 3 0
93 9 55 12 58 4 0
93 9 64 12 67 5 0
93 9 72 12 75 6 0
93 9 79 12 82 7 0
93 9 85 12 88 8 0
93 22 34 25 37 15 0
93 22 45 25 48 16 0
93 22 55 25 58 17 0
93 22 64 25 67 18 0
93 22 72 25 75 19 0
93 22 79 25 82 20 0
93 22 85 25 88 21 0
93 34 45 37 48 28 0
93 34 55 37 58 29 0
93 34 64 37 67 30 0
93 34 72 37 75 31 0
93 34 79 37 82 32 0
93 34 85 37 88 33 0
93 45 55 48 58 40 0
93 45 64 48 67 41 0
93 45 72 48 75 42 0
93 45 79 48 82 43 0
93 45 85 48 88 44 0
93 55 64 58 67 51 0
93 55 72 58 75 52 0
93 55 79 58 82 53 0
93 55 85 58 88 54 0
93 64 72 67 75 61 0
93 64 79 67 82 62 0
93 64 85 67 88 63 0
93 72 79 75 82 70 0
93 72 85 75 88 71 0
93 79 85 82 88 78 0
94 95 9 105 13 14 0
94 95 22 105 26 27 0
94 95 34 105 38 39 0
94 95 45 105 49 50 0
94 95 55 105 59 60 0
94 95 64 105 68 69 0
94 95 72 105 76 77 0
94 95 79 105 83 84 0
94 95 85 105 89 90 0
94 9 22 13 26 1 0
94 9 34 13 38 2 0
94 9 45 13 49 3 0
94 9 55 13 59 4 0
94 9 64 13 68 5 0
94 9 72 13 76 6 0
94 9 79 13 83 7 0
94 9 85 13 89 8 0
94 22 34 26 38 15 0
94 22 45 26 49 16 0
94 22 55 26 59 17 0
94 22 64 26 68 18 0
94 22 72 26 76 19 0
94 22 79 26 83 20 0
94 22 85 26 89 21 0
94 34 45 38 49 28 0
94 34 55 38 59 29 0
94 34 64 38 68 30 0
94 34 72 38 76 31 0
94 34 79 38 83 32 0
94 34 85 38 89 33 0
94 45 55 49 59 40 0
94 45 64 49 68 41 0
94 45 72 49 76 42 0
94 45 79 49 83 43 0
94 45 85 49 89 44 0
94 55 64 59 68 51 0
94 55 72 59 76 52 0
94 55 79 59 83 53 0
94 55 85 59 89 54 0
94 64 72 68 76 61 0
94 64 79 68 83 62 0
94 64 85 68 89 63 0
94 72 79 76 83 70 0
94 72 85 76 89 71 0
94 79 85 83 89 78 0
95 9 22 14 27 1 0
95 9 34 14 39 2 0
95 9 45 14 50 3 0
95 9 55 14 60 4 0
95 9 64 14 69 5 0
95 9 72 14 77 6 0
95 9 79 14 84 7 0
95 9 85 14 90 8 0
95 22 34 27 39 15 0
95 22 45 27 50 16 0
95 22 55 27 60 17 0
95 22 64 27 69 18 0
95 22 72 27 77 19 0
95 22 79 27 84 20 0
95 22 85 27 90 21 0
95 34 45 39 50 28 0
95 34 55 39 60 29 0
95 34 64 39 69 30 0
95 34 72 39 77 31 0
95 34 79 39 84 32 0
95 34 85 39 90 33 0
95 45 55 50 60 40 0
95 45 64 50 69 41 0
95 45 72 50 77 42 0
95 45 79 50 84 43 0
95 45 85 50 90 44 0
95 55 64 60 69 51 0
95 55 72 60 77 52 0
95 55 79 60 84 53 0
95 55 85 60 90 54 0
95 64 72 69 77 61 0
95 64 79 69 84 62 0
95 64 85 69 90 63 0
95 72 79 77 84 70 0
95 72 85 77 90 71 0
95 79 85 84 90 78 0
9 22 34 1 2 15 0
9 22 45 1 3 16 0
9 22 55 1 4 17 0
9 22 64 1 5 18 0
9 22 72 1 6 19 0
9 22 79 1 7 20 0
9 22 85 1 8 21 0
9 34 45 2 3 28 0
9 34 55 2 4 29 0
9 34 64 2 5 30 0
9 34 72 2 6 31 0
9 34 79 2 7 32 0
9 34 85 2 8 33 0
9 45 55 3 4 40 0
9 45 64 3 5 41 0
9 45 72 3 6 42 0
9 45 79 3 7 43 0
9 45 85 3 8 44 0
9 55 64 4 5 51 0
9 55 72 4 6 52 0
9 55 79 4 7 53 0
9 55 85 4 8 54 0
9 64 72 5 6 61 0
9 64 79 5 7 62 0
9 64 85 5 8 63 0
9 72 79 6 7 70 0
9 72 85 6 8 71 0
9 79 85 7 8 78 0
22 34 45 15 16 28 0
22 34 55 15 17 29 0
22 34 64 15 18 30 0
22 34 72 15 19 31 0
22 34 79 15 20 32 0
22 34 85 15 21 33 0
22 45 55 16 17 40 0
22 45 64 16 18 41 0
22 45 72 16 19 42 0
22 45 79 16 20 43 0
22 45 85 16 21 44 0
22 55 64 17 18 51 0
22 55 72 17 19 52 0
22 55 79 17 20 53 0
22 55 85 17 21 54 0
22 64 72 18 19 61 0
22 64 79 18 20 62 0
22 64 85 18 21 63 0
22 72 79 19 20 70 0
22 72 85 19 21 71 0
22 79 85 20 21 78 0
34 45 55 28 29 40 0
34 45 64 28 30 41 0
34 45 72 28 31 42 0
34 45 79 28 32 43 0
34 45 85 28 33 44 0
34 55 64 29 30 51 0
34 55 72 29 31 52 0
34 55 79 29 32 53 0
34 55 85 29 33 54 0
34 64 72 30 31 61 0
34 64 79 30 32 62 0
34 64 85 30 33 63 0
34 72 79 31 32 70 0
34 72 85 31 33 71 0
34 79 85 32 33 78 0
45 55 64 40 41 51 0
45 55 72 40 42 52 0
45 55 79 40 43 53 0
45 55 85 40 44 54 0
45 64 72 41 42 61 0
45 64 79 41 43 62 0
45 64 85 41 44 63 0
45 72 79 42 43 70 0
45 72 85 42 44 71 0
45 79 85 43 44 78 0
55 64 72 51 52 61 0
55 64 79 51 53 62 0
55 64 85 51 54 63 0
55 72 79 52 53 70 0
55 72 85 52 54 71 0
55 79 85 53 54 78 0
64 72 79 61 62 70 0
64 72 85 61 63 71 0
64 79 85 62 63 78 0
72 79 85 70 71 78 0
96 97 98 100 101 103 0
96 97 99 100 102 104 0
96 97 10 100 11 12 0
96 97 23 100 24 25 0
96 97 35 100 36 37 0
96 97 46 100 47 48 0
96 97 56 100 57 58 0
96 97 65 100 66 67 0
96 97 73 100 74 75 0
96 97 80 100 81 82 0
96 97 86 100 87 88 0
96 97 91 100 92 93 0
96 98 99 101 102 105 0
96 98 10 101 11 13 0
96 98 23 101 24 26 0
96 98 35 101 36 38 0
96 98 46 101 47 49 0
96 98 56 101 57 59 0
96 98 65 101 66 68 0
96 98 73 101 74 76 0
96 98 80 101 81 83 0
96 98 86 101 87 89 0
96 98 91 101 92 94 0
96 99 10 102 11 14 0
96 99 23 102 24 27 0
96 99 35 102 36 39 0
96 99 46 102 47 50 0
96 99 56 102 57 60 0
96 99 65 102 66 69 0
96 99 73 102 74 77 0
96 99 80 102 81 84 0
96 99 86 102 87 90 0
96 99 91 102 92 95 0
96 10 23 11 24 1 0
96 10 35 11 36 2 0
96 10 46 11 47 3 0
96 10 56 11 57 4 0
96 10 65 11 66 5 0
96 10 73 11 74 6 0
96 10 80 11 81 7 0
96 10 86 11 87 8 0
96 10 91 11 92 9 0
96 23 35 24 36 15 0
96 23 46 24 47 16 0
96 23 56 24 57 17 0
96 23 65 24 66 18 0
96 23 73 24 74 19 0
96 23 80 24 81 20 0
96 23 86 24 87 21 0
96 23 91 24 92 22 0
96 35 46 36 47 28 0
96 35 56 36 57 29 0
96 35 65 36 66 30 0
96 35 73 36 74 31 0
96 35 80 36 81 32 0
96 35 86 36 87 33 0
96 35 91 36 92 34 0
96 46 56 47 57 40 0
96 46 65 47 66 41 0
96 46 73 47 74 42 0
96 46 80 47 81 43 0
96 46 86 47 87 44 0
96 46 91 47 92 45 0
96 56 65 57 66 51 0
96 56 73 57 74 52 0
96 56 80 57 81 53 0
96 56 86 57 87 54 0
96 56 91 57 92 55 0
96 65 73 66 74 61 0
96 65 80 66 81 62 0
96 65 86 66 87 63 0
96 65 91 66 92 64 0
96 73 80 74 81 70 0
96 73 86 74 87 71 0
96 73 91 74 92 72 0
96 80 86 81 87 78 0
96 80 91 81 92 79 0
96 86 91 87 92 85 0
97 98 99 103 104 105 0
97 98 10 103 12 13 0
97 98 23 103 25 26 0
97 98 35 103 37 38 0
97 98 46 103 48 49 0
97 98 56 103 58 59 0
97 98 65 103 67 68 0
97 98 73 103 75 76 0
97 98 80 103 82 83 0
97 98 86 103 88 89 0
97 98 91 103 93 94 0
97 99 10 104 12 14 0
97 99 23 104 25 27 0
97 99 35 104 37 39 0
97 99 46 104 48 50 0
97 99 56 104 58 60 0
97 99 65 104 67 69 0
97 99 73 104 75 77 0
97 99 80 104 82 84 0
97 99 86 104 88 90 0
97 99 91 104 93 95 0
97 10 23 12 25 1 0
97 10 35 12 37 2 0
97 10 46 12 48 3 0
97 10 56 12 58 4 0
97 10 65 12 67 5 0
97 10 73 12 75 6 0
97 10 80 12 82 7 0
97 10 86 12 88 8 0
97 10 91 12 93 9 0
97 23 35 25 37 15 0
97 23 46 25 48 16 0
97 23 56 25 58 17 0
97 23 65 25 67 18 0
97 23 73 25 75 19 0
97 23 80 25 82 20 0
97 23 86 25 88 21 0
97 23 91 25 93 22 0
97 35 46 37 48 28 0
97 35 56 37 58 29 0
97 35 65 37 67 30 0
97 35 73 37 75 31 0
97 35 80 37 82 32 0
97 35 86 37 88 33 0
97 35 91 37 93 34 0
97 46 56 48 58 40 0
97 46 65 48 67 41 0
97 46 73 48 75 42 0
97 46 80 48 82 43 0
97 46 86 48 88 44 0
97 46 91 48 93 45 0
97 56 65 58 67 51 0
97 56 73 58 75 52 0
97 56 80 58 82 53 0
97 56 86 58 88 54 0
97 56 91 58 93 55 0
97 65 73 67 75 61 0
97 65 80 67 82 62 0
97 65 86 67 88 63 0
97 65 91 67 93 64 0
97 73 80 75 82 70 0
97 73 86 75 88 71 0
97 73 91 75 93 72 0
97 80 86 82 88 78 0
97 80 91 82 93 79 0
97 86 91 88 93 85 0
98 99 10 105 13 14 0
98 99 23 105 26 27 0
98 99 35 105 38 39 0
98 99 46 105 49 50 0
98 99 56 105 59 60 0
98 99 65 105 68 69 0
98 99 73 105 76 77 0
98 99 80 105 83 84 0
98 99 86 105 89 90 0
98 99 91 105 94 95 0
98 10 23 13 26 1 0
98 10 35 13 38 2 0
98 10 46 13 49 3 0
98 10 56 13 59 4 0
98 10 65 13 68 5 0
98 10 73 13 76 6 0
98 10 80 13 83 7 0
98 10 86 13 89 8 0
98 10 91 13 94 9 0
98 23 35 26 38 15 0
98 23 46 26 49 16 0
98 23 56 26 59 17 0
98 23 65 26 68 18 0
98 23 73 26 76 19 0
98 23 80 26 83 20 0
98 23 86 26 89 21 0
98 23 91 26 94 22 0
98 35 46 38 49 28 0
98 35 56 38 59 29 0
98 35 65 38 68 30 0
98 35 73 38 76 31 0
98 35 80 38 83 32 0
98 35 86 38 89 33 0
98 35 91 38 94 34 0
98 46 56 49 59 40 0
98 46 65 49 68 41 0
98 46 73 49 76 42 0
98 46 80 49 83 43 0
98 46 86 49 89 44 0
98 46 91 49 94 45 0
98 56 65 59 68 51 0
98 56 73 59 76 52 0
98 56 80 59 83 53 0
98 56 86 59 89 54 0
98 56 91 59 94 55 0
98 65 73 68 76 61 0
98 65 80 68 83 62 0
98 65 86 68 89 63 0
98 65 91 68 94 64 0
98 73 80 76 83 70 0
98 73 86 76 89 71 0
98 73 91 76 94 72 0
98 80 86 83 89 78 0
98 80 91 83 94 79 0
98 86 91 89 94 85 0
99 10 23 14 27 1 0
99 10 35 14 39 2 0
99 10 46 14 50 3 0
99 10 56 14 60 4 0
99 10 65 14 69 5 0
99 10 73 14 77 6 0
99 10 80 14 84 7 0
99 10 86 14 90 8 0
99 10 91 14 95 9 0
99 23 35 27 39 15 0
99 23 46 27 50 16 0
99 23 56 27 60 17 0
99 23 65 27 69 18 0
99 23 73 27 77 19 0
99 23 80 27 84 20 0
99 23 86 27 90 21 0
99 23 91 27 95 22 0
99 35 46 39 50 28 0
99 35 56 39 60 29 0
99 35 65 39 69 30 0
99 35 73 39 77 31 0
99 35 80 39 84 32 0
99 35 86 39 90 33 0
99 35 91 39 95 34 0
99 46 56 50 60 40 0
99 46 65 50 69 41 0
99 46 73 50 77 42 0
99 46 80 50 84 43 0
99 46 86 50 90 44 0
99 46 91 50 95 45 0
99 56 65 60 69 51 0
99 56 73 60 77 52 0
99 56 80 60 84 53 0
99 56 86 60 90 54 0
99 56 91 60 95 55 0
99 65 73 69 77 61 0
99 65 80 69 84 62 0
99 65 86 69 90 63 0
99 65 91 69 95 64 0
99 73 80 77 84 70 0
99 73 86 77 90 71 0
99 73 91 77 95 72 0
99 80 86 84 90 78 0
99 80 91 84 95 79 0
99 86 91 90 95 85 0
10 23 35 1 2 15 0
10 23 46 1 3 16 0
10 23 56 1 4 17 0
10 23 65 1 5 18 0
10 23 73 1 6 19 0
10 23 80 1 7 20 0
10 23 86 1 8 21 0
10 23 91 1 9 22 0
10 35 46 2 3 28 0
10 35 56 2 4 29 0
10 35 65 2 5 30 0
10 35 73 2 6 31 0
10 35 80 2 7 32 0
10 35 86 2 8 33 0
10 35 91 2 9 34 0
10 46 56 3 4 40 0
10 46 65 3 5 41 0
10 46 73 3 6 42 0
10 46 80 3 7 43 0
10 46 86 3 8 44 0
10 46 91 3 9 45 0
10 56 65 4 5 51 0
10 56 73 4 6 52 0
10 56 80 4 7 53 0
10 56 86 4 8 54 0
10 56 91 4 9 55 0
10 65 73 5 6 61 0
10 65 80 5 7 62 0
10 65 86 5 8 63 0
10 65 91 5 9 64 0
10 73 80 6 7 70 0
10 73 86 6 8 71 0
10 73 91 6 9 72 0
10 80 86 7 8 78 0
10 80 91 7 9 79 0
10 86 91 8 9 85 0
23 35 46 15 16 28 0
23 35 56 15 17 29 0
23 35 65 15 18 30 0
23 35 73 15 19 31 0
23 35 80 15 20 32 0
23 35 86 15 21 33 0
23 35 91 15 22 34 0
23 46 56 16 17 40 0
23 46 65 16 18 41 0
23 46 73 16 19 42 0
23 46 80 16 20 43 0
23 46 86 16 21 44 0
23 46 91 16 22 45 0
23 56 65 17 18 51 0
23 56 73 17 19 52 0
23 56 80 17 20 53 0
23 56 86 17 21 54 0
23 56 91 17 22 55 0
23 65 73 18 19 61 0
23 65 80 18 20 62 0
23 65 86 18 21 63 0
23 65 91 18 22 64 0
23 73 80 19 20 70 0
23 73 86 19 21 71 0
23 73 91 19 22 72 0
23 80 86 20 21 78 0
23 80 91 20 22 79 0
23 86 91 21 22 85 0
35 46 56 28 29 40 0
35 46 65 28 30 41 0
35 46 73 28 31 42 0
35 46 80 28 32 43 0
35 46 86 28 33 44 0
35 46 91 28 34 45 0
35 56 65 29 30 51 0
35 56 73 29 31 52 0
35 56 80 29 32 53 0
35 56 86 29 33 54 0
35 56 91 29 34 55 0
35 65 73 30 31 61 0
35 65 80 30 32 62 0
35 65 86 30 33 63 0
35 65 91 30 34 64 0
35 73 80 31 32 70 0
35 73 86 31 33 71 0
35 73 91 31 34 72 0
35 80 86 32 33 78 0
35 80 91 32 34 79 0
35 86 91 33 34 85 0
46 56 65 40 41 51 0
46 56 73 40 42 52 0
46 56 80 40 43 53 0
46 56 86 40 44 54 0
46 56 91 40 45 55 0
46 65 73 41 42 61 0
46 65 80 41 43 62 0
46 65 86 41 44 63 0
46 65 91 41 45 64 0
46 73 80 42 43 70 0
46 73 86 42 44 71 0
46 73 91 42 45 72 0
46 80 86 43 44 78 0
46 80 91 43 45 79 0
46 86 91 44 45 85 0
56 65 73 51 52 61 0
56 65 80 51 53 62 0
56 65 86 51 54 63 0
56 65 91 51 55 64 0
56 73 80 52 53 70 0
56 73 86 52 54 71 0
56 73 91 52 55 72 0
56 80 86 53 54 78 0
56 80 91 53 55 79 0
56 86 91 54 55 85 0
65 73 80 61 62 70 0
65 73 86 61 63 71 0
65 73 91 61 64 72 0
65 80 86 62 63 78 0
65 80 91 62 64 79 0
65 86 91 63 64 85 0
73 80 86 70 71 78 0
73 80 91 70 72 79 0
73 86 91 71 72 85 0
80 86 91 78 79 85 0
100 101 102 103 104 105 0
100 101 11 103 12 13 0
100 101 24 103 25 26 0
100 101 36 103 37 38 0
100 101 47 103 48 49 0
100 101 57 103 58 59 0
100 101 66 103 67 68 0
100 101 74 103 75 76 0
100 101 81 103 82 83 0
100 101 87 103 88 89 0
100 101 92 103 93 94 0
100 101 96 103 97 98 0
100 102 11 104 12 14 0
100 102 24 104 25 27 0
100 102 36 104 37 39 0
100 102 47 104 48 50 0
100 102 57 104 58 60 0
100 102 66 104 67 69 0
100 102 74 104 75 77 0
100 102 81 104 82 84 0
100 102 87 104 88 90 0
100 102 92 104 93 95 0
100 102 96 104 97 99 0
100 11 24 12 25 1 0
100 11 36 12 37 2 0
100 11 47 12 48 3 0
100 11 57 12 58 4 0
100 11 66 12 67 5 0
100 11 74 12 75 6 0
100 11 81 12 82 7 0
100 11 87 12 88 8 0
100 11 92 12 93 9 0
100 11 96 12 97 10 0
100 24 36 25 37 15 0
100 24 47 25 48 16 0
100 24 57 25 58 17 0
100 24 66 25 67 18 0
100 24 74 25 75 19 0
100 24 81 25 82 20 0
100 24 87 25 88 21 0
100 24 92 25 93 22 0
100 24 96 25 97 23 0
100 36 47 37 48 28 0
100 36 57 37 58 29 0
100 36 66 37 67 30 0
100 36 74 37 75 31 0
100 36 81 37 82 32 0
100 36 87 37 88 33 0
100 36 92 37 93 34 0
100 36 96 37 97 35 0
100 47 57 48 58 40 0
100 47 66 48 67 41 0
100 47 74 48 75 42 0
100 47 81 48 82 43 0
100 47 87 48 88 44 0
100 47 92 48 93 45 0
100 47 96 48 97 46 0
100 57 66 58 67 51 0
100 57 74 58 75 52 0
100 57 81 58 82 53 0
100 57 87 58 88 54 0
100 57 92 58 93 55 0
100 57 96 58 97 56 0
100 66 74 67 75 61 0
100 66 81 67 82 62 0
100 66 87 67 88 63 0
100 66 92 67 93 64 0
100 66 96 67 97 65 0
100 74 81 75 82 70 0
100 74 87 75 88 71 0
100 74 92 75 93 72 0
100 74 96 75 97 73 0
100 81 87 82 88 78 0
100 81 92 82 93 79 0
100 81 96 82 97 80 0
100 87 92 88 93 85 0
100 87 96 88 97 86 0
100 92 96 93 97 91 0
101 102 11 105 13 14 0
101 102 24 105 26 27 0
101 102 36 105 38 39 0
101 102 47 105 49 50 0
101 102 57 105 59 60 0
101 102 66 105 68 69 0
101 102 74 105 76 77 0
101 102 81 105 83 84 0
101 102 87 105 89 90 0
101 102 92 105 94 95 0
101 102 96 105 98 99 0
101 11 24 13 26 1 0
101 11 36 13 38 2 0
101 11 47 13 49 3 0
101 11 57 13 59 4 0
101 11 66 13 68 5 0
101 11 74 13 76 6 0
101 11 81 13 83 7 0
101 11 87 13 89 8 0
101 11 92 13 94 9 0
101 11 96 13 98 10 0
101 24 36 26 38 15 0
101 24 47 26 49 16 0
101 24 57 26 59 17 0
101 24 66 26 68 18 0
101 24 74 26 76 19 0
101 24 81 26 83 20 0
101 24 87 26 89 21 0
101 24 92 26 94 22 0
101 24 96 26 98 23 0
101 36 47 38 49 28 0
101 36 57 38 59 29 0
101 36 66 38 68 30 0
101 36 74 38 76 31 0
101 36 81 38 83 32 0
101 36 87 38 89 33 0
101 36 92 38 94 34 0
101 36 96 38 98 35 0
101 47 57 49 59 40 0
101 47 66 49 68 41 0
101 47 74 49 76 42 0
101 47 81 49 83 43 0
101 47 87 49 89 44 0
101 47 92 49 94 45 0
101 47 96 49 98 46 0
101 57 66 59 68 51 0
101 57 74 59 76 52 0
101 57 81 59 83 53 0
101 57 87 59 89 54 0
101 57 92 59 94 55 0
101 57 96 59 98 56 0
101 66 74 68 76 61 0
101 66 81 68 83 62 0
101 66 87 68 89 63 0
101 66 92 68 94 64 0
101 66 96 68 98 65 0
101 74 81 76 83 70 0
101 74 87 76 89 71 0
101 74 92 76 94 72 0
101 74 96 76 98 73 0
101 81 87 83 89 78 0
101 81 92 83 94 79 0
101 81 96 83 98 80 0
101 87 92 89 94 85 0
101 87 96 89 98 86 0
101 92 96 94 98 91 0
102 11 24 14 27 1 0
102 11 36 14 39 2 0
102 11 47 14 50 3 0
102 11 57 14 60 4 0
102 11 66 14 69 5 0
102 11 74 14 77 6 0
102 11 81 14 84 7 0
102 11 87 14 90 8 0
102 11 92 14 95 9 0
102 11 96 14 99 10 0
102 24 36 27 39 15 0
102 24 47 27 50 16 0
102 24 57 27 60 17 0
102 24 66 27 69 18 0
102 24 74 27 77 19 0
102 24 81 27 84 20 0
102 24 87 27 90 21 0
102 24 92 27 95 22 0
102 24 96 27 99 23 0
102 36 47 39 50 28 0
102 36 57 39 60 29 0
102 36 66 39 69 30 0
102 36 74 39 77 31 0
102 36 81 39 84 32 0
102 36 87 39 90 33 0
102 36 92 39 95 34 0
102 36 96 39 99 35 0
102 47 57 50 60 40 0
102 47 66 50 69 41 0
102 47 74 50 77 42 0
102 47 81 50 84 43 0
102 47 87 50 90 44 0
102 47 92 50 95 45 0
102 47 96 50 99 46 0
102 57 66 60 69 51 0
102 57 74 60 77 52 0
102 57 81 60 84 53 0
102 57 87 60 90 54 0
102 57 92 60 95 55 0
102 57 96 60 99 56 0
102 66 74 69 77 61 0
102 66 81 69 84 62 0
102 66 87 69 90 63 0
102 66 92 69 95 64 0
102 66 96 69 99 65 0
102 74 81 77 84 70 0
102 74 87 77 90 71 0
102 74 92 77 95 72 0
102 74 96 77 99 73 0
102 81 87 84 90 78 0
102 81 92 84 95 79 0
102 81 96 84 99 80 0
102 87 92 90 95 85 0
102 87 96 90 99 86 0
102 92 96 95 99 91 0
11 24 36 1 2 15 0
11 24 47 1 3 16 0
11 24 57 1 4 17 0
11 24 66 1 5 18 0
11 24 74 1 6 19 0
11 24 81 1 7 20 0
11 24 87 1 8 21 0
11 24 92 1 9 22 0
11 24 96 1 10 23 0
11 36 47 2 3 28 0
11 36 57 2 4 29 0
11 36 66 2 5 30 0
11 36 74 2 6 31 0
11 36 81 2 7 32 0
11 36 87 2 8 33 0
11 36 92 2 9 34 0
11 36 96 2 10 35 0
11 47 57 3 4 40 0
11 47 66 3 5 41 0
11 47 74 3 6 42 0
11 47 81 3 7 43 0
11 47 87 3 8 44 0
11 47 92 3 9 45 0
11 47 96 3 10 46 0
11 57 66 4 5 51 0
11 57 74 4 6 52 0
11 57 81 4 7 53 0
11 57 87 4 8 54 0
11 57 92 4 9 55 0
11 57 96 4 10 56 0
11 66 74 5 6 61 0
11 66 81 5 7 62 0
11 66 87 5 8 63 0
11 66 92 5 9 64 0
11 66 96 5 10 65 0
11 74 81 6 7 70 0
11 74 87 6 8 71 0
11 74 92 6 9 72 0
11 74 96 6 10 73 0
11 81 87 7 8 78 0
11 81 92 7 9 79 0
11 81 96 7 10 80 0
11 87 92 8 9 85 0
11 87 96 8 10 86 0
11 92 96 9 10 91 0
24 36 47 15 16 28 0
24 36 57 15 17 29 0
24 36 66 15 18 30 0
24 36 74 15 19 31 0
24 36 81 15 20 32 0
24 36 87 15 21 33 0
24 36 92 15 22 34 0
24 36 96 15 23 35 0
24 47 57 16 17 40 0
24 47 66 16 18 41 0
24 47 74 16 19 42 0
24 47 81 16 20 43 0
24 47 87 16 21 44 0
24 47 92 16 22 45 0
24 47 96 16 23 46 0
24 57 66 17 18 51 0
24 57 74 17 19 52 0
24 57 81 17 20 53 0
24 57 87 17 21 54 0
24 57 92 17 22 55 0
24 57 96 17 23 56 0
24 66 74 18 19 61 0
24 66 81 18 20 62 0
24 66 87 18 21 63 0
24 66 92 18 22 64 0
24 66 96 18 23 65 0
24 74 81 19 20 70 0
24 74 87 19 21 71 0
24 74 92 19 22 72 0
24 74 96 19 23 73 0
24 81 87 20 21 78 0
24 81 92 20 22 79 0
24 81 96 20 23 80 0
24 87 92 21 22 85 0
24 87 96 21 23 86 0
24 92 96 22 23 91 0
36 47 57 28 29 40 0
36 47 66 28 30 41 0
36 47 74 28 31 42 0
36 47 81 28 32 43 0
36 47 87 28 33 44 0
36 47 92 28 34 45 0
36 47 96 28 35 46 0
36 57 66 29 30 51 0
36 57 74 29 31 52 0
36 57 81 29 32 53 0
36 57 87 29 33 54 0
36 57 92 29 34 55 0
36 57 96 29 35 56 0
36 66 74 30 31 61 0
36 66 81 30 32 62 0
36 66 87 30 33 63 0
36 66 92 30 34 64 0
36 66 96 30 35 65 0
36 74 81 31 32 70 0
36 74 87 31 33 71 0
36 74 92 31 34 72 0
36 74 96 31 35 73 0
36 81 87 32 33 78 0
36 81 92 32 34 79 0
36 81 96 32 35 80 0
36 87 92 33 34 85 0
36 87 96 33 35 86 0
36 92 96 34 35 91 0
47 57 66 40 41 51 0
47 57 74 40 42 52 0
47 57 81 40 43 53 0
47 57 87 40 44 54 0
47 57 92 40 45 55 0
47 57 96 40 46 56 0
47 66 74 41 42 61 0
47 66 81 41 43 62 0
47 66 87 41 44 63 0
47 66 92 41 45 64 0
47 66 96 41 46 65 0
47 74 81 42 43 70 0
47 74 87 42 44 71 0
47 74 92 42 45 72 0
47 74 96 42 46 73 0
47 81 87 43 44 78 0
47 81 92 43 45 79 0
47 81 96 43 46 80 0
47 87 92 44 45 85 0
47 87 96 44 46 86 0
47 92 96 45 46 91 0
57 66 74 51 52 61 0
57 66 81 51 53 62 0
57 66 87 51 54 63 0
57 66 92 51 55 64 0
57 66 96 51 56 65 0
57 74 81 52 53 70 0
57 74 87 52 54 71 0
57 74 92 52 55 72 0
57 74 96 52 56 73 0
57 81 87 53 54 78 0
57 81 92 53 55 79 0
57 81 96 53 56 80 0
57 87 92 54 55 85 0
57 87 96 54 56 86 0
57 92 96 55 56 91 0
66 74 81 61 62 70 0
66 74 87 61 63 71 0
66 74 92 61 64 72 0
66 74 96 61 65 73 0
66 81 87 62 63 78 0
66 81 92 62 64 79 0
66 81 96 62 65 80 0
66 87 92 63 64 85 0
66 87 96 63 65 86 0
66 92 96 64 65 91 0
74 81 87 70 71 78 0
74 81 92 70 72 79 0
74 81 96 70 73 80 0
74 87 92 71 72 85 0
74 87 96 71 73 86 0
74 92 96 72 73 91 0
81 87 92 78 79 85 0
81 87 96 78 80 86 0
81 92 96 79 80 91 0
87 92 96 85 86 91 0
103 104 12 105 13 14 0
103 104 25 105 26 27 0
103 104 37 105 38 39 0
103 104 48 105 49 50 0
103 104 58 105 59 60 0
103 104 67 105 68 69 0
103 104 75 105 76 77 0
103 104 82 105 83 84 0
103 104 88 105 89 90 0
103 104 93 105 94 95 0
103 104 97 105 98 99 0
103 104 100 105 101 102 0
103 12 25 13 26 1 0
103 12 37 13 38 2 0
103 12 48 13 49 3 0
103 12 58 13 59 4 0
103 12 67 13 68 5 0
103 12 75 13 76 6 0
103 12 82 13 83 7 0
103 12 88 13 89 8 0
103 12 93 13 94 9 0
103 12 97 13 98 10 0
103 12 100 13 101 11 0
103 25 37 26 38 15 0
103 25 48 26 49 16 0
103 25 58 26 59 17 0
103 25 67 26 68 18 0
103 25 75 26 76 19 0
103 25 82 26 83 20 0
103 25 88 26 89 21 0
103 25 93 26 94 22 0
103 25 97 26 98 23 0
103 25 100 26 101 24 0
103 37 48 38 49 28 0
103 37 58 38 59 29 0
103 37 67 38 68 30 0
103 37 75 38 76 31 0
103 37 82 38 83 32 0
103 37 88 38 89 33 0
103 37 93 38 94 34 0
103 37 97 38 98 35 0
103 37 100 38 101 36 0
103 48 58 49 59 40 0
103 48 67 49 68 41 0
103 48 75 49 76 42 0
103 48 82 49 83 43 0
103 48 88 49 89 44 0
103 48 93 49 94 45 0
103 48 97 49 98 46 0
103 48 100 49 101 47 0
103 58 67 59 68 51 0
103 58 75 59 76 52 0
103 58 82 59 83 53 0
103 58 88 59 89 54 0
103 58 93 59 94 55 0
103 58 97 59 98 56 0
103 58 100 59 101 57 0
103 67 75 68 76 61 0
103 67 82 68 83 62 0
103 67 88 68 89 63 0
103 67 93 68 94 64 0
103 67 97 68 98 65 0
103 67 100 68 101 66 0
103 75 82 76 83 70 0
103 75 88 76 89 71 0
103 75 93 76 94 72 0
103 75 97 76 98 73 0
103 75 100 76 101 74 0
103 82 88 83 89 78 0
103 82 93 83 94 79 0
103 82 97 83 98 80 0
103 82 100 83 101 81 0
103 88 93 89 94 85 0
103 88 97 89 98 86 0
103 88 100 89 101 87 0
103 93 97 94 98 91 0
103 93 100 94 101 92 0
103 97 100 98 101 96 0
104 12 25 14 27 1 0
104 12 37 14 39 2 0
104 12 48 14 50 3 0
104 12 58 14 60 4 0
104 12 67 14 69 5 0
104 12 75 14 77 6 0
104 12 82 14 84 7 0
104 12 88 14 90 8 0
104 12 93 14 95 9 0
104 12 97 14 99 10 0
104 12 100 14 102 11 0
104 25 37 27 39 15 0
104 25 48 27 50 16 0
104 25 58 27 60 17 0
104 25 67 27 69 18 0
104 25 75 27 77 19 0
104 25 82 27 84 20 0
104 25 88 27 90 21 0
104 25 93 27 95 22 0
104 25 97 27 99 23 0
104 25 100 27 102 24 0
104 37 48 39 50 28 0
104 37 58 39 60 29 0
104 37 67 39 69 30 0
104 37 75 39 77 31 0
104 37 82 39 84 32 0
104 37 88 39 90 33 0
104 37 93 39 95 34 0
104 37 97 39 99 35 0
104 37 100 39 102 36 0
104 48 58 50 60 40 0
104 48 67 50 69 41 0
104 48 75 50 77 42 0
104 48 82 50 84 43 0
104 48 88 50 90 44 0
104 48 93 50 95 45 0
104 48 97 50 99 46 0
104 48 100 50 102 47 0
104 58 67 60 69 51 0
104 58 75 60 77 52 0
104 58 82 60 84 53 0
104 58 88 60 90 54 0
104 58 93 60 95 55 0
104 58 97 60 99 56 0
104 58 100 60 102 57 0
104 67 75 69 77 61 0
104 67 82 69 84 62 0
104 67 88 69 90 63 0
104 67 93 69 95 64 0
104 67 97 69 99 65 0
104 67 100 69 102 66 0
104 75 82 77 84 70 0
104 75 88 77 90 71 0
104 75 93 77 95 72 0
104 75 97 77 99 73 0
104 75 100 77 102 74 0
104 82 88 84 90 78 0
104 82 93 84 95 79 0
104 82 97 84 99 80 0
104 82 100 84 102 81 0
104 88 93 90 95 85 0
104 88 97 90 99 86 0
104 88 100 90 102 87 0
104 93 97 95 99 91 0
104 93 100 95 102 92 0
104 97 100 99 102 96 0
12 25 37 1 2 15 0
12 25 48 1 3 16 0
12 25 58 1 4 17 0
12 25 67 1 5 18 0
12 25 75 1 6 19 0
12 25 82 1 7 20 0
12 25 88 1 8 21 0
12 25 93 1 9 22 0
12 25 97 1 10 23 0
12 25 100 1 11 24 0
12 37 48 2 3 28 0
12 37 58 2 4 29 0
12 37 67 2 5 30 0
12 37 75 2 6 31 0
12 37 82 2 7 32 0
12 37 88 2 8 33 0
12 37 93 2 9 34 0
12 37 97 2 10 35 0
12 37 100 2 11 36 0
12 48 58 3 4 40 0
12 48 67 3 5 41 0
12 48 75 3 6 42 0
12 48 82 3 7 43 0
12 48 88 3 8 44 0
12 48 93 3 9 45 0
12 48 97 3 10 46 0
12 48 100 3 11 47 0
12 58 67 4 5 51 0
12 58 75 4 6 52 0
12 58 82 4 7 53 0
12 58 88 4 8 54 0
12 58 93 4 9 55 0
12 58 97 4 10 56 0
12 58 100 4 11 57 0
12 67 75 5 6 61 0
12 67 82 5 7 62 0
12 67 88 5 8 63 0
12 67 93 5 9 64 0
12 67 97 5 10 65 0
12 67 100 5 11 66 0
12 75 82 6 7 70 0
12 75 88 6 8 71 0
12 75 93 6 9 72 0
12 75 97 6 10 73 0
12 75 100 6 11 74 0
12 82 88 7 8 78 0
12 82 93 7 9 79 0
12 82 97 7 10 80 0
12 82 100 7 11 81 0
12 88 93 8 9 85 0
12 88 97 8 10 86 0
12 88 100 8 11 87 0
12 93 97 9 10 91 0
12 93 100 9 11 92 0
12 97 100 10 11 96 0
25 37 48 15 16 28 0
25 37 58 15 17 29 0
25 37 67 15 18 30 0
25 37 75 15 19 31 0
25 37 82 15 20 32 0
25 37 88 15 21 33 0
25 37 93 15 22 34 0
25 37 97 15 23 35 0
25 37 100 15 24 36 0
25 48 58 16 17 40 0
25 48 67 16 18 41 0
25 48 75 16 19 42 0
25 48 82 16 20 43 0
25 48 88 16 21 44 0
25 48 93 16 22 45 0
25 48 97 16 23 46 0
25 48 100 16 24 47 0
25 58 67 17 18 51 0
25 58 75 17 19 52 0
25 58 82 17 20 53 0
25 58 88 17 21 54 0
25 58 93 17 22 55 0
25 58 97 17 23 56 0
25 58 100 17 24 57 0
25 67 75 18 19 61 0
25 67 82 18 20 62 0
25 67 88 18 21 63 0
25 67 93 18 22 64 0
25 67 97 18 23 65 0
25 67 100 18 24 66 0
25 75 82 19 20 70 0
25 75 88 19 21 71 0
25 75 93 19 22 72 0
25 75 97 19 23 73 0
25 75 100 19 24 74 0
25 82 88 20 21 78 0
25 82 93 20 22 79 0
25 82 97 20 23 80 0
25 82 100 20 24 81 0
25 88 93 21 22 85 0
25 88 97 21 23 86 0
25 88 100 21 24 87 0
25 93 97 22 23 91 0
25 93 100 22 24 92 0
25 97 100 23 24 96 0
37 48 58 28 29 40 0
37 48 67 28 30 41 0
37 48 75 28 31 42 0
37 48 82 28 32 43 0
37 48 88 28 33 44 0
37 48 93 28 34 45 0
37 48 97 28 35 46 0
37 48 100 28 36 47 0
37 58 67 29 30 51 0
37 58 75 29 31 52 0
37 58 82 29 32 53 0
37 58 88 29 33 54 0
37 58 93 29 34 55 0
37 58 97 29 35 56 0
37 58 100 29 36 57 0
37 67 75 30 31 61 0
37 67 82 30 32 62 0
37 67 88 30 33 63 0
37 67 93 30 34 64 0
37 67 97 30 35 65 0
37 67 100 30 36 66 0
37 75 82 31 32 70 0
37 75 88 31 33 71 0
37 75 93 31 34 72 0
37 75 97 31 35 73 0
37 75 100 31 36 74 0
37 82 88 32 33 78 0
37 82 93 32 34 79 0
37 82 97 32 35 80 0
37 82 100 32 36 81 0
37 88 93 33 34 85 0
37 88 97 33 35 86 0
37 88 100 33 36 87 0
37 93 97 34 35 91 0
37 93 100 34 36 92 0
37 97 100 35 36 96 0
48 58 67 40 41 51 0
48 58 75 40 42 52 0
48 58 82 40 43 53 0
48 58 88 40 44 54 0
48 58 93 40 45 55 0
48 58 97 40 46 56 0
48 58 100 40 47 57 0
48 67 75 41 42 61 0
48 67 82 41 43 62 0
48 67 88 41 44 63 0
48 67 93 41 45 64 0
48 67 97 41 46 65 0
48 67 100 41 47 66 0
48 75 82 42 43 70 0
48 75 88 42 44 71 0
48 75 93 42 45 72 0
48 75 97 42 46 73 0
48 75 100 42 47 74 0
48 82 88 43 44 78 0
48 82 93 43 45 79 0
48 82 97 43 46 80 0
48 82 100 43 47 81 0
48 88 93 44 45 85 0
48 88 97 44 46 86 0
48 88 100 44 47 87 0
48 93 97 45 46 91 0
48 93 100 45 47 92 0
48 97 100 46 47 96 0
58 67 75 51 52 61 0
58 67 82 51 53 62 0
58 67 88 51 54 63 0
58 67 93 51 55 64 0
58 67 97 51 56 65 0
58 67 100 51 57 66 0
58 75 82 52 53 70 0
58 75 88 52 54 71 0
58 75 93 52 55 72 0
58 75 97 52 56 73 0
58 75 100 52 57 74 0
58 82 88 53 54 78 0
58 82 93 53 55 79 0
58 82 97 53 56 80 0
58 82 100 53 57 81 0
58 88 93 54 55 85 0
58 88 97 54 56 86 0
58 88 100 54 57 87 0
58 93 97 55 56 91 0
58 93 100 55 57 92 0
58 97 100 56 57 96 0
67 75 82 61 62 70 0
67 75 88 61 63 71 0
67 75 93 61 64 72 0
67 75 97 61 65 73 0
67 75 100 61 66 74 0
67 82 88 62 63 78 0
67 82 93 62 64 79 0
67 82 97 62 65 80 0
67 82 100 62 66 81 0
67 88 93 63 64 85 0
67 88 97 63 65 86 0
67 88 100 63 66 87 0
67 93 97 64 65 91 0
67 93 100 64 66 92 0
67 97 100 65 66 96 0
75 82 88 70 71 78 0
75 82 93 70 72 79 0
75 82 97 70 73 80 0
75 82 100 70 74 81 0
75 88 93 71 72 85 0
75 88 97 71 73 86 0
75 88 100 71 74 87 0
75 93 97 72 73 91 0
75 93 100 72 74 92 0
75 97 100 73 74 96 0
82 88 93 78 79 85 0
82 88 97 78 80 86 0
82 88 100 78 81 87 0
82 93 97 79 80 91 0
82 93 100 79 81 92 0
82 97 100 80 81 96 0
88 93 97 85 86 91 0
88 93 100 85 87 92 0
88 97 100 86 87 96 0
93 97 100 91 92 96 0
105 13 26 14 27 1 0
105 13 38 14 39 2 0
105 13 49 14 50 3 0
105 13 59 14 60 4 0
105 13 68 14 69 5 0
105 13 76 14 77 6 0
105 13 83 14 84 7 0
105 13 89 14 90 8 0
105 13 94 14 95 9 0
105 13 98 14 99 10 0
105 13 101 14 102 11 0
105 13 103 14 104 12 0
105 26 38 27 39 15 0
105 26 49 27 50 16 0
105 26 59 27 60 17 0
105 26 68 27 69 18 0
105 26 76 27 77 19 0
105 26 83 27 84 20 0
105 26 89 27 90 21 0
105 26 94 27 95 22 0
105 26 98 27 99 23 0
105 26 101 27 102 24 0
105 26 103 27 104 25 0
105 38 49 39 50 28 0
105 38 59 39 60 29 0
105 38 68 39 69 30 0
105 38 76 39 77 31 0
105 38 83 39 84 32 0
105 38 89 39 90 33 0
105 38 94 39 95 34 0
105 38 98 39 99 35 0
105 38 101 39 102 36 0
105 38 103 39 104 37 0
105 49 59 50 60 40 0
105 49 68 50 69 41 0
105 49 76 50 77 42 0
105 49 83 50 84 43 0
105 49 89 50 90 44 0
105 49 94 50 95 45 0
105 49 98 50 99 46 0
105 49 101 50 102 47 0
105 49 103 50 104 48 0
105 59 68 60 69 51 0
105 59 76 60 77 52 0
105 59 83 60 84 53 0
105 59 89 60 90 54 0
105 59 94 60 95 55 0
105 59 98 60 99 56 0
105 59 101 60 102 57 0
105 59 103 60 104 58 0
105 68 76 69 77 61 0
105 68 83 69 84 62 0
105 68 89 69 90 63 0
105 68 94 69 95 64 0
105 68 98 69 99 65 0
105 68 101 69 102 66 0
105 68 103 69 104 67 0
105 76 83 77 84 70 0
105 76 89 77 90 71 0
105 76 94 77 95 72 0
105 76 98 77 99 73 0
105 76 101 77 102 74 0
105 76 103 77 104 75 0
105 83 89 84 90 78 0
105 83 94 84 95 79 0
105 83 98 84 99 80 0
105 83 101 84 102 81 0
105 83 103 84 104 82 0
105 89 94 90 95 85 0
105 89 98 90 99 86 0
105 89 101 90 102 87 0
105 89 103 90 104 88 0
105 94 98 95 99 91 0
105 94 101 95 102 92 0
105 94 103 95 104 93 0
105 98 101 99 102 96 0
105 98 103 99 104 97 0
105 101 103 102 104 100 0
13 26 38 1 2 15 0
13 26 49 1 3 16 0
13 26 59 1 4 17 0
13 26 68 1 5 18 0
13 26 76 1 6 19 0
13 26 83 1 7 20 0
13 26 89 1 8 21 0
13 26 94 1 9 22 0
13 26 98 1 10 23 0
13 26 101 1 11 24 0
13 26 103 1 12 25 0
13 38 49 2 3 28 0
13 38 59 2 4 29 0
13 38 68 2 5 30 0
13 38 76 2 6 31 0
13 38 83 2 7 32 0
13 38 89 2 8 33 0
13 38 94 2 9 34 0
13 38 98 2 10 35 0
13 38 101 2 11 36 0
13 38 103 2 12 37 0
13 49 59 3 4 40 0
13 49 68 3 5 41 0
13 49 76 3 6 42 0
13 49 83 3 7 43 0
13 49 89 3 8 44 0
13 49 94 3 9 45 0
13 49 98 3 10 46 0
13 49 101 3 11 47 0
13 49 103 3 12 48 0
13 59 68 4 5 51 0
13 59 76 4 6 52 0
13 59 83 4 7 53 0
13 59 89 4 8 54 0
13 59 94 4 9 55 0
13 59 98 4 10 56 0
13 59 101 4 11 57 0
13 59 103 4 12 58 0
13 68 76 5 6 61 0
13 68 83 5 7 62 0
13 68 89 5 8 63 0
13 68 94 5 9 64 0
13 68 98 5 10 65 0
13 68 101 5 11 66 0
13 68 103 5 12 67 0
13 76 83 6 7 70 0
13 76 89 6 8 71 0
13 76 94 6 9 72 0
13 76 98 6 10 73 0
13 76 101 6 11 74 0
13 76 103 6 12 75 0
13 83 89 7 8 78 0
13 83 94 7 9 79 0
13 83 98 7 10 80 0
13 83 101 7 11 81 0
13 83 103 7 12 82 0
13 89 94 8 9 85 0
13 89 98 8 10 86 0
13 89 101 8 11 87 0
13 89 103 8 12 88 0
13 94 98 9 10 91 0
13 94 101 9 11 92 0
13 94 103 9 12 93 0
13 98 101 10 11 96 0
13 98 103 10 12 97 0
13 101 103 11 12 100 0
26 38 49 15 16 28 0
26 38 59 15 17 29 0
26 38 68 15 18 30 0
26 38 76 15 19 31 0
26 38 83 15 20 32 0
26 38 89 15 21 33 0
26 38 94 15 22 34 0
26 38 98 15 23 35 0
26 38 101 15 24 36 0
26 38 103 15 25 37 0
26 49 59 16 17 40 0
26 49 68 16 18 41 0
26 49 76 16 19 42 0
26 49 83 16 20 43 0
26 49 89 16 21 44 0
26 49 94 16 22 45 0
26 49 98 16 23 46 0
26 49 101 16 24 47 0
26 49 103 16 25 48 0
26 59 68 17 18 51 0
26 59 76 17 19 52 0
26 59 83 17 20 53 0
26 59 89 17 21 54 0
26 59 94 17 22 55 0
26 59 98 17 23 56 0
26 59 101 17 24 57 0
26 59 103 17 25 58 0
26 68 76 18 19 61 0
26 68 83 18 20 62 0
26 68 89 18 21 63 0
26 68 94 18 22 64 0
26 68 98 18 23 65 0
26 68 101 18 24 66 0
26 68 103 18 25 67 0
26 76 83 19 20 70 0
26 76 89 19 21 71 0
26 76 94 19 22 72 0
26 76 98 19 23 73 0
26 76 101 19 24 74 0
26 76 103 19 25 75 0
26 83 89 20 21 78 0
26 83 94 20 22 79 0
26 83 98 20 23 80 0
26 83 101 20 24 81 0
26 83 103 20 25 82 0
26 89 94 21 22 85 0
26 89 98 21 23 86 0
26 89 101 21 24 87 0
26 89 103 21 25 88 0
26 94 98 22 23 91 0
26 94 101 22 24 92 0
26 94 103 22 25 93 0
26 98 101 23 24 96 0
26 98 103 23 25 97 0
26 101 103 24 25 100 0
38 49 59 28 29 40 0
38 49 68 28 30 41 0
38 49 76 28 31 42 0
38 49 83 28 32 43 0
38 49 89 28 33 44 0
38 49 94 28 34 45 0
38 49 98 28 35 46 0
38 49 101 28 36 47 0
38 49 103 28 37 48 0
38 59 68 29 30 51 0
38 59 76 29 31 52 0
38 59 83 29 32 53 0
38 59 89 29 33 54 0
38 59 94 29 34 55 0
38 59 98 29 35 56 0
38 59 101 29 36 57 0
38 59 103 29 37 58 0
38 68 76 30 31 61 0
38 68 83 30 32 62 0
38 68 89 30 33 63 0
38 68 94 30 34 64 0
38 68 98 30 35 65 0
38 68 101 30 36 66 0
38 68 103 30 37 67 0
38 76 83 31 32 70 0
38 76 89 31 33 71 0
38 76 94 31 34 72 0
38 76 98 31 35 73 0
38 76 101 31 36 74 0
38 76 103 31 37 75 0
38 83 89 32 33 78 0
38 83 94 32 34 79 0
38 83 98 32 35 80 0
38 83 101 32 36 81 0
38 83 103 32 37 82 0
38 89 94 33 34 85 0
38 89 98 33 35 86 0
38 89 101 33 36 87 0
38 89 103 33 37 88 0
38 94 98 34 35 91 0
38 94 101 34 36 92 0
38 94 103 34 37 93 0
38 98 101 35 36 96 0
38 98 103 35 37 97 0
38 101 103 36 37 100 0
49 59 68 40 41 51 0
49 59 76 40 42 52 0
49 59 83 40 43 53 0
49 59 89 40 44 54 0
49 59 94 40 45 55 0
49 59 98 40 46 56 0
49 59 101 40 47 57 0
49 59 103 40 48 58 0
49 68 76 41 42 61 0
49 68 83 41 43 62 0
49 68 89 41 44 63 0
49 68 94 41 45 64 0
49 68 98 41 46 65 0
49 68 101 41 47 66 0
49 68 103 41 48 67 0
49 76 83 42 43 70 0
49 76 89 42 44 71 0
49 76 94 42 45 72 0
49 76 98 42 46 73 0
49 76 101 42 47 74 0
49 76 103 42 48 75 0
49 83 89 43 44 78 0
49 83 94 43 45 79 0
49 83 98 43 46 80 0
49 83 101 43 47 81 0
49 83 103 43 48 82 0
49 89 94 44 45 85 0
49 89 98 44 46 86 0
49 89 101 44 47 87 0
49 89 103 44 48 88 0
49 94 98 45 46 91 0
49 94 101 45 47 92 0
49 94 103 45 48 93 0
49 98 101 46 47 96 0
49 98 103 46 48 97 0
49 101 103 47 48 100 0
59 68 76 51 52 61 0
59 68 83 51 53 62 0
59 68 89 51 54 63 0
59 68 94 51 55 64 0
59 68 98 51 56 65 0
59 68 101 51 57 66 0
59 68 103 51 58 67 0
59 76 83 52 53 70 0
59 76 89 52 54 71 0
59 76 94 52 55 72 0
59 76 98 52 56 73 0
59 76 101 52 57 74 0
59 76 103 52 58 75 0
59 83 89 53 54 78 0
59 83 94 53 55 79 0
59 83 98 53 56 80 0
59 83 101 53 57 81 0
59 83 103 53 58 82 0
59 89 94 54 55 85 0
59 89 98 54 56 86 0
59 89 101 54 57 87 0
59 89 103 54 58 88 0
59 94 98 55 56 91 0
59 94 101 55 57 92 0
59 94 103 55 58 93 0
59 98 101 56 57 96 0
59 98 103 56 58 97 0
59 101 103 57 58 100 0
68 76 83 61 62 70 0
68 76 89 61 63 71 0
68 76 94 61 64 72 0
68 76 98 61 65 73 0
68 76 101 61 66 74 0
68 76 103 61 67 75 0
68 83 89 62 63 78 0
68 83 94 62 64 79 0
68 83 98 62 65 80 0
68 83 101 62 66 81 0
68 83 103 62 67 82 0
68 89 94 63 64 85 0
68 89 98 63 65 86 0
68 89 101 63 66 87 0
68 89 103 63 67 88 0
68 94 98 64 65 91 0
68 94 101 64 66 92 0
68 94 103 64 67 93 0
68 98 101 65 66 96 0
68 98 103 65 67 97 0
68 101 103 66 67 100 0
76 83 89 70 71 78 0
76 83 94 70 72 79 0
76 83 98 70 73 80 0
76 83 101 70 74 81 0
76 83 103 70 75 82 0
76 89 94 71 72 85 0
76 89 98 71 73 86 0
76 89 101 71 74 87 0
76 89 103 71 75 88 0
76 94 98 72 73 91 0
76 94 101 72 74 92 0
76 94 103 72 75 93 0
76 98 101 73 74 96 0
76 98 103 73 75 97 0
76 101 103 74 75 100 0
83 89 94 78 79 85 0
83 89 98 78 80 86 0
83 89 101 78 81 87 0
83 89 103 78 82 88 0
83 94 98 79 80 91 0
83 94 101 79 81 92 0
83 94 103 79 82 93 0
83 98 101 80 81 96 0
83 98 103 80 82 97 0
83 101 103 81 82 100 0
89 94 98 85 86 91 0
89 94 101 85 87 92 0
89 94 103 85 88 93 0
89 98 101 86 87 96 0
89 98 103 86 88 97 0
89 101 103 87 88 100 0
94 98 101 91 92 96 0
94 98 103 91 93 97 0
94 101 103 92 93 100 0
98 101 103 96 97 100 0
14 27 39 1 2 15 0
14 27 50 1 3 16 0
14 27 60 1 4 17 0
14 27 69 1 5 18 0
14 27 77 1 6 19 0
14 27 84 1 7 20 0
14 27 90 1 8 21 0
14 27 95 1 9 22 0
14 27 99 1 10 23 0
14 27 102 1 11 24 0
14 27 104 1 12 25 0
14 27 105 1 13 26 0
14 39 50 2 3 28 0
14 39 60 2 4 29 0
14 39 69 2 5 30 0
14 39 77 2 6 31 0
14 39 84 2 7 32 0
14 39 90 2 8 33 0
14 39 95 2 9 34 0
14 39 99 2 10 35 0
14 39 102 2 11 36 0
14 39 104 2 12 37 0
14 39 105 2 13 38 0
14 50 60 3 4 40 0
14 50 69 3 5 41 0
14 50 77 3 6 42 0
14 50 84 3 7 43 0
14 50 90 3 8 44 0
14 50 95 3 9 45 0
14 50 99 3 10 46 0
14 50 102 3 11 47 0
14 50 104 3 12 48 0
14 50 105 3 13 49 0
14 60 69 4 5 51 0
14 60 77 4 6 52 0
14 60 84 4 7 53 0
14 60 90 4 8 54 0
14 60 95 4 9 55 0
14 60 99 4 10 56 0
14 60 102 4 11 57 0
14 60 104 4 12 58 0
14 60 105 4 13 59 0
14 69 77 5 6 61 0
14 69 84 5 7 62 0
14 69 90 5 8 63 0
14 69 95 5 9 64 0
14 69 99 5 10 65 0
14 69 102 5 11 66 0
14 69 104 5 12 67 0
14 69 105 5 13 68 0
14 77 84 6 7 70 0
14 77 90 6 8 71 0
14 77 95 6 9 72 0
14 77 99 6 10 73 0
14 77 102 6 11 74 0
14 77 104 6 12 75 0
14 77 105 6 13 76 0
14 84 90 7 8 78 0
14 84 95 7 9 79 0
14 84 99 7 10 80 0
14 84 102 7 11 81 0
14 84 104 7 12 82 0
14 84 105 7 13 83 0
14 90 95 8 9 85 0
14 90 99 8 10 86 0
14 90 102 8 11 87 0
14 90 104 8 12 88 0
14 90 105 8 13 89 0
14 95 99 9 10 91 0
14 95 102 9 11 92 0
14 95 104 9 12 93 0
14 95 105 9 13 94 0
14 99 102 10 11 96 0
14 99 104 10 12 97 0
14 99 105 10 13 98 0
14 102 104 11 12 100 0
14 102 105 11 13 101 0
14 104 105 12 13 103 0
27 39 50 15 16 28 0
27 39 60 15 17 29 0
27 39 69 15 18 30 0
27 39 77 15 19 31 0
27 39 84 15 20 32 0
27 39 90 15 21 33 0
27 39 95 15 22 34 0
27 39 99 15 23 35 0
27 39 102 15 24 36 0
27 39 104 15 25 37 0
27 39 105 15 26 38 0
27 50 60 16 17 40 0
27 50 69 16 18 41 0
27 50 77 16 19 42 0
27 50 84 16 20 43 0
27 50 90 16 21 44 0
27 50 95 16 22 45 0
27 50 99 16 23 46 0
27 50 102 16 24 47 0
27 50 104 16 25 48 0
27 50 105 16 26 49 0
27 60 69 17 18 51 0
27 60 77 17 19 52 0
27 60 84 17 20 53 0
27 60 90 17 21 54 0
27 60 95 17 22 55 0
27 60 99 17 23 56 0
27 60 102 17 24 57 0
27 60 104 17 25 58 0
27 60 105 17 26 59 0
27 69 77 18 19 61 0
27 69 84 18 20 62 0
27 69 90 18 21 63 0
27 69 95 18 22 64 0
27 69 99 18 23 65 0
27 69 102 18 24 66 0
27 69 104 18 25 67 0
27 69 105 18 26 68 0
27 77 84 19 20 70 0
27 77 90 19 21 71 0
27 77 95 19 22 72 0
27 77 99 19 23 73 0
27 77 102 19 24 74 0
27 77 104 19 25 75 0
27 77 105 19 26 76 0
27 84 90 20 21 78 0
27 84 95 20 22 79 0
27 84 99 20 23 80 0
27 84 102 20 24 81 0
27 84 104 20 25 82 0
27 84 105 20 26 83 0
27 90 95 21 22 85 0
27 90 99 21 23 86 0
27 90 102 21 24 87 0
27 90 104 21 25 88 0
27 90 105 21 26 89 0
27 95 99 22 23 91 0
27 95 102 22 24 92 0
27 95 104 22 25 93 0
27 95 105 22 26 94 0
27 99 102 23 24 96 0
27 99 104 23 25 97 0
27 99 105 23 26 98 0
27 102 104 24 25 100 0
27 102 105 24 26 101 0
27 104 105 25 26 103 0
39 50 60 28 29 40 0
39 50 69 28 30 41 0
39 50 77 28 31 42 0
39 50 84 28 32 43 0
39 50 90 28 33 44 0
39 50 95 28 34 45 0
39 50 99 28 35 46 0
39 50 102 28 36 47 0
39 50 104 28 37 48 0
39 50 105 28 38 49 0
39 60 69 29 30 51 0
39 60 77 29 31 52 0
39 60 84 29 32 53 0
39 60 90 29 33 54 0
39 60 95 29 34 55 0
39 60 99 29 35 56 0
39 60 102 29 36 57 0
39 60 104 29 37 58 0
39 60 105 29 38 59 0
39 69 77 30 31 61 0
39 69 84 30 32 62 0
39 69 90 30 33 63 0
39 69 95 30 34 64 0
39 69 99 30 35 65 0
39 69 102 30 36 66 0
39 69 104 30 37 67 0
39 69 105 30 38 68 0
39 77 84 31 32 70 0
39 77 90 31 33 71 0
39 77 95 31 34 72 0
39 77 99 31 35 73 0
39 77 102 31 36 74 0
39 77 104 31 37 75 0
39 77 105 31 38 76 0
39 84 90 32 33 78 0
39 84 95 32 34 79 0
39 84 99 32 35 80 0
39 84 102 32 36 81 0
39 84 104 32 37 82 0
39 84 105 32 38 83 0
39 90 95 33 34 85 0
39 90 99 33 35 86 0
39 90 102 33 36 87 0
39 90 104 33 37 88 0
39 90 105 33 38 89 0
39 95 99 34 35 91 0
39 95 102 34 36 92 0
39 95 104 34 37 93 0
39 95 105 34 38 94 0
39 99 102 35 36 96 0
39 99 104 35 37 97 0
39 99 105 35 38 98 0
39 102 104 36 37 100 0
39 102 105 36 38 101 0
39 104 105 37 38 103 0
50 60 69 40 41 51 0
50 60 77 40 42 52 0
50 60 84 40 43 53 0
50 60 90 40 44 54 0
50 60 95 40 45 55 0
50 60 99 40 46 56 0
50 60 102 40 47 57 0
50 60 104 40 48 58 0
50 60 105 40 49 59 0
50 69 77 41 42 61 0
50 69 84 41 43 62 0
50 69 90 41 44 63 0
50 69 95 41 45 64 0
50 69 99 41 46 65 0
50 69 102 41 47 66 0
50 69 104 41 48 67 0
50 69 105 41 49 68 0
50 77 84 42 43 70 0
50 77 90 42 44 71 0
50 77 95 42 45 72 0
50 77 99 42 46 73 0
50 77 102 42 47 74 0
50 77 104 42 48 75 0
50 77 105 42 49 76 0
50 84 90 43 44 78 0
50 84 95 43 45 79 0
50 84 99 43 46 80 0
50 84 102 43 47 81 0
50 84 104 43 48 82 0
50 84 105 43 49 83 0
50 90 95 44 45 85 0
50 90 99 44 46 86 0
50 90 102 44 47 87 0
50 90 104 44 48 88 0
50 90 105 44 49 89 0
50 95 99 45 46 91 0
50 95 102 45 47 92 0
50 95 104 45 48 93 0
50 95 105 45 49 94 0
50 99 102 46 47 96 0
50 99 104 46 48 97 0
50 99 105 46 49 98 0
50 102 104 47 48 100 0
50 102 105 47 49 101 0
50 104 105 48 49 103 0
60 69 77 51 52 61 0
60 69 84 51 53 62 0
60 69 90 51 54 63 0
60 69 95 51 55 64 0
60 69 99 51 56 65 0
60 69 102 51 57 66 0
60 69 104 51 58 67 0
60 69 105 51 59 68 0
60 77 84 52 53 70 0
60 77 90 52 54 71 0
60 77 95 52 55 72 0
60 77 99 52 56 73 0
60 77 102 52 57 74 0
60 77 104 52 58 75 0
60 77 105 52 59 76 0
60 84 90 53 54 78 0
60 84 95 53 55 79 0
60 84 99 53 56 80 0
60 84 102 53 57 81 0
60 84 104 53 58 82 0
60 84 105 53 59 83 0
60 90 95 54 55 85 0
60 90 99 54 56 86 0
60 90 102 54 57 87 0
60 90 104 54 58 88 0
60 90 105 54 59 89 0
60 95 99 55 56 91 0
60 95 102 55 57 92 0
60 95 104 55 58 93 0
60 95 105 55 59 94 0
60 99 102 56 57 96 0
60 99 104 56 58 97 0
60 99 105 56 59 98 0
60 102 104 57 58 100 0
60 102 105 57 59 101 0
60 104 105 58 59 103 0
69 77 84 61 62 70 0
69 77 90 61 63 71 0
69 77 95 61 64 72 0
69 77 99 61 65 73 0
69 77 102 61 66 74 0
69 77 104 61 67 75 0
69 77 105 61 68 76 0
69 84 90 62 63 78 0
69 84 95 62 64 79 0
69 84 99 62 65 80 0
69 84 102 62 66 81 0
69 84 104 62 67 82 0
69 84 105 62 68 83 0
69 90 95 63 64 85 0
69 90 99 63 65 86 0
69 90 102 63 66 87 0
69 90 104 63 67 88 0
69 90 105 63 68 89 0
69 95 99 64 65 91 0
69 95 102 64 66 92 0
69 95 104 64 67 93 0
69 95 105 64 68 94 0
69 99 102 65 66 96 0
69 99 104 65 67 97 0
69 99 105 65 68 98 0
69 102 104 66 67 100 0
69 102 105 66 68 101 0
69 104 105 67 68 103 0
77 84 90 70 71 78 0
77 84 95 70 72 79 0
77 84 99 70 73 80 0
77 84 102 70 74 81 0
77 84 104 70 75 82 0
77 84 105 70 76 83 0
77 90 95 71 72 85 0
77 90 99 71 73 86 0
77 90 102 71 74 87 0
77 90 104 71 75 88 0
77 90 105 71 76 89 0
77 95 99 72 73 91 0
77 95 102 72 74 92 0
77 95 104 72 75 93 0
77 95 105 72 76 94 0
77 99 102 73 74 96 0
77 99 104 73 75 97 0
77 99 105 73 76 98 0
77 102 104 74 75 100 0
77 102 105 74 76 101 0
77 104 105 75 76 103 0
84 90 95 78 79 85 0
84 90 99 78 80 86 0
84 90 102 78 81 87 0
84 90 104 78 82 88 0
84 90 105 78 83 89 0
84 95 99 79 80 91 0
84 95 102 79 81 92 0
84 95 104 79 82 93 0
84 95 105 79 83 94 0
84 99 102 80 81 96 0
84 99 104 80 82 97 0
84 99 105 80 83 98 0
84 102 104 81 82 100 0
84 102 105 81 83 101 0
84 104 105 82 83 103 0
90 95 99 85 86 91 0
90 95 102 85 87 92 0
90 95 104 85 88 93 0
90 95 105 85 89 94 0
90 99 102 86 87 96 0
90 99 104 86 88 97 0
90 99 105 86 89 98 0
90 102 104 87 88 100 0
90 102 105 87 89 101 0
90 104 105 88 89 103 0
95 99 102 91 92 96 0
95 99 104 91 93 97 0
95 99 105 91 94 98 0
95 102 104 92 93 100 0
95 102 105 92 94 101 0
95 104 105 93 94 103 0
99 102 104 96 97 100 0
99 102 105 96 98 101 0
99 104 105 97 98 103 0
102 104 105 100 101 103 0
-5 -17 -18 -28 -29 0
-6 -17 -19 -28 -29 0
-7 -17 -20 -28 -29 0
-8 -17 -21 -28 -29 0
-9 -17 -22 -28 -29 0
-10 -17 -23 -28 -29 0
-11 -17 -24 -28 -29 0
-12 -17 -25 -28 -29 0
-13 -17 -26 -28 -29 0
-14 -17 -27 -28 -29 0
-6 -18 -19 -28 -30 0
-7 -18 -20 -28 -30 0
-8 -18 -21 -28 -30 0
-9 -18 -22 -28 -30 0
-10 -18 -23 -28 -30 0
-11 -18 -24 -28 -30 0
-12 -18 -25 -28 -30 0
-13 -18 -26 -28 -30 0
-14 -18 -27 -28 -30 0
-7 -19 -20 -28 -31 0
-8 -19 -21 -28 -31 0
-9 -19 -22 -28 -31 0
-10 -19 -23 -28 -31 0
-11 -19 -24 -28 -31 0
-12 -19 -25 -28 -31 0
-13 -19 -26 -28 -31 0
-14 -19 -27 -28 -31 0
-8 -20 -21 -28 -32 0
-9 -20 -22 -28 -32 0
-10 -20 -23 -28 -32 0
-11 -20 -24 -28 -32 0
-12 -20 -25 -28 -32 0
-13 -20 -26 -28 -32 0
-14 -20 -27 -28 -32 0
-9 -21 -22 -28 -33 0
-10 -21 -23 -28 -33 0
-11 -21 -24 -28 -33 0
-12 -21 -25 -28 -33 0
-13 -21 -26 -28 -33 0
-14 -21 -27 -28 -33 0
-10 -22 -23 -28 -34 0
-11 -22 -24 -28 -34 0
-12 -22 -25 -28 -34 0
-13 -22 -26 -28 -34 0
-14 -22 -27 -28 -34 0
-11 -23 -24 -28 -35 0
-12 -23 -25 -28 -35 0
-13 -23 -26 -28 -35 0
-14 -23 -27 -28 -35 0
-12 -24 -25 -28 -36 0
-13 -24 -26 -28 -36 0
-14 -24 -27 -28 -36 0
-13 -25 -26 -28 -37 0
-14 -25 -27 -28 -37 0
-14 -26 -27 -28 -38 0
-6 -18 -19 -29 -30 0
-7 -18 -20 -29 -30 0
-8 -18 -21 -29 -30 0
-9 -18 -22 -29 -30 0
-10 -18 -23 -29 -30 0
-11 -18 -24 -29 -30 0
-12 -18 -25 -29 -30 0
-13 -18 -26 -29 -30 0
-14 -18 -27 -29 -30 0
-7 -19 -20 -29 -31 0
-8 -19 -21 -29 -31 0
-9 -19 -22 -29 -31 0
-10 -19 -23 -29 -31 0
-11 -19 -24 -29 -31 0
-12 -19 -25 -29 -31 0
-13 -19 -26 -29 -31 0
-14 -19 -27 -29 -31 0
-8 -20 -21 -29 -32 0
-9 -20 -22 -29 -32 0
-10 -20 -23 -29 -32 0
-11 -20 -24 -29 -32 0
-12 -20 -25 -29 -32 0
-13 -20 -26 -29 -32 0
-14 -20 -27 -29 -32 0
-9 -21 -22 -29 -33 0
-10 -21 -23 -29 -33 0
-11 -21 -24 -29 -33 0
-12 -21 -25 -29 -33 0
-13 -21 -26 -29 -33 0
-14 -21 -27 -29 -33 0
-10 -22 -23 -29 -34 0
-11 -22 -24 -29 -34 0
-12 -22 -25 -29 -34 0
-13 -22 -26 -29 -34 0
-14 -22 -27 -29 -34 0
-11 -23 -24 -29 -35 0
-12 -23 -25 -29 -35 0
-13 -23 -26 -29 -35 0
-14 -23 -27 -29 -35 0
-12 -24 -25 -29 -36 0
-13 -24 -26 -29 -36 0
-14 -24 -27 -29 -36 0
-13 -25 -26 -29 -37 0
-14 -25 -27 -29 -37 0
-14 -26 -27 -29 -38 0
-7 -19 -20 -30 -31 0
-8 -19 -21 -30 -31 0
-9 -19 -22 -30 -31 0
-10 -19 -23 -30 -31 0
-11 -19 -24 -30 -31 0
-12 -19 -25 -30 -31 0
-13 -19 -26 -30 -31 0
-14 -19 -27 -30 -31 0
-8 -20 -21 -30 -32 0
-9 -20 -22 -30 -32 0
-10 -20 -23 -30 -32 0
-11 -20 -24 -30 -32 0
-12 -20 -25 -30 -32 0
-13 -20 -26 -30 -32 0
-14 -20 -27 -30 -32 0
-9 -21 -22 -30 -33 0
-10 -21 -23 -30 -33 0
-11 -21 -24 -30 -33 0
-12 -21 -25 -30 -33 0
-13 -21 -26 -30 -33 0
-14 -21 -27 -30 -33 0
-10 -22 -23 -30 -34 0
-11 -22 -24 -30 -34 0
-12 -22 -25 -30 -34 0
-13 -22 -26 -30 -34 0
-14 -22 -27 -30 -34 0
-11 -23 -24 -30 -35 0
-12 -23 -25 -30 -35 0
-13 -23 -26 -30 -35 0
-14 -23 -27 -30 -35 0
-12 -24 -25 -30 -36 0
-13 -24 -26 -30 -36 0
-14 -24 -27 -30 -36 0
-13 -25 -26 -30 -37 0
-14 -25 -27 -30 -37 0
-14 -26 -27 -30 -38 0
-8 -20 -21 -31 -32 0
-9 -20 -22 -31 -32 0
-10 -20 -23 -31 -32 0
-11 -20 -24 -31 -32 0
-12 -20 -25 -31 -32 0
-13 -20 -26 -31 -32 0
-14 -20 -27 -31 -32 0
-9 -21 -22 -31 -33 0
-10 -21 -23 -31 -33 0
-11 -21 -24 -31 -33 0
-12 -21 -25 -31 -33 0
-13 -21 -26 -31 -33 0
-14 -21 -27 -31 -33 0
-10 -22 -23 -31 -34 0
-11 -22 -24 -31 -34 0
-12 -22 -25 -31 -34 0
-13 -22 -26 -31 -34 0
-14 -22 -27 -31 -34 0
-11 -23 -24 -31 -35 0
-12 -23 -25 -31 -35 0
-13 -23 -26 -31 -35 0
-14 -23 -27 -31 -35 0
-12 -24 -25 -31 -36 0
-13 -24 -26 -31 -36 0
-14 -24 -27 -31 -36 0
-13 -25 -26 -31 -37 0
-14 -25 -27 -31 -37 0
-14 -26 -27 -31 -38 0
-9 -21 -22 -32 -33 0
-10 -21 -23 -32 -33 0
-11 -21 -24 -32 -33 0
-12 -21 -25 -32 -33 0
-13 -21 -26 -32 -33 0
-14 -21 -27 -32 -33 0
-10 -22 -23 -32 -34 0
-11 -22 -24 -32 -34 0
-12 -22 -25 -32 -34 0
-13 -22 -26 -32 -34 0
-14 -22 -27 -32 -34 0
-11 -23 -24 -32 -35 0
-12 -23 -25 -32 -35 0
-13 -23 -26 -32 -35 0
-14 -23 -27 -32 -35 0
-12 -24 -25 -32 -36 0
-13 -24 -26 -32 -36 0
-14 -24 -27 -32 -36 0
-13 -25 -26 -32 -37 0
-14 -25 -27 -32 -37 0
-14 -26 -27 -32 -38 0
-10 -22 -23 -33 -34 0
-11 -22 -24 -33 -34 0
-12 -22 -25 -33 -34 0
-13 -22 -26 -33 -34 0
-14 -22 -27 -33 -34 0
-11 -23 -24 -33 -35 0
-12 -23 -25 -33 -35 0
-13 -23 -26 -33 -35 0
-14 -23 -27 -33 -35 0
-12 -24 -25 -33 -36 0
-13 -24 -26 -33 -36 0
-14 -24 -27 -33 -36 0
-13 -25 -26 -33 -37 0
-14 -25 -27 -33 -37 0
-14 -26 -27 -33 -38 0
-11 -23 -24 -34 -35 0
-12 -23 -25 -34 -35 0
-13 -23 -26 -34 -35 0
-14 -23 -27 -34 -35 0
-12 -24 -25 -34 -36 0
-13 -24 -26 -34 -36 0
-14 -24 -27 -34 -36 0
-13 -25 -26 -34 -37 0
-14 -25 -27 -34 -37 0
-14 -26 -27 -34 -38 0
-12 -24 -25 -35 -36 0
-13 -24 -26 -35 -36 0
-14 -24 -27 -35 -36 0
-13 -25 -26 -35 -37 0
-14 -25 -27 -35 -37 0
-14 -26 -27 -35 -38 0
-13 -25 -26 -36 -37 0
-14 -25 -27 -36 -37 0
-14 -26 -27 -36 -38 0
-14 -26 -27 -37 -38 0
-6 -18 -19 -40 -41 0
-7 -18 -20 -40 -41 0
-8 -18 -21 -40 -41 0
-9 -18 -22 -40 -41 0
-10 -18 -23 -40 -41 0
-11 -18 -24 -40 -41 0
-12 -18 -25 -40 -41 0
-13 -18 -26 -40 -41 0
-14 -18 -27 -40 -41 0
-7 -19 -20 -40 -42 0
-8 -19 -21 -40 -42 0
-9 -19 -22 -40 -42 0
-10 -19 -23 -40 -42 0
-11 -19 -24 -40 -42 0
-12 -19 -25 -40 -42 0
-13 -19 -26 -40 -42 0
-14 -19 -27 -40 -42 0
-8 -20 -21 -40 -43 0
-9 -20 -22 -40 -43 0
-10 -20 -23 -40 -43 0
-11 -20 -24 -40 -43 0
-12 -20 -25 -40 -43 0
-13 -20 -26 -40 -43 0
-14 -20 -27 -40 -43 0
-9 -21 -22 -40 -44 0
-10 -21 -23 -40 -44 0
-11 -21 -24 -40 -44 0
-12 -21 -25 -40 -44 0
-13 -21 -26 -40 -44 0
-14 -21 -27 -40 -44 0
-10 -22 -23 -40 -45 0
-11 -22 -24 -40 -45 0
-12 -22 -25 -40 -45 0
-13 -22 -26 -40 -45 0
-14 -22 -27 -40 -45 0
-11 -23 -24 -40 -46 0
-12 -23 -25 -40 -46 0
-13 -23 -26 -40 -46 0
-14 -23 -27 -40 -46 0
-12 -24 -25 -40 -47 0
-13 -24 -26 -40 -47 0
-14 -24 -27 -40 -47 0
-13 -25 -26 -40 -48 0
-14 -25 -27 -40 -48 0
-14 -26 -27 -40 -49 0
-7 -19 -20 -41 -42 0
-8 -19 -21 -41 -42 0
-9 -19 -22 -41 -42 0
-10 -19 -23 -41 -42 0
-11 -19 -24 -41 -42 0
-12 -19 -25 -41 -42 0
-13 -19 -26 -41 -42 0
-14 -19 -27 -41 -42 0
-8 -20 -21 -41 -43 0
-9 -20 -22 -41 -43 0
-10 -20 -23 -41 -43 0
-11 -20 -24 -41 -43 0
-12 -20 -25 -41 -43 0
-13 -20 -26 -41 -43 0
-14 -20 -27 -41 -43 0
-9 -21 -22 -41 -44 0
-10 -21 -23 -41 -44 0
-11 -21 -24 -41 -44 0
-12 -21 -25 -41 -44 0
-13 -21 -26 -41 -44 0
-14 -21 -27 -41 -44 0
-10 -22 -23 -41 -45 0
-11 -22 -24 -41 -45 0
-12 -22 -25 -41 -45 0
-13 -22 -26 -41 -45 0
-14 -22 -27 -41 -45 0
-11 -23 -24 -41 -46 0
-12 -23 -25 -41 -46 0
-13 -23 -26 -41 -46 0
-14 -23 -27 -41 -46 0
-12 -24 -25 -41 -47 0
-13 -24 -26 -41 -47 0
-14 -24 -27 -41 -47 0
-13 -25 -26 -41 -48 0
-14 -25 -27 -41 -48 0
-14 -26 -27 -41 -49 0
-8 -20 -21 -42 -43 0
-9 -20 -22 -42 -43 0
-10 -20 -23 -42 -43 0
-11 -20 -24 -42 -43 0
-12 -20 -25 -42 -43 0
-13 -20 -26 -42 -43 0
-14 -20 -27 -42 -43 0
-9 -21 -22 -42 -44 0
-10 -21 -23 -42 -44 0
-11 -21 -24 -42 -44 0
-12 -21 -25 -42 -44 0
-13 -21 -26 -42 -44 0
-14 -21 -27 -42 -44 0
-10 -22 -23 -42 -45 0
-11 -22 -24 -42 -45 0
-12 -22 -25 -42 -45 0
-13 -22 -26 -42 -45 0
-14 -22 -27 -42 -45 0
-11 -23 -24 -42 -46 0
-12 -23 -25 -42 -46 0
-13 -23 -26 -42 -46 0
-14 -23 -27 -42 -46 0
-12 -24 -25 -42 -47 0
-13 -24 -26 -42 -47 0
-14 -24 -27 -42 -47 0
-13 -25 -26 -42 -48 0
-14 -25 -27 -42 -48 0
-14 -26 -27 -42 -49 0
-9 -21 -22 -43 -44 0
-10 -21 -23 -43 -44 0
-11 -21 -24 -43 -44 0
-12 -21 -25 -43 -44 0
-13 -21 -26 -43 -44 0
-14 -21 -27 -43 -44 0
-10 -22 -23 -43 -45 0
-11 -22 -24 -43 -45 0
-12 -22 -25 -43 -45 0
-13 -22 -26 -43 -45 0
-14 -22 -27 -43 -45 0
-11 -23 -24 -43 -46 0
-12 -23 -25 -43 -46 0
-13 -23 -26 -43 -46 0
-14 -23 -27 -43 -46 0
-12 -24 -25 -43 -47 0
-13 -24 -26 -43 -47 0
-14 -24 -27 -43 -47 0
-13 -25 -26 -43 -48 0
-14 -25 -27 -43 -48 0
-14 -26 -27 -43 -49 0
-10 -22 -23 -44 -45 0
-11 -22 -24 -44 -45 0
-12 -22 -25 -44 -45 0
-13 -22 -26 -44 -45 0
-14 -22 -27 -44 -45 0
-11 -23 -24 -44 -46 0
-12 -23 -25 -44 -46 0
-13 -23 -26 -44 -46 0
-14 -23 -27 -44 -46 0
-12 -24 -25 -44 -47 0
-13 -24 -26 -44 -47 0
-14 -24 -27 -44 -47 0
-13 -25 -26 -44 -48 0
-14 -25 -27 -44 -48 0
-14 -26 -27 -44 -49 0
-11 -23 -24 -45 -46 0
-12 -23 -25 -45 -46 0
-13 -23 -26 -45 -46 0
-14 -23 -27 -45 -46 0
-12 -24 -25 -45 -47 0
-13 -24 -26 -45 -47 0
-14 -24 -27 -45 -47 0
-13 -25 -26 -45 -48 0
-14 -25 -27 -45 -48 0
-14 -26 -27 -45 -49 0
-12 -24 -25 -46 -47 0
-13 -24 -26 -46 -47 0
-14 -24 -27 -46 -47 0
-13 -25 -26 -46 -48 0
-14 -25 -27 -46 -48 0
-14 -26 -27 -46 -49 0
-13 -25 -26 -47 -48 0
-14 -25 -27 -47 -48 0
-14 -26 -27 -47 -49 0
-14 -26 -27 -48 -49 0
-7 -19 -20 -51 -52 0
-8 -19 -21 -51 -52 0
-9 -19 -22 -51 -52 0
-10 -19 -23 -51 -52 0
-11 -19 -24 -51 -52 0
-12 -19 -25 -51 -52 0
-13 -19 -26 -51 -52 0
-14 -19 -27 -51 -52 0
-8 -20 -21 -51 -53 0
-9 -20 -22 -51 -53 0
-10 -20 -23 -51 -53 0
-11 -20 -24 -51 -53 0
-12 -20 -25 -51 -53 0
-13 -20 -26 -51 -53 0
-14 -20 -27 -51 -53 0
-9 -21 -22 -51 -54 0
-10 -21 -23 -51 -54 0
-11 -21 -24 -51 -54 0
-12 -21 -25 -51 -54 0
-13 -21 -26 -51 -54 0
-14 -21 -27 -51 -54 0
-10 -22 -23 -51 -55 0
-11 -22 -24 -51 -55 0
-12 -22 -25 -51 -55 0
-13 -22 -26 -51 -55 0
-14 -22 -27 -51 -55 0
-11 -23 -24 -51 -56 0
-12 -23 -25 -51 -56 0
-13 -23 -26 -51 -56 0
-14 -23 -27 -51 -56 0
-12 -24 -25 -51 -57 0
-13 -24 -26 -51 -57 0
-14 -24 -27 -51 -57 0
-13 -25 -26 -51 -58 0
-14 -25 -27 -51 -58 0
-14 -26 -27 -51 -59 0
-8 -20 -21 -52 -53 0
-9 -20 -22 -52 -53 0
-10 -20 -23 -52 -53 0
-11 -20 -24 -52 -53 0
-12 -20 -25 -52 -53 0
-13 -20 -26 -52 -53 0
-14 -20 -27 -52 -53 0
-9 -21 -22 -52 -54 0
-10 -21 -23 -52 -54 0
-11 -21 -24 -52 -54 0
-12 -21 -25 -52 -54 0
-13 -21 -26 -52 -54 0
-14 -21 -27 -52 -54 0
-10 -22 -23 -52 -55 0
-11 -22 -24 -52 -55 0
-12 -22 -25 -52 -55 0
-13 -22 -26 -52 -55 0
-14 -22 -27 -52 -55 0
-11 -23 -24 -52 -56 0
-12 -23 -25 -52 -56 0
-13 -23 -26 -52 -56 0
-14 -23 -27 -52 -56 0
-12 -24 -25 -52 -57 0
-13 -24 -26 -52 -57 0
-14 -24 -27 -52 -57 0
-13 -25 -26 -52 -58 0
-14 -25 -27 -52 -58 0
-14 -26 -27 -52 -59 0
-9 -21 -22 -53 -54 0
-10 -21 -23 -53 -54 0
-11 -21 -24 -53 -54 0
-12 -21 -25 -53 -54 0
-13 -21 -26 -53 -54 0
-14 -21 -27 -53 -54 0
-10 -22 -23 -53 -55 0
-11 -22 -24 -53 -55 0
-12 -22 -25 -53 -55 0
-13 -22 -26 -53 -55 0
-14 -22 -27 -53 -55 0
-11 -23 -24 -53 -56 0
-12 -23 -25 -53 -56 0
-13 -23 -26 -53 -56 0
-14 -23 -27 -53 -56 0
-12 -24 -25 -53 -57 0
-13 -24 -26 -53 -57 0
-14 -24 -27 -53 -57 0
-13 -25 -26 -53 -58 0
-14 -25 -27 -53 -58 0
-14 -26 -27 -53 -59 0
-10 -22 -23 -54 -55 0
-11 -22 -24 -54 -55 0
-12 -22 -25 -54 -55 0
-13 -22 -26 -54 -55 0
-14 -22 -27 -54 -55 0
-11 -23 -24 -54 -56 0
-12 -23 -25 -54 -56 0
-13 -23 -26 -54 -56 0
-14 -23 -27 -54 -56 0
-12 -24 -25 -54 -57 0
-13 -24 -26 -54 -57 0
-14 -24 -27 -54 -57 0
-13 -25 -26 -54 -58 0
-14 -25 -27 -54 -58 0
-14 -26 -27 -54 -59 0
-11 -23 -24 -55 -56 0
-12 -23 -25 -55 -56 0
-13 -23 -26 -55 -56 0
-14 -23 -27 -55 -56 0
-12 -24 -25 -55 -57 0
-13 -24 -26 -55 -57 0
-14 -24 -27 -55 -57 0
-13 -25 -26 -55 -58 0
-14 -25 -27 -55 -58 0
-14 -26 -27 -55 -59 0
-12 -24 -25 -56 -57 0
-13 -24 -26 -56 -57 0
-14 -24 -27 -56 -57 0
-13 -25 -26 -56 -58 0
-14 -25 -27 -56 -58 0
-14 -26 -27 -56 -59 0
-13 -25 -26 -57 -58 0
-14 -25 -27 -57 -58 0
-14 -26 -27 -57 -59 0
-14 -26 -27 -58 -59 0
-8 -20 -21 -61 -62 0
-9 -20 -22 -61 -62 0
-10 -20 -23 -61 -62 0
-11 -20 -24 -61 -62 0
-12 -20 -25 -61 -62 0
-13 -20 -26 -61 -62 0
-14 -20 -27 -61 -62 0
-9 -21 -22 -61 -63 0
-10 -21 -23 -61 -63 0
-11 -21 -24 -61 -63 0
-12 -21 -25 -61 -63 0
-13 -21 -26 -61 -63 0
-14 -21 -27 -61 -63 0
-10 -22 -23 -61 -64 0
-11 -22 -24 -61 -64 0
-12 -22 -25 -61 -64 0
-13 -22 -26 -61 -64 0
-14 -22 -27 -61 -64 0
-11 -23 -24 -61 -65 0
-12 -23 -25 -61 -65 0
-13 -23 -26 -61 -65 0
-14 -23 -27 -61 -65 0
-12 -24 -25 -61 -66 0
-13 -24 -26 -61 -66 0
-14 -24 -27 -61 -66 0
-13 -25 -26 -61 -67 0
-14 -25 -27 -61 -67 0
-14 -26 -27 -61 -68 0
-9 -21 -22 -62 -63 0
-10 -21 -23 -62 -63 0
-11 -21 -24 -62 -63 0
-12 -21 -25 -62 -63 0
-13 -21 -26 -62 -63 0
-14 -21 -27 -62 -63 0
-10 -22 -23 -62 -64 0
-11 -22 -24 -62 -64 0
-12 -22 -25 -62 -64 0
-13 -22 -26 -62 -64 0
-14 -22 -27 -62 -64 0
-11 -23 -24 -62 -65 0
-12 -23 -25 -62 -65 0
-13 -23 -26 -62 -65 0
-14 -23 -27 -62 -65 0
-12 -24 -25 -62 -66 0
-13 -24 -26 -62 -66 0
-14 -24 -27 -62 -66 0
-13 -25 -26 -62 -67 0
-14 -25 -27 -62 -67 0
-14 -26 -27 -62 -68 0
-10 -22 -23 -63 -64 0
-11 -22 -24 -63 -64 0
-12 -22 -25 -63 -64 0
-13 -22 -26 -63 -64 0
-14 -22 -27 -63 -64 0
-11 -23 -24 -63 -65 0
-12 -23 -25 -63 -65 0
-13 -23 -26 -63 -65 0
-14 -23 -27 -63 -65 0
-12 -24 -25 -63 -66 0
-13 -24 -26 -63 -66 0
-14 -24 -27 -63 -66 0
-13 -25 -26 -63 -67 0
-14 -25 -27 -63 -67 0
-14 -26 -27 -63 -68 0
-11 -23 -24 -64 -65 0
-12 -23 -25 -64 -65 0
-13 -23 -26 -64 -65 0
-14 -23 -27 -64 -65 0
-12 -24 -25 -64 -66 0
-13 -24 -26 -64 -66 0
-14 -24 -27 -64 -66 0
-13 -25 -26 -64 -67 0
-14 -25 -27 -64 -67 0
-14 -26 -27 -64 -68 0
-12 -24 -25 -65 -66 0
-13 -24 -26 -65 -66 0
-14 -24 -27 -65 -66 0
-13 -25 -26 -65 -67 0
-14 -25 -27 -65 -67 0
-14 -26 -27 -65 -68 0
-13 -25 -26 -66 -67 0
-14 -25 -27 -66 -67 0
-14 -26 -27 -66 -68 0
-14 -26 -27 -67 -68 0
-9 -21 -22 -70 -71 0
-10 -21 -23 -70 -71 0
-11 -21 -24 -70 -71 0
-12 -21 -25 -70 -71 0
-13 -21 -26 -70 -71 0
-14 -21 -27 -70 -71 0
-10 -22 -23 -70 -72 0
-11 -22 -24 -70 -72 0
-12 -22 -25 -70 -72 0
-13 -22 -26 -70 -72 0
-14 -22 -27 -70 -72 0
-11 -23 -24 -70 -73 0
-12 -23 -25 -70 -73 0
-13 -23 -26 -70 -73 0
-14 -23 -27 -70 -73 0
-12 -24 -25 -70 -74 0
-13 -24 -26 -70 -74 0
-14 -24 -27 -70 -74 0
-13 -25 -26 -70 -75 0
-14 -25 -27 -70 -75 0
-14 -26 -27 -70 -76 0
-10 -22 -23 -71 -72 0
-11 -22 -24 -71 -72 0
-12 -22 -25 -71 -72 0
-13 -22 -26 -71 -72 0
-14 -22 -27 -71 -72 0
-11 -23 -24 -71 -73 0
-12 -23 -25 -71 -73 0
-13 -23 -26 -71 -73 0
-14 -23 -27 -71 -73 0
-12 -24 -25 -71 -74 0
-13 -24 -26 -71 -74 0
-14 -24 -27 -71 -74 0
-13 -25 -26 -71 -75 0
-14 -25 -27 -71 -75 0
-14 -26 -27 -71 -76 0
-11 -23 -24 -72 -73 0
-12 -23 -25 -72 -73 0
-13 -23 -26 -72 -73 0
-14 -23 -27 -72 -73 0
-12 -24 -25 -72 -74 0
-13 -24 -26 -72 -74 0
-14 -24 -27 -72 -74 0
-13 -25 -26 -72 -75 0
-14 -25 -27 -72 -75 0
-14 -26 -27 -72 -76 0
-12 -24 -25 -73 -74 0
-13 -24 -26 -73 -74 0
-14 -24 -27 -73 -74 0
-13 -25 -26 -73 -75 0
-14 -25 -27 -73 -75 0
-14 -26 -27 -73 -76 0
-13 -25 -26 -74 -75 0
-14 -25 -27 -74 -75 0
-14 -26 -27 -74 -76 0
-14 -26 -27 -75 -76 0
-10 -22 -23 -78 -79 0
-11 -22 -24 -78 -79 0
-12 -22 -25 -78 -79 0
-13 -22 -26 -78 -79 0
-14 -22 -27 -78 -79 0
-11 -23 -24 -78 -80 0
-12 -23 -25 -78 -80 0
-13 -23 -26 -78 -80 0
-14 -23 -27 -78 -80 0
-12 -24 -25 -78 -81 0
-13 -24 -26 -78 -81 0
-14 -24 -27 -78 -81 0
-13 -25 -26 -78 -82 0
-14 -25 -27 -78 -82 0
-14 -26 -27 -78 -83 0
-11 -23 -24 -79 -80 0
-12 -23 -25 -79 -80 0
-13 -23 -26 -79 -80 0
-14 -23 -27 -79 -80 0
-12 -24 -25 -79 -81 0
-13 -24 -26 -79 -81 0
-14 -24 -27 -79 -81 0
-13 -25 -26 -79 -82 0
-14 -25 -27 -79 -82 0
-14 -26 -27 -79 -83 0
-12 -24 -25 -80 -81 0
-13 -24 -26 -80 -81 0
-14 -24 -27 -80 -81 0
-13 -25 -26 -80 -82 0
-14 -25 -27 -80 -82 0
-14 -26 -27 -80 -83 0
-13 -25 -26 -81 -82 0
-14 -25 -27 -81 -82 0
-14 -26 -27 -81 -83 0
-14 -26 -27 -82 -83 0
-11 -23 -24 -85 -86 0
-12 -23 -25 -85 -86 0
-13 -23 -26 -85 -86 0
-14 -23 -27 -85 -86 0
-12 -24 -25 -85 -87 0
-13 -24 -26 -85 -87 0
-14 -24 -27 -85 -87 0
-13 -25 -26 -85 -88 0
-14 -25 -27 -85 -88 0
-14 -26 -27 -85 -89 0
-12 -24 -25 -86 -87 0
-13 -24 -26 -86 -87 0
-14 -24 -27 -86 -87 0
-13 -25 -26 -86 -88 0
-14 -25 -27 -86 -88 0
-14 -26 -27 -86 -89 0
-13 -25 -26 -87 -88 0
-14 -25 -27 -87 -88 0
-14 -26 -27 -87 -89 0
-14 -26 -27 -88 -89 0
-12 -24 -25 -91 -92 0
-13 -24 -26 -91 -92 0
-14 -24 -27 -91 -92 0
-13 -25 -26 -91 -93 0
-14 -25 -27 -91 -93 0
-14 -26 -27 -91 -94 0
-13 -25 -26 -92 -93 0
-14 -25 -27 -92 -93 0
-14 -26 -27 -92 -94 0
-14 -26 -27 -93 -94 0
-13 -25 -26 -96 -97 0
-14 -25 -27 -96 -97 0
-14 -26 -27 -96 -98 0
-14 -26 -27 -97 -98 0
-14 -26 -27 -100 -101 0
-6 -30 -31 -40 -41 0
-7 -30 -32 -40 -41 0
-8 -30 -33 -40 -41 0
-9 -30 -34 -40 -41 0
-10 -30 -35 -40 -41 0
-11 -30 -36 -40 -41 0
-12 -30 -37 -40 -41 0
-13 -30 -38 -40 -41 0
-14 -30 -39 -40 -41 0
-7 -31 -32 -40 -42 0
-8 -31 -33 -40 -42 0
-9 -31 -34 -40 -42 0
-10 -31 -35 -40 -42 0
-11 -31 -36 -40 -42 0
-12 -31 -37 -40 -42 0
-13 -31 -38 -40 -42 0
-14 -31 -39 -40 -42 0
-8 -32 -33 -40 -43 0
-9 -32 -34 -40 -43 0
-10 -32 -35 -40 -43 0
-11 -32 -36 -40 -43 0
-12 -32 -37 -40 -43 0
-13 -32 -38 -40 -43 0
-14 -32 -39 -40 -43 0
-9 -33 -34 -40 -44 0
-10 -33 -35 -40 -44 0
-11 -33 -36 -40 -44 0
-12 -33 -37 -40 -44 0
-13 -33 -38 -40 -44 0
-14 -33 -39 -40 -44 0
-10 -34 -35 -40 -45 0
-11 -34 -36 -40 -45 0
-12 -34 -37 -40 -45 0
-13 -34 -38 -40 -45 0
-14 -34 -39 -40 -45 0
-11 -35 -36 -40 -46 0
-12 -35 -37 -40 -46 0
-13 -35 -38 -40 -46 0
-14 -35 -39 -40 -46 0
-12 -36 -37 -40 -47 0
-13 -36 -38 -40 -47 0
-14 -36 -39 -40 -47 0
-13 -37 -38 -40 -48 0
-14 -37 -39 -40 -48 0
-14 -38 -39 -40 -49 0
-7 -31 -32 -41 -42 0
-8 -31 -33 -41 -42 0
-9 -31 -34 -41 -42 0
-10 -31 -35 -41 -42 0
-11 -31 -36 -41 -42 0
-12 -31 -37 -41 -42 0
-13 -31 -38 -41 -42 0
-14 -31 -39 -41 -42 0
-8 -32 -33 -41 -43 0
-9 -32 -34 -41 -43 0
-10 -32 -35 -41 -43 0
-11 -32 -36 -41 -43 0
-12 -32 -37 -41 -43 0
-13 -32 -38 -41 -43 0
-14 -32 -39 -41 -43 0
-9 -33 -34 -41 -44 0
-10 -33 -35 -41 -44 0
-11 -33 -36 -41 -44 0
-12 -33 -37 -41 -44 0
-13 -33 -38 -41 -44 0
-14 -33 -39 -41 -44 0
-10 -34 -35 -41 -45 0
-11 -34 -36 -41 -45 0
-12 -34 -37 -41 -45 0
-13 -34 -38 -41 -45 0
-14 -34 -39 -41 -45 0
-11 -35 -36 -41 -46 0
-12 -35 -37 -41 -46 0
-13 -35 -38 -41 -46 0
-14 -35 -39 -41 -46 0
-12 -36 -37 -41 -47 0
-13 -36 -38 -41 -47 0
-14 -36 -39 -41 -47 0
-13 -37 -38 -41 -48 0
-14 -37 -39 -41 -48 0
-14 -38 -39 -41 -49 0
-8 -32 -33 -42 -43 0
-9 -32 -34 -42 -43 0
-10 -32 -35 -42 -43 0
-11 -32 -36 -42 -43 0
-12 -32 -37 -42 -43 0
-13 -32 -38 -42 -43 0
-14 -32 -39 -42 -43 0
-9 -33 -34 -42 -44 0
-10 -33 -35 -42 -44 0
-11 -33 -36 -42 -44 0
-12 -33 -37 -42 -44 0
-13 -33 -38 -42 -44 0
-14 -33 -39 -42 -44 0
-10 -34 -35 -42 -45 0
-11 -34 -36 -42 -45 0
-12 -34 -37 -42 -45 0
-13 -34 -38 -42 -45 0
-14 -34 -39 -42 -45 0
-11 -35 -36 -42 -46 0
-12 -35 -37 -42 -46 0
-13 -35 -38 -42 -46 0
-14 -35 -39 -42 -46 0
-12 -36 -37 -42 -47 0
-13 -36 -38 -42 -47 0
-14 -36 -39 -42 -47 0
-13 -37 -38 -42 -48 0
-14 -37 -39 -42 -48 0
-14 -38 -39 -42 -49 0
-9 -33 -34 -43 -44 0
-10 -33 -35 -43 -44 0
-11 -33 -36 -43 -44 0
-12 -33 -37 -43 -44 0
-13 -33 -38 -43 -44 0
-14 -33 -39 -43 -44 0
-10 -34 -35 -43 -45 0
-11 -34 -36 -43 -45 0
-12 -34 -37 -43 -45 0
-13 -34 -38 -43 -45 0
-14 -34 -39 -43 -45 0
-11 -35 -36 -43 -46 0
-12 -35 -37 -43 -46 0
-13 -35 -38 -43 -46 0
-14 -35 -39 -43 -46 0
-12 -36 -37 -43 -47 0
-13 -36 -38 -43 -47 0
-14 -36 -39 -43 -47 0
-13 -37 -38 -43 -48 0
-14 -37 -39 -43 -48 0
-14 -38 -39 -43 -49 0
-10 -34 -35 -44 -45 0
-11 -34 -36 -44 -45 0
-12 -34 -37 -44 -45 0
-13 -34 -38 -44 -45 0
-14 -34 -39 -44 -45 0
-11 -35 -36 -44 -46 0
-12 -35 -37 -44 -46 0
-13 -35 -38 -44 -46 0
-14 -35 -39 -44 -46 0
-12 -36 -37 -44 -47 0
-13 -36 -38 -44 -47 0
-14 -36 -39 -44 -47 0
-13 -37 -38 -44 -48 0
-14 -37 -39 -44 -48 0
-14 -38 -39 -44 -49 0
-11 -35 -36 -45 -46 0
-12 -35 -37 -45 -46 0
-13 -35 -38 -45 -46 0
-14 -35 -39 -45 -46 0
-12 -36 -37 -45 -47 0
-13 -36 -38 -45 -47 0
-14 -36 -39 -45 -47 0
-13 -37 -38 -45 -48 0
-14 -37 -39 -45 -48 0
-14 -38 -39 -45 -49 0
-12 -36 -37 -46 -47 0
-13 -36 -38 -46 -47 0
-14 -36 -39 -46 -47 0
-13 -37 -38 -46 -48 0
-14 -37 -39 -46 -48 0
-14 -38 -39 -46 -49 0
-13 -37 -38 -47 -48 0
-14 -37 -39 -47 -48 0
-14 -38 -39 -47 -49 0
-14 -38 -39 -48 -49 0
-7 -31 -32 -51 -52 0
-8 -31 -33 -51 -52 0
-9 -31 -34 -51 -52 0
-10 -31 -35 -51 -52 0
-11 -31 -36 -51 -52 0
-12 -31 -37 -51 -52 0
-13 -31 -38 -51 -52 0
-14 -31 -39 -51 -52 0
-8 -32 -33 -51 -53 0
-9 -32 -34 -51 -53 0
-10 -32 -35 -51 -53 0
-11 -32 -36 -51 -53 0
-12 -32 -37 -51 -53 0
-13 -32 -38 -51 -53 0
-14 -32 -39 -51 -53 0
-9 -33 -34 -51 -54 0
-10 -33 -35 -51 -54 0
-11 -33 -36 -51 -54 0
-12 -33 -37 -51 -54 0
-13 -33 -38 -51 -54 0
-14 -33 -39 -51 -54 0
-10 -34 -35 -51 -55 0
-11 -34 -36 -51 -55 0
-12 -34 -37 -51 -55 0
-13 -34 -38 -51 -55 0
-14 -34 -39 -51 -55 0
-11 -35 -36 -51 -56 0
-12 -35 -37 -51 -56 0
-13 -35 -38 -51 -56 0
-14 -35 -39 -51 -56 0
-12 -36 -37 -51 -57 0
-13 -36 -38 -51 -57 0
-14 -36 -39 -51 -57 0
-13 -37 -38 -51 -58 0
-14 -37 -39 -51 -58 0
-14 -38 -39 -51 -59 0
-8 -32 -33 -52 -53 0
-9 -32 -34 -52 -53 0
-10 -32 -35 -52 -53 0
-11 -32 -36 -52 -53 0
-12 -32 -37 -52 -53 0
-13 -32 -38 -52 -53 0
-14 -32 -39 -52 -53 0
-9 -33 -34 -52 -54 0
-10 -33 -35 -52 -54 0
-11 -33 -36 -52 -54 0
-12 -33 -37 -52 -54 0
-13 -33 -38 -52 -54 0
-14 -33 -39 -52 -54 0
-10 -34 -35 -52 -55 0
-11 -34 -36 -52 -55 0
-12 -34 -37 -52 -55 0
-13 -34 -38 -52 -55 0
-14 -34 -39 -52 -55 0
-11 -35 -36 -52 -56 0
-12 -35 -37 -52 -56 0
-13 -35 -38 -52 -56 0
-14 -35 -39 -52 -56 0
-12 -36 -37 -52 -57 0
-13 -36 -38 -52 -57 0
-14 -36 -39 -52 -57 0
-13 -37 -38 -52 -58 0
-14 -37 -39 -52 -58 0
-14 -38 -39 -52 -59 0
-9 -33 -34 -53 -54 0
-10 -33 -35 -53 -54 0
-11 -33 -36 -53 -54 0
-12 -33 -37 -53 -54 0
-13 -33 -38 -53 -54 0
-14 -33 -39 -53 -54 0
-10 -34 -35 -53 -55 0
-11 -34 -36 -53 -55 0
-12 -34 -37 -53 -55 0
-13 -34 -38 -53 -55 0
-14 -34 -39 -53 -55 0
-11 -35 -36 -53 -56 0
-12 -35 -37 -53 -56 0
-13 -35 -38 -53 -56 0
-14 -35 -39 -53 -56 0
-12 -36 -37 -53 -57 0
-13 -36 -38 -53 -57 0
-14 -36 -39 -53 -57 0
-13 -37 -38 -53 -58 0
-14 -37 -39 -53 -58 0
-14 -38 -39 -53 -59 0
-10 -34 -35 -54 -55 0
-11 -34 -36 -54 -55 0
-12 -34 -37 -54 -55 0
-13 -34 -38 -54 -55 0
-14 -34 -39 -54 -55 0
-11 -35 -36 -54 -56 0
-12 -35 -37 -54 -56 0
-13 -35 -38 -54 -56 0
-14 -35 -39 -54 -56 0
-12 -36 -37 -54 -57 0
-13 -36 -38 -54 -57 0
-14 -36 -39 -54 -57 0
-13 -37 -38 -54 -58 0
-14 -37 -39 -54 -58 0
-14 -38 -39 -54 -59 0
-11 -35 -36 -55 -56 0
-12 -35 -37 -55 -56 0
-13 -35 -38 -55 -56 0
-14 -35 -39 -55 -56 0
-12 -36 -37 -55 -57 0
-13 -36 -38 -55 -57 0
-14 -36 -39 -55 -57 0
-13 -37 -38 -55 -58 0
-14 -37 -39 -55 -58 0
-14 -38 -39 -55 -59 0
-12 -36 -37 -56 -57 0
-13 -36 -38 -56 -57 0
-14 -36 -39 -56 -57 0
-13 -37 -38 -56 -58 0
-14 -37 -39 -56 -58 0
-14 -38 -39 -56 -59 0
-13 -37 -38 -57 -58 0
-14 -37 -39 -57 -58 0
-14 -38 -39 -57 -59 0
-14 -38 -39 -58 -59 0
-8 -32 -33 -61 -62 0
-9 -32 -34 -61 -62 0
-10 -32 -35 -61 -62 0
-11 -32 -36 -61 -62 0
-12 -32 -37 -61 -62 0
-13 -32 -38 -61 -62 0
-14 -32 -39 -61 -62 0
-9 -33 -34 -61 -63 0
-10 -33 -35 -61 -63 0
-11 -33 -36 -61 -63 0
-12 -33 -37 -61 -63 0
-13 -33 -38 -61 -63 0
-14 -33 -39 -61 -63 0
-10 -34 -35 -61 -64 0
-11 -34 -36 -61 -64 0
-12 -34 -37 -61 -64 0
-13 -34 -38 -61 -64 0
-14 -34 -39 -61 -64 0
-11 -35 -36 -61 -65 0
-12 -35 -37 -61 -65 0
-13 -35 -38 -61 -65 0
-14 -35 -39 -61 -65 0
-12 -36 -37 -61 -66 0
-13 -36 -38 -61 -66 0
-14 -36 -39 -61 -66 0
-13 -37 -38 -61 -67 0
-14 -37 -39 -61 -67 0
-14 -38 -39 -61 -68 0
-9 -33 -34 -62 -63 0
-10 -33 -35 -62 -63 0
-11 -33 -36 -62 -63 0
-12 -33 -37 -62 -63 0
-13 -33 -38 -62 -63 0
-14 -33 -39 -62 -63 0
-10 -34 -35 -62 -64 0
-11 -34 -36 -62 -64 0
-12 -34 -37 -62 -64 0
-13 -34 -38 -62 -64 0
-14 -34 -39 -62 -64 0
-11 -35 -36 -62 -65 0
-12 -35 -37 -62 -65 0
-13 -35 -38 -62 -65 0
-14 -35 -39 -62 -65 0
-12 -36 -37 -62 -66 0
-13 -36 -38 -62 -66 0
-14 -36 -39 -62 -66 0
-13 -37 -38 -62 -67 0
-14 -37 -39 -62 -67 0
-14 -38 -39 -62 -68 0
-10 -34 -35 -63 -64 0
-11 -34 -36 -63 -64 0
-12 -34 -37 -63 -64 0
-13 -34 -38 -63 -64 0
-14 -34 -39 -63 -64 0
-11 -35 -36 -63 -65 0
-12 -35 -37 -63 -65 0
-13 -35 -38 -63 -65 0
-14 -35 -39 -63 -65 0
-12 -36 -37 -63 -66 0
-13 -36 -38 -63 -66 0
-14 -36 -39 -63 -66 0
-13 -37 -38 -63 -67 0
-14 -37 -39 -63 -67 0
-14 -38 -39 -63 -68 0
-11 -35 -36 -64 -65 0
-12 -35 -37 -64 -65 0
-13 -35 -38 -64 -65 0
-14 -35 -39 -64 -65 0
-12 -36 -37 -64 -66 0
-13 -36 -38 -64 -66 0
-14 -36 -39 -64 -66 0
-13 -37 -38 -64 -67 0
-14 -37 -39 -64 -67 0
-14 -38 -39 -64 -68 0
-12 -36 -37 -65 -66 0
-13 -36 -38 -65 -66 0
-14 -36 -39 -65 -66 0
-13 -37 -38 -65 -67 0
-14 -37 -39 -65 -67 0
-14 -38 -39 -65 -68 0
-13 -37 -38 -66 -67 0
-14 -37 -39 -66 -67 0
-14 -38 -39 -66 -68 0
-14 -38 -39 -67 -68 0
-9 -33 -34 -70 -71 0
-10 -33 -35 -70 -71 0
-11 -33 -36 -70 -71 0
-12 -33 -37 -70 -71 0
-13 -33 -38 -70 -71 0
-14 -33 -39 -70 -71 0
-10 -34 -35 -70 -72 0
-11 -34 -36 -70 -72 0
-12 -34 -37 -70 -72 0
-13 -34 -38 -70 -72 0
-14 -34 -39 -70 -72 0
-11 -35 -36 -70 -73 0
-12 -35 -37 -70 -73 0
-13 -35 -38 -70 -73 0
-14 -35 -39 -70 -73 0
-12 -36 -37 -70 -74 0
-13 -36 -38 -70 -74 0
-14 -36 -39 -70 -74 0
-13 -37 -38 -70 -75 0
-14 -37 -39 -70 -75 0
-14 -38 -39 -70 -76 0
-10 -34 -35 -71 -72 0
-11 -34 -36 -71 -72 0
-12 -34 -37 -71 -72 0
-13 -34 -38 -71 -72 0
-14 -34 -39 -71 -72 0
-11 -35 -36 -71 -73 0
-12 -35 -37 -71 -73 0
-13 -35 -38 -71 -73 0
-14 -35 -39 -71 -73 0
-12 -36 -37 -71 -74 0
-13 -36 -38 -71 -74 0
-14 -36 -39 -71 -74 0
-13 -37 -38 -71 -75 0
-14 -37 -39 -71 -75 0
-14 -38 -39 -71 -76 0
-11 -35 -36 -72 -73 0
-12 -35 -37 -72 -73 0
-13 -35 -38 -72 -73 0
-14 -35 -39 -72 -73 0
-12 -36 -37 -72 -74 0
-13 -36 -38 -72 -74 0
-14 -36 -39 -72 -74 0
-13 -37 -38 -72 -75 0
-14 -37 -39 -72 -75 0
-14 -38 -39 -72 -76 0
-12 -36 -37 -73 -74 0
-13 -36 -38 -73 -74 0
-14 -36 -39 -73 -74 0
-13 -37 -38 -73 -75 0
-14 -37 -39 -73 -75 0
-14 -38 -39 -73 -76 0
-13 -37 -38 -74 -75 0
-14 -37 -39 -74 -75 0
-14 -38 -39 -74 -76 0
-14 -38 -39 -75 -76 0
-10 -34 -35 -78 -79 0
-11 -34 -36 -78 -79 0
-12 -34 -37 -78 -79 0
-13 -34 -38 -78 -79 0
-14 -34 -39 -78 -79 0
-11 -35 -36 -78 -80 0
-12 -35 -37 -78 -80 0
-13 -35 -38 -78 -80 0
-14 -35 -39 -78 -80 0
-12 -36 -37 -78 -81 0
-13 -36 -38 -78 -81 0
-14 -36 -39 -78 -81 0
-13 -37 -38 -78 -82 0
-14 -37 -39 -78 -82 0
-14 -38 -39 -78 -83 0
-11 -35 -36 -79 -80 0
-12 -35 -37 -79 -80 0
-13 -35 -38 -79 -80 0
-14 -35 -39 -79 -80 0
-12 -36 -37 -79 -81 0
-13 -36 -38 -79 -81 0
-14 -36 -39 -79 -81 0
-13 -37 -38 -79 -82 0
-14 -37 -39 -79 -82 0
-14 -38 -39 -79 -83 0
-12 -36 -37 -80 -81 0
-13 -36 -38 -80 -81 0
-14 -36 -39 -80 -81 0
-13 -37 -38 -80 -82 0
-14 -37 -39 -80 -82 0
-14 -38 -39 -80 -83 0
-13 -37 -38 -81 -82 0
-14 -37 -39 -81 -82 0
-14 -38 -39 -81 -83 0
-14 -38 -39 -82 -83 0
-11 -35 -36 -85 -86 0
-12 -35 -37 -85 -86 0
-13 -35 -38 -85 -86 0
-14 -35 -39 -85 -86 0
-12 -36 -37 -85 -87 0
-13 -36 -38 -85 -87 0
-14 -36 -39 -85 -87 0
-13 -37 -38 -85 -88 0
-14 -37 -39 -85 -88 0
-14 -38 -39 -85 -89 0
-12 -36 -37 -86 -87 0
-13 -36 -38 -86 -87 0
-14 -36 -39 -86 -87 0
-13 -37 -38 -86 -88 0
-14 -37 -39 -86 -88 0
-14 -38 -39 -86 -89 0
-13 -37 -38 -87 -88 0
-14 -37 -39 -87 -88 0
-14 -38 -39 -87 -89 0
-14 -38 -39 -88 -89 0
-12 -36 -37 -91 -92 0
-13 -36 -38 -91 -92 0
-14 -36 -39 -91 -92 0
-13 -37 -38 -91 -93 0
-14 -37 -39 -91 -93 0
-14 -38 -39 -91 -94 0
-13 -37 -38 -92 -93 0
-14 -37 -39 -92 -93 0
-14 -38 -39 -92 -94 0
-14 -38 -39 -93 -94 0
-13 -37 -38 -96 -97 0
-14 -37 -39 -96 -97 0
-14 -38 -39 -96 -98 0
-14 -38 -39 -97 -98 0
-14 -38 -39 -100 -101 0
-7 -42 -43 -51 -52 0
-8 -42 -44 -51 -52 0
-9 -42 -45 -51 -52 0
-10 -42 -46 -51 -52 0
-11 -42 -47 -51 -52 0
-12 -42 -48 -51 -52 0
-13 -42 -49 -51 -52 0
-14 -42 -50 -51 -52 0
-8 -43 -44 -51 -53 0
-9 -43 -45 -51 -53 0
-10 -43 -46 -51 -53 0
-11 -43 -47 -51 -53 0
-12 -43 -48 -51 -53 0
-13 -43 -49 -51 -53 0
-14 -43 -50 -51 -53 0
-9 -44 -45 -51 -54 0
-10 -44 -46 -51 -54 0
-11 -44 -47 -51 -54 0
-12 -44 -48 -51 -54 0
-13 -44 -49 -51 -54 0
-14 -44 -50 -51 -54 0
-10 -45 -46 -51 -55 0
-11 -45 -47 -51 -55 0
-12 -45 -48 -51 -55 0
-13 -45 -49 -51 -55 0
-14 -45 -50 -51 -55 0
-11 -46 -47 -51 -56 0
-12 -46 -48 -51 -56 0
-13 -46 -49 -51 -56 0
-14 -46 -50 -51 -56 0
-12 -47 -48 -51 -57 0
-13 -47 -49 -51 -57 0
-14 -47 -50 -51 -57 0
-13 -48 -49 -51 -58 0
-14 -48 -50 -51 -58 0
-14 -49 -50 -51 -59 0
-8 -43 -44 -52 -53 0
-9 -43 -45 -52 -53 0
-10 -43 -46 -52 -53 0
-11 -43 -47 -52 -53 0
-12 -43 -48 -52 -53 0
-13 -43 -49 -52 -53 0
-14 -43 -50 -52 -53 0
-9 -44 -45 -52 -54 0
-10 -44 -46 -52 -54 0
-11 -44 -47 -52 -54 0
-12 -44 -48 -52 -54 0
-13 -44 -49 -52 -54 0
-14 -44 -50 -52 -54 0
-10 -45 -46 -52 -55 0
-11 -45 -47 -52 -55 0
-12 -45 -48 -52 -55 0
-13 -45 -49 -52 -55 0
-14 -45 -50 -52 -55 0
-11 -46 -47 -52 -56 0
-12 -46 -48 -52 -56 0
-13 -46 -49 -52 -56 0
-14 -46 -50 -52 -56 0
-12 -47 -48 -52 -57 0
-13 -47 -49 -52 -57 0
-14 -47 -50 -52 -57 0
-13 -48 -49 -52 -58 0
-14 -48 -50 -52 -58 0
-14 -49 -50 -52 -59 0
-9 -44 -45 -53 -54 0
-10 -44 -46 -53 -54 0
-11 -44 -47 -53 -54 0
-12 -44 -48 -53 -54 0
-13 -44 -49 -53 -54 0
-14 -44 -50 -53 -54 0
-10 -45 -46 -53 -55 0
-11 -45 -47 -53 -55 0
-12 -45 -48 -53 -55 0
-13 -45 -49 -53 -55 0
-14 -45 -50 -53 -55 0
-11 -46 -47 -53 -56 0
-12 -46 -48 -53 -56 0
-13 -46 -49 -53 -56 0
-14 -46 -50 -53 -56 0
-12 -47 -48 -53 -57 0
-13 -47 -49 -53 -57 0
-14 -47 -50 -53 -57 0
-13 -48 -49 -53 -58 0
-14 -48 -50 -53 -58 0
-14 -49 -50 -53 -59 0
-10 -45 -46 -54 -55 0
-11 -45 -47 -54 -55 0
-12 -45 -48 -54 -55 0
-13 -45 -49 -54 -55 0
-14 -45 -50 -54 -55 0
-11 -46 -47 -54 -56 0
-12 -46 -48 -54 -56 0
-13 -46 -49 -54 -56 0
-14 -46 -50 -54 -56 0
-12 -47 -48 -54 -57 0
-13 -47 -49 -54 -57 0
-14 -47 -50 -54 -57 0
-13 -48 -49 -54 -58 0
-14 -48 -50 -54 -58 0
-14 -49 -50 -54 -59 0
-11 -46 -47 -55 -56 0
-12 -46 -48 -55 -56 0
-13 -46 -49 -55 -56 0
-14 -46 -50 -55 -56 0
-12 -47 -48 -55 -57 0
-13 -47 -49 -55 -57 0
-14 -47 -50 -55 -57 0
-13 -48 -49 -55 -58 0
-14 -48 -50 -55 -58 0
-14 -49 -50 -55 -59 0
-12 -47 -48 -56 -57 0
-13 -47 -49 -56 -57 0
-14 -47 -50 -56 -57 0
-13 -48 -49 -56 -58 0
-14 -48 -50 -56 -58 0
-14 -49 -50 -56 -59 0
-13 -48 -49 -57 -58 0
-14 -48 -50 -57 -58 0
-14 -49 -50 -57 -59 0
-14 -49 -50 -58 -59 0
-8 -43 -44 -61 -62 0
-9 -43 -45 -61 -62 0
-10 -43 -46 -61 -62 0
-11 -43 -47 -61 -62 0
-12 -43 -48 -61 -62 0
-13 -43 -49 -61 -62 0
-14 -43 -50 -61 -62 0
-9 -44 -45 -61 -63 0
-10 -44 -46 -61 -63 0
-11 -44 -47 -61 -63 0
-12 -44 -48 -61 -63 0
-13 -44 -49 -61 -63 0
-14 -44 -50 -61 -63 0
-10 -45 -46 -61 -64 0
-11 -45 -47 -61 -64 0
-12 -45 -48 -61 -64 0
-13 -45 -49 -61 -64 0
-14 -45 -50 -61 -64 0
-11 -46 -47 -61 -65 0
-12 -46 -48 -61 -65 0
-13 -46 -49 -61 -65 0
-14 -46 -50 -61 -65 0
-12 -47 -48 -61 -66 0
-13 -47 -49 -61 -66 0
-14 -47 -50 -61 -66 0
-13 -48 -49 -61 -67 0
-14 -48 -50 -61 -67 0
-14 -49 -50 -61 -68 0
-9 -44 -45 -62 -63 0
-10 -44 -46 -62 -63 0
-11 -44 -47 -62 -63 0
-12 -44 -48 -62 -63 0
-13 -44 -49 -62 -63 0
-14 -44 -50 -62 -63 0
-10 -45 -46 -62 -64 0
-11 -45 -47 -62 -64 0
-12 -45 -48 -62 -64 0
-13 -45 -49 -62 -64 0
-14 -45 -50 -62 -64 0
-11 -46 -47 -62 -65 0
-12 -46 -48 -62 -65 0
-13 -46 -49 -62 -65 0
-14 -46 -50 -62 -65 0
-12 -47 -48 -62 -66 0
-13 -47 -49 -62 -66 0
-14 -47 -50 -62 -66 0
-13 -48 -49 -62 -67 0
-14 -48 -50 -62 -67 0
-14 -49 -50 -62 -68 0
-10 -45 -46 -63 -64 0
-11 -45 -47 -63 -64 0
-12 -45 -48 -63 -64 0
-13 -45 -49 -63 -64 0
-14 -45 -50 -63 -64 0
-11 -46 -47 -63 -65 0
-12 -46 -48 -63 -65 0
-13 -46 -49 -63 -65 0
-14 -46 -50 -63 -65 0
-12 -47 -48 -63 -66 0
-13 -47 -49 -63 -66 0
-14 -47 -50 -63 -66 0
-13 -48 -49 -63 -67 0
-14 -48 -50 -63 -67 0
-14 -49 -50 -63 -68 0
-11 -46 -47 -64 -65 0
-12 -46 -48 -64 -65 0
-13 -46 -49 -64 -65 0
-14 -46 -50 -64 -65 0
-12 -47 -48 -64 -66 0
-13 -47 -49 -64 -66 0
-14 -47 -50 -64 -66 0
-13 -48 -49 -64 -67 0
-14 -48 -50 -64 -67 0
-14 -49 -50 -64 -68 0
-12 -47 -48 -65 -66 0
-13 -47 -49 -65 -66 0
-14 -47 -50 -65 -66 0
-13 -48 -49 -65 -67 0
-14 -48 -50 -65 -67 0
-14 -49 -50 -65 -68 0
-13 -48 -49 -66 -67 0
-14 -48 -50 -66 -67 0
-14 -49 -50 -66 -68 0
-14 -49 -50 -67 -68 0
-9 -44 -45 -70 -71 0
-10 -44 -46 -70 -71 0
-11 -44 -47 -70 -71 0
-12 -44 -48 -70 -71 0
-13 -44 -49 -70 -71 0
-14 -44 -50 -70 -71 0
-10 -45 -46 -70 -72 0
-11 -45 -47 -70 -72 0
-12 -45 -48 -70 -72 0
-13 -45 -49 -70 -72 0
-14 -45 -50 -70 -72 0
-11 -46 -47 -70 -73 0
-12 -46 -48 -70 -73 0
-13 -46 -49 -70 -73 0
-14 -46 -50 -70 -73 0
-12 -47 -48 -70 -74 0
-13 -47 -49 -70 -74 0
-14 -47 -50 -70 -74 0
-13 -48 -49 -70 -75 0
-14 -48 -50 -70 -75 0
-14 -49 -50 -70 -76 0
-10 -45 -46 -71 -72 0
-11 -45 -47 -71 -72 0
-12 -45 -48 -71 -72 0
-13 -45 -49 -71 -72 0
-14 -45 -50 -71 -72 0
-11 -46 -47 -71 -73 0
-12 -46 -48 -71 -73 0
-13 -46 -49 -71 -73 0
-14 -46 -50 -71 -73 0
-12 -47 -48 -71 -74 0
-13 -47 -49 -71 -74 0
-14 -47 -50 -71 -74 0
-13 -48 -49 -71 -75 0
-14 -48 -50 -71 -75 0
-14 -49 -50 -71 -76 0
-11 -46 -47 -72 -73 0
-12 -46 -48 -72 -73 0
-13 -46 -49 -72 -73 0
-14 -46 -50 -72 -73 0
-12 -47 -48 -72 -74 0
-13 -47 -49 -72 -74 0
-14 -47 -50 -72 -74 0
-13 -48 -49 -72 -75 0
-14 -48 -50 -72 -75 0
-14 -49 -50 -72 -76 0
-12 -47 -48 -73 -74 0
-13 -47 -49 -73 -74 0
-14 -47 -50 -73 -74 0
-13 -48 -49 -73 -75 0
-14 -48 -50 -73 -75 0
-14 -49 -50 -73 -76 0
-13 -48 -49 -74 -75 0
-14 -48 -50 -74 -75 0
-14 -49 -50 -74 -76 0
-14 -49 -50 -75 -76 0
-10 -45 -46 -78 -79 0
-11 -45 -47 -78 -79 0
-12 -45 -48 -78 -79 0
-13 -45 -49 -78 -79 0
-14 -45 -50 -78 -79 0
-11 -46 -47 -78 -80 0
-12 -46 -48 -78 -80 0
-13 -46 -49 -78 -80 0
-14 -46 -50 -78 -80 0
-12 -47 -48 -78 -81 0
-13 -47 -49 -78 -81 0
-14 -47 -50 -78 -81 0
-13 -48 -49 -78 -82 0
-14 -48 -50 -78 -82 0
-14 -49 -50 -78 -83 0
-11 -46 -47 -79 -80 0
-12 -46 -48 -79 -80 0
-13 -46 -49 -79 -80 0
-14 -46 -50 -79 -80 0
-12 -47 -48 -79 -81 0
-13 -47 -49 -79 -81 0
-14 -47 -50 -79 -81 0
-13 -48 -49 -79 -82 0
-14 -48 -50 -79 -82 0
-14 -49 -50 -79 -83 0
-12 -47 -48 -80 -81 0
-13 -47 -49 -80 -81 0
-14 -47 -50 -80 -81 0
-13 -48 -49 -80 -82 0
-14 -48 -50 -80 -82 0
-14 -49 -50 -80 -83 0
-13 -48 -49 -81 -82 0
-14 -48 -50 -81 -82 0
-14 -49 -50 -81 -83 0
-14 -49 -50 -82 -83 0
-11 -46 -47 -85 -86 0
-12 -46 -48 -85 -86 0
-13 -46 -49 -85 -86 0
-14 -46 -50 -85 -86 0
-12 -47 -48 -85 -87 0
-13 -47 -49 -85 -87 0
-14 -47 -50 -85 -87 0
-13 -48 -49 -85 -88 0
-14 -48 -50 -85 -88 0
-14 -49 -50 -85 -89 0
-12 -47 -48 -86 -87 0
-13 -47 -49 -86 -87 0
-14 -47 -50 -86 -87 0
-13 -48 -49 -86 -88 0
-14 -48 -50 -86 -88 0
-14 -49 -50 -86 -89 0
-13 -48 -49 -87 -88 0
-14 -48 -50 -87 -88 0
-14 -49 -50 -87 -89 0
-14 -49 -50 -88 -89 0
-12 -47 -48 -91 -92 0
-13 -47 -49 -91 -92 0
-14 -47 -50 -91 -92 0
-13 -48 -49 -91 -93 0
-14 -48 -50 -91 -93 0
-14 -49 -50 -91 -94 0
-13 -48 -49 -92 -93 0
-14 -48 -50 -92 -93 0
-14 -49 -50 -92 -94 0
-14 -49 -50 -93 -94 0
-13 -48 -49 -96 -97 0
-14 -48 -50 -96 -97 0
-14 -49 -50 -96 -98 0
-14 -49 -50 -97 -98 0
-14 -49 -50 -100 -101 0
-8 -53 -54 -61 -62 0
-9 -53 -55 -61 -62 0
-10 -53 -56 -61 -62 0
-11 -53 -57 -61 -62 0
-12 -53 -58 -61 -62 0
-13 -53 -59 -61 -62 0
-14 -53 -60 -61 -62 0
-9 -54 -55 -61 -63 0
-10 -54 -56 -61 -63 0
-11 -54 -57 -61 -63 0
-12 -54 -58 -61 -63 0
-13 -54 -59 -61 -63 0
-14 -54 -60 -61 -63 0
-10 -55 -56 -61 -64 0
-11 -55 -57 -61 -64 0
-12 -55 -58 -61 -64 0
-13 -55 -59 -61 -64 0
-14 -55 -60 -61 -64 0
-11 -56 -57 -61 -65 0
-12 -56 -58 -61 -65 0
-13 -56 -59 -61 -65 0
-14 -56 -60 -61 -65 0
-12 -57 -58 -61 -66 0
-13 -57 -59 -61 -66 0
-14 -57 -60 -61 -66 0
-13 -58 -59 -61 -67 0
-14 -58 -60 -61 -67 0
-14 -59 -60 -61 -68 0
-9 -54 -55 -62 -63 0
-10 -54 -56 -62 -63 0
-11 -54 -57 -62 -63 0
-12 -54 -58 -62 -63 0
-13 -54 -59 -62 -63 0
-14 -54 -60 -62 -63 0
-10 -55 -56 -62 -64 0
-11 -55 -57 -62 -64 0
-12 -55 -58 -62 -64 0
-13 -55 -59 -62 -64 0
-14 -55 -60 -62 -64 0
-11 -56 -57 -62 -65 0
-12 -56 -58 -62 -65 0
-13 -56 -59 -62 -65 0
-14 -56 -60 -62 -65 0
-12 -57 -58 -62 -66 0
-13 -57 -59 -62 -66 0
-14 -57 -60 -62 -66 0
-13 -58 -59 -62 -67 0
-14 -58 -60 -62 -67 0
-14 -59 -60 -62 -68 0
-10 -55 -56 -63 -64 0
-11 -55 -57 -63 -64 0
-12 -55 -58 -63 -64 0
-13 -55 -59 -63 -64 0
-14 -55 -60 -63 -64 0
-11 -56 -57 -63 -65 0
-12 -56 -58 -63 -65 0
-13 -56 -59 -63 -65 0
-14 -56 -60 -63 -65 0
-12 -57 -58 -63 -66 0
-13 -57 -59 -63 -66 0
-14 -57 -60 -63 -66 0
-13 -58 -59 -63 -67 0
-14 -58 -60 -63 -67 0
-14 -59 -60 -63 -68 0
-11 -56 -57 -64 -65 0
-12 -56 -58 -64 -65 0
-13 -56 -59 -64 -65 0
-14 -56 -60 -64 -65 0
-12 -57 -58 -64 -66 0
-13 -57 -59 -64 -66 0
-14 -57 -60 -64 -66 0
-13 -58 -59 -64 -67 0
-14 -58 -60 -64 -67 0
-14 -59 -60 -64 -68 0
-12 -57 -58 -65 -66 0
-13 -57 -59 -65 -66 0
-14 -57 -60 -65 -66 0
-13 -58 -59 -65 -67 0
-14 -58 -60 -65 -67 0
-14 -59 -60 -65 -68 0
-13 -58 -59 -66 -67 0
-14 -58 -60 -66 -67 0
-14 -59 -60 -66 -68 0
-14 -59 -60 -67 -68 0
-9 -54 -55 -70 -71 0
-10 -54 -56 -70 -71 0
-11 -54 -57 -70 -71 0
-12 -54 -58 -70 -71 0
-13 -54 -59 -70 -71 0
-14 -54 -60 -70 -71 0
-10 -55 -56 -70 -72 0
-11 -55 -57 -70 -72 0
-12 -55 -58 -70 -72 0
-13 -55 -59 -70 -72 0
-14 -55 -60 -70 -72 0
-11 -56 -57 -70 -73 0
-12 -56 -58 -70 -73 0
-13 -56 -59 -70 -73 0
-14 -56 -60 -70 -73 0
-12 -57 -58 -70 -74 0
-13 -57 -59 -70 -74 0
-14 -57 -60 -70 -74 0
-13 -58 -59 -70 -75 0
-14 -58 -60 -70 -75 0
-14 -59 -60 -70 -76 0
-10 -55 -56 -71 -72 0
-11 -55 -57 -71 -72 0
-12 -55 -58 -71 -72 0
-13 -55 -59 -71 -72 0
-14 -55 -60 -71 -72 0
-11 -56 -57 -71 -73 0
-12 -56 -58 -71 -73 0
-13 -56 -59 -71 -73 0
-14 -56 -60 -71 -73 0
-12 -57 -58 -71 -74 0
-13 -57 -59 -71 -74 0
-14 -57 -60 -71 -74 0
-13 -58 -59 -71 -75 0
-14 -58 -60 -71 -75 0
-14 -59 -60 -71 -76 0
-11 -56 -57 -72 -73 0
-12 -56 -58 -72 -73 0
-13 -56 -59 -72 -73 0
-14 -56 -60 -72 -73 0
-12 -57 -58 -72 -74 0
-13 -57 -59 -72 -74 0
-14 -57 -60 -72 -74 0
-13 -58 -59 -72 -75 0
-14 -58 -60 -72 -75 0
-14 -59 -60 -72 -76 0
-12 -57 -58 -73 -74 0
-13 -57 -59 -73 -74 0
-14 -57 -60 -73 -74 0
-13 -58 -59 -73 -75 0
-14 -58 -60 -73 -75 0
-14 -59 -60 -73 -76 0
-13 -58 -59 -74 -75 0
-14 -58 -60 -74 -75 0
-14 -59 -60 -74 -76 0
-14 -59 -60 -75 -76 0
-10 -55 -56 -78 -79 0
-11 -55 -57 -78 -79 0
-12 -55 -58 -78 -79 0
-13 -55 -59 -78 -79 0
-14 -55 -60 -78 -79 0
-11 -56 -57 -78 -80 0
-12 -56 -58 -78 -80 0
-13 -56 -59 -78 -80 0
-14 -56 -60 -78 -80 0
-12 -57 -58 -78 -81 0
-13 -57 -59 -78 -81 0
-14 -57 -60 -78 -81 0
-13 -58 -59 -78 -82 0
-14 -58 -60 -78 -82 0
-14 -59 -60 -78 -83 0
-11 -56 -57 -79 -80 0
-12 -56 -58 -79 -80 0
-13 -56 -59 -79 -80 0
-14 -56 -60 -79 -80 0
-12 -57 -58 -79 -81 0
-13 -57 -59 -79 -81 0
-14 -57 -60 -79 -81 0
-13 -58 -59 -79 -82 0
-14 -58 -60 -79 -82 0
-14 -59 -60 -79 -83 0
-12 -57 -58 -80 -81 0
-13 -57 -59 -80 -81 0
-14 -57 -60 -80 -81 0
-13 -58 -59 -80 -82 0
-14 -58 -60 -80 -82 0
-14 -59 -60 -80 -83 0
-13 -58 -59 -81 -82 0
-14 -58 -60 -81 -82 0
-14 -59 -60 -81 -83 0
-14 -59 -60 -82 -83 0
-11 -56 -57 -85 -86 0
-12 -56 -58 -85 -86 0
-13 -56 -59 -85 -86 0
-14 -56 -60 -85 -86 0
-12 -57 -58 -85 -87 0
-13 -57 -59 -85 -87 0
-14 -57 -60 -85 -87 0
-13 -58 -59 -85 -88 0
-14 -58 -60 -85 -88 0
-14 -59 -60 -85 -89 0
-12 -57 -58 -86 -87 0
-13 -57 -59 -86 -87 0
-14 -57 -60 -86 -87 0
-13 -58 -59 -86 -88 0
-14 -58 -60 -86 -88 0
-14 -59 -60 -86 -89 0
-13 -58 -59 -87 -88 0
-14 -58 -60 -87 -88 0
-14 -59 -60 -87 -89 0
-14 -59 -60 -88 -89 0
-12 -57 -58 -91 -92 0
-13 -57 -59 -91 -92 0
-14 -57 -60 -91 -92 0
-13 -58 -59 -91 -93 0
-14 -58 -60 -91 -93 0
-14 -59 -60 -91 -94 0
-13 -58 -59 -92 -93 0
-14 -58 -60 -92 -93 0
-14 -59 -60 -92 -94 0
-14 -59 -60 -93 -94 0
-13 -58 -59 -96 -97 0
-14 -58 -60 -96 -97 0
-14 -59 -60 -96 -98 0
-14 -59 -60 -97 -98 0
-14 -59 -60 -100 -101 0
-9 -63 -64 -70 -71 0
-10 -63 -65 -70 -71 0
-11 -63 -66 -70 -71 0
-12 -63 -67 -70 -71 0
-13 -63 -68 -70 -71 0
-14 -63 -69 -70 -71 0
-10 -64 -65 -70 -72 0
-11 -64 -66 -70 -72 0
-12 -64 -67 -70 -72 0
-13 -64 -68 -70 -72 0
-14 -64 -69 -70 -72 0
-11 -65 -66 -70 -73 0
-12 -65 -67 -70 -73 0
-13 -65 -68 -70 -73 0
-14 -65 -69 -70 -73 0
-12 -66 -67 -70 -74 0
-13 -66 -68 -70 -74 0
-14 -66 -69 -70 -74 0
-13 -67 -68 -70 -75 0
-14 -67 -69 -70 -75 0
-14 -68 -69 -70 -76 0
-10 -64 -65 -71 -72 0
-11 -64 -66 -71 -72 0
-12 -64 -67 -71 -72 0
-13 -64 -68 -71 -72 0
-14 -64 -69 -71 -72 0
-11 -65 -66 -71 -73 0
-12 -65 -67 -71 -73 0
-13 -65 -68 -71 -73 0
-14 -65 -69 -71 -73 0
-12 -66 -67 -71 -74 0
-13 -66 -68 -71 -74 0
-14 -66 -69 -71 -74 0
-13 -67 -68 -71 -75 0
-14 -67 -69 -71 -75 0
-14 -68 -69 -71 -76 0
-11 -65 -66 -72 -73 0
-12 -65 -67 -72 -73 0
-13 -65 -68 -72 -73 0
-14 -65 -69 -72 -73 0
-12 -66 -67 -72 -74 0
-13 -66 -68 -72 -74 0
-14 -66 -69 -72 -74 0
-13 -67 -68 -72 -75 0
-14 -67 -69 -72 -75 0
-14 -68 -69 -72 -76 0
-12 -66 -67 -73 -74 0
-13 -66 -68 -73 -74 0
-14 -66 -69 -73 -74 0
-13 -67 -68 -73 -75 0
-14 -67 -69 -73 -75 0
-14 -68 -69 -73 -76 0
-13 -67 -68 -74 -75 0
-14 -67 -69 -74 -75 0
-14 -68 -69 -74 -76 0
-14 -68 -69 -75 -76 0
-10 -64 -65 -78 -79 0
-11 -64 -66 -78 -79 0
-12 -64 -67 -78 -79 0
-13 -64 -68 -78 -79 0
-14 -64 -69 -78 -79 0
-11 -65 -66 -78 -80 0
-12 -65 -67 -78 -80 0
-13 -65 -68 -78 -80 0
-14 -65 -69 -78 -80 0
-12 -66 -67 -78 -81 0
-13 -66 -68 -78 -81 0
-14 -66 -69 -78 -81 0
-13 -67 -68 -78 -82 0
-14 -67 -69 -78 -82 0
-14 -68 -69 -78 -83 0
-11 -65 -66 -79 -80 0
-12 -65 -67 -79 -80 0
-13 -65 -68 -79 -80 0
-14 -65 -69 -79 -80 0
-12 -66 -67 -79 -81 0
-13 -66 -68 -79 -81 0
-14 -66 -69 -79 -81 0
-13 -67 -68 -79 -82 0
-14 -67 -69 -79 -82 0
-14 -68 -69 -79 -83 0
-12 -66 -67 -80 -81 0
-13 -66 -68 -80 -81 0
-14 -66 -69 -80 -81 0
-13 -67 -68 -80 -82 0
-14 -67 -69 -80 -82 0
-14 -68 -69 -80 -83 0
-13 -67 -68 -81 -82 0
-14 -67 -69 -81 -82 0
-14 -68 -69 -81 -83 0
-14 -68 -69 -82 -83 0
-11 -65 -66 -85 -86 0
-12 -65 -67 -85 -86 0
-13 -65 -68 -85 -86 0
-14 -65 -69 -85 -86 0
-12 -66 -67 -85 -87 0
-13 -66 -68 -85 -87 0
-14 -66 -69 -85 -87 0
-13 -67 -68 -85 -88 0
-14 -67 -69 -85 -88 0
-14 -68 -69 -85 -89 0
-12 -66 -67 -86 -87 0
-13 -66 -68 -86 -87 0
-14 -66 -69 -86 -87 0
-13 -67 -68 -86 -88 0
-14 -67 -69 -86 -88 0
-14 -68 -69 -86 -89 0
-13 -67 -68 -87 -88 0
-14 -67 -69 -87 -88 0
-14 -68 -69 -87 -89 0
-14 -68 -69 -88 -89 0
-12 -66 -67 -91 -92 0
-13 -66 -68 -91 -92 0
-14 -66 -69 -91 -92 0
-13 -67 -68 -91 -93 0
-14 -67 -69 -91 -93 0
-14 -68 -69 -91 -94 0
-13 -67 -68 -92 -93 0
-14 -67 -69 -92 -93 0
-14 -68 -69 -92 -94 0
-14 -68 -69 -93 -94 0
-13 -67 -68 -96 -97 0
-14 -67 -69 -96 -97 0
-14 -68 -69 -96 -98 0
-14 -68 -69 -97 -98 0
-14 -68 -69 -100 -101 0
-10 -72 -73 -78 -79 0
-11 -72 -74 -78 -79 0
-12 -72 -75 -78 -79 0
-13 -72 -76 -78 -79 0
-14 -72 -77 -78 -79 0
-11 -73 -74 -78 -80 0
-12 -73 -75 -78 -80 0
-13 -73 -76 -78 -80 0
-14 -73 -77 -78 -80 0
-12 -74 -75 -78 -81 0
-13 -74 -76 -78 -81 0
-14 -74 -77 -78 -81 0
-13 -75 -76 -78 -82 0
-14 -75 -77 -78 -82 0
-14 -76 -77 -78 -83 0
-11 -73 -74 -79 -80 0
-12 -73 -75 -79 -80 0
-13 -73 -76 -79 -80 0
-14 -73 -77 -79 -80 0
-12 -74 -75 -79 -81 0
-13 -74 -76 -79 -81 0
-14 -74 -77 -79 -81 0
-13 -75 -76 -79 -82 0
-14 -75 -77 -79 -82 0
-14 -76 -77 -79 -83 0
-12 -74 -75 -80 -81 0
-13 -74 -76 -80 -81 0
-14 -74 -77 -80 -81 0
-13 -75 -76 -80 -82 0
-14 -75 -77 -80 -82 0
-14 -76 -77 -80 -83 0
-13 -75 -76 -81 -82 0
-14 -75 -77 -81 -82 0
-14 -76 -77 -81 -83 0
-14 -76 -77 -82 -83 0
-11 -73 -74 -85 -86 0
-12 -73 -75 -85 -86 0
-13 -73 -76 -85 -86 0
-14 -73 -77 -85 -86 0
-12 -74 -75 -85 -87 0
-13 -74 -76 -85 -87 0
-14 -74 -77 -85 -87 0
-13 -75 -76 -85 -88 0
-14 -75 -77 -85 -88 0
-14 -76 -77 -85 -89 0
-12 -74 -75 -86 -87 0
-13 -74 -76 -86 -87 0
-14 -74 -77 -86 -87 0
-13 -75 -76 -86 -88 0
-14 -75 -77 -86 -88 0
-14 -76 -77 -86 -89 0
-13 -75 -76 -87 -88 0
-14 -75 -77 -87 -88 0
-14 -76 -77 -87 -89 0
-14 -76 -77 -88 -89 0
-12 -74 -75 -91 -92 0
-13 -74 -76 -91 -92 0
-14 -74 -77 -91 -92 0
-13 -75 -76 -91 -93 0
-14 -75 -77 -91 -93 0
-14 -76 -77 -91 -94 0
-13 -75 -76 -92 -93 0
-14 -75 -77 -92 -93 0
-14 -76 -77 -92 -94 0
-14 -76 -77 -93 -94 0
-13 -75 -76 -96 -97 0
-14 -75 -77 -96 -97 0
-14 -76 -77 -96 -98 0
-14 -76 -77 -97 -98 0
-14 -76 -77 -100 -101 0
-11 -80 -81 -85 -86 0
-12 -80 -82 -85 -86 0
-13 -80 -83 -85 -86 0
-14 -80 -84 -85 -86 0
-12 -81 -82 -85 -87 0
-13 -81 -83 -85 -87 0
-14 -81 -84 -85 -87 0
-13 -82 -83 -85 -88 0
-14 -82 -84 -85 -88 0
-14 -83 -84 -85 -89 0
-12 -81 -82 -86 -87 0
-13 -81 -83 -86 -87 0
-14 -81 -84 -86 -87 0
-13 -82 -83 -86 -88 0
-14 -82 -84 -86 -88 0
-14 -83 -84 -86 -89 0
-13 -82 -83 -87 -88 0
-14 -82 -84 -87 -88 0
-14 -83 -84 -87 -89 0
-14 -83 -84 -88 -89 0
-12 -81 -82 -91 -92 0
-13 -81 -83 -91 -92 0
-14 -81 -84 -91 -92 0
-13 -82 -83 -91 -93 0
-14 -82 -84 -91 -93 0
-14 -83 -84 -91 -94 0
-13 -82 -83 -92 -93 0
-14 -82 -84 -92 -93 0
-14 -83 -84 -92 -94 0
-14 -83 -84 -93 -94 0
-13 -82 -83 -96 -97 0
-14 -82 -84 -96 -97 0
-14 -83 -84 -96 -98 0
-14 -83 -84 -97 -98 0
-14 -83 -84 -100 -101 0
-12 -87 -88 -91 -92 0
-13 -87 -89 -91 -92 0
-14 -87 -90 -91 -92 0
-13 -88 -89 -91 -93 0
-14 -88 -90 -91 -93 0
-14 -89 -90 -91 -94 0
-13 -88 -89 -92 -93 0
-14 -88 -90 -92 -93 0
-14 -89 -90 -92 -94 0
-14 -89 -90 -93 -94 0
-13 -88 -89 -96 -97 0
-14 -88 -90 -96 -97 0
-14 -89 -90 -96 -98 0
-14 -89 -90 -97 -98 0
-14 -89 -90 -100 -101 0
-13 -93 -94 -96 -97 0
-14 -93 -95 -96 -97 0
-14 -94 -95 -96 -98 0
-14 -94 -95 -97 -98 0
-14 -94 -95 -100 -101 0
-14 -98 -99 -100 -101 0
-19 -30 -31 -40 -41 0
-20 -30 -32 -40 -41 0
-21 -30 -33 -40 -41 0
-22 -30 -34 -40 -41 0
-23 -30 -35 -40 -41 0
-24 -30 -36 -40 -41 0
-25 -30 -37 -40 -41 0
-26 -30 -38 -40 -41 0
-27 -30 -39 -40 -41 0
-1 -30 -2 -40 -41 0
-20 -31 -32 -40 -42 0
-21 -31 -33 -40 -42 0
-22 -31 -34 -40 -42 0
-23 -31 -35 -40 -42 0
-24 -31 -36 -40 -42 0
-25 -31 -37 -40 -42 0
-26 -31 -38 -40 -42 0
-27 -31 -39 -40 -42 0
-1 -31 -2 -40 -42 0
-21 -32 -33 -40 -43 0
-22 -32 -34 -40 -43 0
-23 -32 -35 -40 -43 0
-24 -32 -36 -40 -43 0
-25 -32 -37 -40 -43 0
-26 -32 -38 -40 -43 0
-27 -32 -39 -40 -43 0
-1 -32 -2 -40 -43 0
-22 -33 -34 -40 -44 0
-23 -33 -35 -40 -44 0
-24 -33 -36 -40 -44 0
-25 -33 -37 -40 -44 0
-26 -33 -38 -40 -44 0
-27 -33 -39 -40 -44 0
-1 -33 -2 -40 -44 0
-23 -34 -35 -40 -45 0
-24 -34 -36 -40 -45 0
-25 -34 -37 -40 -45 0
-26 -34 -38 -40 -45 0
-27 -34 -39 -40 -45 0
-1 -34 -2 -40 -45 0
-24 -35 -36 -40 -46 0
-25 -35 -37 -40 -46 0
-26 -35 -38 -40 -46 0
-27 -35 -39 -40 -46 0
-1 -35 -2 -40 -46 0
-25 -36 -37 -40 -47 0
-26 -36 -38 -40 -47 0
-27 -36 -39 -40 -47 0
-1 -36 -2 -40 -47 0
-26 -37 -38 -40 -48 0
-27 -37 -39 -40 -48 0
-1 -37 -2 -40 -48 0
-27 -38 -39 -40 -49 0
-1 -38 -2 -40 -49 0
-1 -39 -2 -40 -50 0
-20 -31 -32 -41 -42 0
-21 -31 -33 -41 -42 0
-22 -31 -34 -41 -42 0
-23 -31 -35 -41 -42 0
-24 -31 -36 -41 -42 0
-25 -31 -37 -41 -42 0
-26 -31 -38 -41 -42 0
-27 -31 -39 -41 -42 0
-1 -31 -2 -41 -42 0
-21 -32 -33 -41 -43 0
-22 -32 -34 -41 -43 0
-23 -32 -35 -41 -43 0
-24 -32 -36 -41 -43 0
-25 -32 -37 -41 -43 0
-26 -32 -38 -41 -43 0
-27 -32 -39 -41 -43 0
-1 -32 -2 -41 -43 0
-22 -33 -34 -41 -44 0
-23 -33 -35 -41 -44 0
-24 -33 -36 -41 -44 0
-25 -33 -37 -41 -44 0
-26 -33 -38 -41 -44 0
-27 -33 -39 -41 -44 0
-1 -33 -2 -41 -44 0
-23 -34 -35 -41 -45 0
-24 -34 -36 -41 -45 0
-25 -34 -37 -41 -45 0
-26 -34 -38 -41 -45 0
-27 -34 -39 -41 -45 0
-1 -34 -2 -41 -45 0
-24 -35 -36 -41 -46 0
-25 -35 -37 -41 -46 0
-26 -35 -38 -41 -46 0
-27 -35 -39 -41 -46 0
-1 -35 -2 -41 -46 0
-25 -36 -37 -41 -47 0
-26 -36 -38 -41 -47 0
-27 -36 -39 -41 -47 0
-1 -36 -2 -41 -47 0
-26 -37 -38 -41 -48 0
-27 -37 -39 -41 -48 0
-1 -37 -2 -41 -48 0
-27 -38 -39 -41 -49 0
-1 -38 -2 -41 -49 0
-1 -39 -2 -41 -50 0
-21 -32 -33 -42 -43 0
-22 -32 -34 -42 -43 0
-23 -32 -35 -42 -43 0
-24 -32 -36 -42 -43 0
-25 -32 -37 -42 -43 0
-26 -32 -38 -42 -43 0
-27 -32 -39 -42 -43 0
-1 -32 -2 -42 -43 0
-22 -33 -34 -42 -44 0
-23 -33 -35 -42 -44 0
-24 -33 -36 -42 -44 0
-25 -33 -37 -42 -44 0
-26 -33 -38 -42 -44 0
-27 -33 -39 -42 -44 0
-1 -33 -2 -42 -44 0
-23 -34 -35 -42 -45 0
-24 -34 -36 -42 -45 0
-25 -34 -37 -42 -45 0
-26 -34 -38 -42 -45 0
-27 -34 -39 -42 -45 0
-1 -34 -2 -42 -45 0
-24 -35 -36 -42 -46 0
-25 -35 -37 -42 -46 0
-26 -35 -38 -42 -46 0
-27 -35 -39 -42 -46 0
-1 -35 -2 -42 -46 0
-25 -36 -37 -42 -47 0
-26 -36 -38 -42 -47 0
-27 -36 -39 -42 -47 0
-1 -36 -2 -42 -47 0
-26 -37 -38 -42 -48 0
-27 -37 -39 -42 -48 0
-1 -37 -2 -42 -48 0
-27 -38 -39 -42 -49 0
-1 -38 -2 -42 -49 0
-1 -39 -2 -42 -50 0
-22 -33 -34 -43 -44 0
-23 -33 -35 -43 -44 0
-24 -33 -36 -43 -44 0
-25 -33 -37 -43 -44 0
-26 -33 -38 -43 -44 0
-27 -33 -39 -43 -44 0
-1 -33 -2 -43 -44 0
-23 -34 -35 -43 -45 0
-24 -34 -36 -43 -45 0
-25 -34 -37 -43 -45 0
-26 -34 -38 -43 -45 0
-27 -34 -39 -43 -45 0
-1 -34 -2 -43 -45 0
-24 -35 -36 -43 -46 0
-25 -35 -37 -43 -46 0
-26 -35 -38 -43 -46 0
-27 -35 -39 -43 -46 0
-1 -35 -2 -43 -46 0
-25 -36 -37 -43 -47 0
-26 -36 -38 -43 -47 0
-27 -36 -39 -43 -47 0
-1 -36 -2 -43 -47 0
-26 -37 -38 -43 -48 0
-27 -37 -39 -43 -48 0
-1 -37 -2 -43 -48 0
-27 -38 -39 -43 -49 0
-1 -38 -2 -43 -49 0
-1 -39 -2 -43 -50 0
-23 -34 -35 -44 -45 0
-24 -34 -36 -44 -45 0
-25 -34 -37 -44 -45 0
-26 -34 -38 -44 -45 0
-27 -34 -39 -44 -45 0
-1 -34 -2 -44 -45 0
-24 -35 -36 -44 -46 0
-25 -35 -37 -44 -46 0
-26 -35 -38 -44 -46 0
-27 -35 -39 -44 -46 0
-1 -35 -2 -44 -46 0
-25 -36 -37 -44 -47 0
-26 -36 -38 -44 -47 0
-27 -36 -39 -44 -47 0
-1 -36 -2 -44 -47 0
-26 -37 -38 -44 -48 0
-27 -37 -39 -44 -48 0
-1 -37 -2 -44 -48 0
-27 -38 -39 -44 -49 0
-1 -38 -2 -44 -49 0
-1 -39 -2 -44 -50 0
-24 -35 -36 -45 -46 0
-25 -35 -37 -45 -46 0
-26 -35 -38 -45 -46 0
-27 -35 -39 -45 -46 0
-1 -35 -2 -45 -46 0
-25 -36 -37 -45 -47 0
-26 -36 -38 -45 -47 0
-27 -36 -39 -45 -47 0
-1 -36 -2 -45 -47 0
-26 -37 -38 -45 -48 0
-27 -37 -39 -45 -48 0
-1 -37 -2 -45 -48 0
-27 -38 -39 -45 -49 0
-1 -38 -2 -45 -49 0
-1 -39 -2 -45 -50 0
-25 -36 -37 -46 -47 0
-26 -36 -38 -46 -47 0
-27 -36 -39 -46 -47 0
-1 -36 -2 -46 -47 0
-26 -37 -38 -46 -48 0
-27 -37 -39 -46 -48 0
-1 -37 -2 -46 -48 0
-27 -38 -39 -46 -49 0
-1 -38 -2 -46 -49 0
-1 -39 -2 -46 -50 0
-26 -37 -38 -47 -48 0
-27 -37 -39 -47 -48 0
-1 -37 -2 -47 -48 0
-27 -38 -39 -47 -49 0
-1 -38 -2 -47 -49 0
-1 -39 -2 -47 -50 0
-27 -38 -39 -48 -49 0
-1 -38 -2 -48 -49 0
-1 -39 -2 -48 -50 0
-1 -39 -2 -49 -50 0
-20 -31 -32 -51 -52 0
-21 -31 -33 -51 -52 0
-22 -31 -34 -51 -52 0
-23 -31 -35 -51 -52 0
-24 -31 -36 -51 -52 0
-25 -31 -37 -51 -52 0
-26 -31 -38 -51 -52 0
-27 -31 -39 -51 -52 0
-1 -31 -2 -51 -52 0
-21 -32 -33 -51 -53 0
-22 -32 -34 -51 -53 0
-23 -32 -35 -51 -53 0
-24 -32 -36 -51 -53 0
-25 -32 -37 -51 -53 0
-26 -32 -38 -51 -53 0
-27 -32 -39 -51 -53 0
-1 -32 -2 -51 -53 0
-22 -33 -34 -51 -54 0
-23 -33 -35 -51 -54 0
-24 -33 -36 -51 -54 0
-25 -33 -37 -51 -54 0
-26 -33 -38 -51 -54 0
-27 -33 -39 -51 -54 0
-1 -33 -2 -51 -54 0
-23 -34 -35 -51 -55 0
-24 -34 -36 -51 -55 0
-25 -34 -37 -51 -55 0
-26 -34 -38 -51 -55 0
-27 -34 -39 -51 -55 0
-1 -34 -2 -51 -55 0
-24 -35 -36 -51 -56 0
-25 -35 -37 -51 -56 0
-26 -35 -38 -51 -56 0
-27 -35 -39 -51 -56 0
-1 -35 -2 -51 -56 0
-25 -36 -37 -51 -57 0
-26 -36 -38 -51 -57 0
-27 -36 -39 -51 -57 0
-1 -36 -2 -51 -57 0
-26 -37 -38 -51 -58 0
-27 -37 -39 -51 -58 0
-1 -37 -2 -51 -58 0
-27 -38 -39 -51 -59 0
-1 -38 -2 -51 -59 0
-1 -39 -2 -51 -60 0
-21 -32 -33 -52 -53 0
-22 -32 -34 -52 -53 0
-23 -32 -35 -52 -53 0
-24 -32 -36 -52 -53 0
-25 -32 -37 -52 -53 0
-26 -32 -38 -52 -53 0
-27 -32 -39 -52 -53 0
-1 -32 -2 -52 -53 0
-22 -33 -34 -52 -54 0
-23 -33 -35 -52 -54 0
-24 -33 -36 -52 -54 0
-25 -33 -37 -52 -54 0
-26 -33 -38 -52 -54 0
-27 -33 -39 -52 -54 0
-1 -33 -2 -52 -54 0
-23 -34 -35 -52 -55 0
-24 -34 -36 -52 -55 0
-25 -34 -37 -52 -55 0
-26 -34 -38 -52 -55 0
-27 -34 -39 -52 -55 0
-1 -34 -2 -52 -55 0
-24 -35 -36 -52 -56 0
-25 -35 -37 -52 -56 0
-26 -35 -38 -52 -56 0
-27 -35 -39 -52 -56 0
-1 -35 -2 -52 -56 0
-25 -36 -37 -52 -57 0
-26 -36 -38 -52 -57 0
-27 -36 -39 -52 -57 0
-1 -36 -2 -52 -57 0
-26 -37 -38 -52 -58 0
-27 -37 -39 -52 -58 0
-1 -37 -2 -52 -58 0
-27 -38 -39 -52 -59 0
-1 -38 -2 -52 -59 0
-1 -39 -2 -52 -60 0
-22 -33 -34 -53 -54 0
-23 -33 -35 -53 -54 0
-24 -33 -36 -53 -54 0
-25 -33 -37 -53 -54 0
-26 -33 -38 -53 -54 0
-27 -33 -39 -53 -54 0
-1 -33 -2 -53 -54 0
-23 -34 -35 -53 -55 0
-24 -34 -36 -53 -55 0
-25 -34 -37 -53 -55 0
-26 -34 -38 -53 -55 0
-27 -34 -39 -53 -55 0
-1 -34 -2 -53 -55 0
-24 -35 -36 -53 -56 0
-25 -35 -37 -53 -56 0
-26 -35 -38 -53 -56 0
-27 -35 -39 -53 -56 0
-1 -35 -2 -53 -56 0
-25 -36 -37 -53 -57 0
-26 -36 -38 -53 -57 0
-27 -36 -39 -53 -57 0
-1 -36 -2 -53 -57 0
-26 -37 -38 -53 -58 0
-27 -37 -39 -53 -58 0
-1 -37 -2 -53 -58 0
-27 -38 -39 -53 -59 0
-1 -38 -2 -53 -59 0
-1 -39 -2 -53 -60 0
-23 -34 -35 -54 -55 0
-24 -34 -36 -54 -55 0
-25 -34 -37 -54 -55 0
-26 -34 -38 -54 -55 0
-27 -34 -39 -54 -55 0
-1 -34 -2 -54 -55 0
-24 -35 -36 -54 -56 0
-25 -35 -37 -54 -56 0
-26 -35 -38 -54 -56 0
-27 -35 -39 -54 -56 0
-1 -35 -2 -54 -56 0
-25 -36 -37 -54 -57 0
-26 -36 -38 -54 -57 0
-27 -36 -39 -54 -57 0
-1 -36 -2 -54 -57 0
-26 -37 -38 -54 -58 0
-27 -37 -39 -54 -58 0
-1 -37 -2 -54 -58 0
-27 -38 -39 -54 -59 0
-1 -38 -2 -54 -59 0
-1 -39 -2 -54 -60 0
-24 -35 -36 -55 -56 0
-25 -35 -37 -55 -56 0
-26 -35 -38 -55 -56 0
-27 -35 -39 -55 -56 0
-1 -35 -2 -55 -56 0
-25 -36 -37 -55 -57 0
-26 -36 -38 -55 -57 0
-27 -36 -39 -55 -57 0
-1 -36 -2 -55 -57 0
-26 -37 -38 -55 -58 0
-27 -37 -39 -55 -58 0
-1 -37 -2 -55 -58 0
-27 -38 -39 -55 -59 0
-1 -38 -2 -55 -59 0
-1 -39 -2 -55 -60 0
-25 -36 -37 -56 -57 0
-26 -36 -38 -56 -57 0
-27 -36 -39 -56 -57 0
-1 -36 -2 -56 -57 0
-26 -37 -38 -56 -58 0
-27 -37 -39 -56 -58 0
-1 -37 -2 -56 -58 0
-27 -38 -39 -56 -59 0
-1 -38 -2 -56 -59 0
-1 -39 -2 -56 -60 0
-26 -37 -38 -57 -58 0
-27 -37 -39 -57 -58 0
-1 -37 -2 -57 -58 0
-27 -38 -39 -57 -59 0
-1 -38 -2 -57 -59 0
-1 -39 -2 -57 -60 0
-27 -38 -39 -58 -59 0
-1 -38 -2 -58 -59 0
-1 -39 -2 -58 -60 0
-1 -39 -2 -59 -60 0
-21 -32 -33 -61 -62 0
-22 -32 -34 -61 -62 0
-23 -32 -35 -61 -62 0
-24 -32 -36 -61 -62 0
-25 -32 -37 -61 -62 0
-26 -32 -38 -61 -62 0
-27 -32 -39 -61 -62 0
-1 -32 -2 -61 -62 0
-22 -33 -34 -61 -63 0
-23 -33 -35 -61 -63 0
-24 -33 -36 -61 -63 0
-25 -33 -37 -61 -63 0
-26 -33 -38 -61 -63 0
-27 -33 -39 -61 -63 0
-1 -33 -2 -61 -63 0
-23 -34 -35 -61 -64 0
-24 -34 -36 -61 -64 0
-25 -34 -37 -61 -64 0
-26 -34 -38 -61 -64 0
-27 -34 -39 -61 -64 0
-1 -34 -2 -61 -64 0
-24 -35 -36 -61 -65 0
-25 -35 -37 -61 -65 0
-26 -35 -38 -61 -65 0
-27 -35 -39 -61 -65 0
-1 -35 -2 -61 -65 0
-25 -36 -37 -61 -66 0
-26 -36 -38 -61 -66 0
-27 -36 -39 -61 -66 0
-1 -36 -2 -61 -66 0
-26 -37 -38 -61 -67 0
-27 -37 -39 -61 -67 0
-1 -37 -2 -61 -67 0
-27 -38 -39 -61 -68 0
-1 -38 -2 -61 -68 0
-1 -39 -2 -61 -69 0
-22 -33 -34 -62 -63 0
-23 -33 -35 -62 -63 0
-24 -33 -36 -62 -63 0
-25 -33 -37 -62 -63 0
-26 -33 -38 -62 -63 0
-27 -33 -39 -62 -63 0
-1 -33 -2 -62 -63 0
-23 -34 -35 -62 -64 0
-24 -34 -36 -62 -64 0
-25 -34 -37 -62 -64 0
-26 -34 -38 -62 -64 0
-27 -34 -39 -62 -64 0
-1 -34 -2 -62 -64 0
-24 -35 -36 -62 -65 0
-25 -35 -37 -62 -65 0
-26 -35 -38 -62 -65 0
-27 -35 -39 -62 -65 0
-1 -35 -2 -62 -65 0
-25 -36 -37 -62 -66 0
-26 -36 -38 -62 -66 0
-27 -36 -39 -62 -66 0
-1 -36 -2 -62 -66 0
-26 -37 -38 -62 -67 0
-27 -37 -39 -62 -67 0
-1 -37 -2 -62 -67 0
-27 -38 -39 -62 -68 0
-1 -38 -2 -62 -68 0
-1 -39 -2 -62 -69 0
-23 -34 -35 -63 -64 0
-24 -34 -36 -63 -64 0
-25 -34 -37 -63 -64 0
-26 -34 -38 -63 -64 0
-27 -34 -39 -63 -64 0
-1 -34 -2 -63 -64 0
-24 -35 -36 -63 -65 0
-25 -35 -37 -63 -65 0
-26 -35 -38 -63 -65 0
-27 -35 -39 -63 -65 0
-1 -35 -2 -63 -65 0
-25 -36 -37 -63 -66 0
-26 -36 -38 -63 -66 0
-27 -36 -39 -63 -66 0
-1 -36 -2 -63 -66 0
-26 -37 -38 -63 -67 0
-27 -37 -39 -63 -67 0
-1 -37 -2 -63 -67 0
-27 -38 -39 -63 -68 0
-1 -38 -2 -63 -68 0
-1 -39 -2 -63 -69 0
-24 -35 -36 -64 -65 0
-25 -35 -37 -64 -65 0
-26 -35 -38 -64 -65 0
-27 -35 -39 -64 -65 0
-1 -35 -2 -64 -65 0
-25 -36 -37 -64 -66 0
-26 -36 -38 -64 -66 0
-27 -36 -39 -64 -66 0
-1 -36 -2 -64 -66 0
-26 -37 -38 -64 -67 0
-27 -37 -39 -64 -67 0
-1 -37 -2 -64 -67 0
-27 -38 -39 -64 -68 0
-1 -38 -2 -64 -68 0
-1 -39 -2 -64 -69 0
-25 -36 -37 -65 -66 0
-26 -36 -38 -65 -66 0
-27 -36 -39 -65 -66 0
-1 -36 -2 -65 -66 0
-26 -37 -38 -65 -67 0
-27 -37 -39 -65 -67 0
-1 -37 -2 -65 -67 0
-27 -38 -39 -65 -68 0
-1 -38 -2 -65 -68 0
-1 -39 -2 -65 -69 0
-26 -37 -38 -66 -67 0
-27 -37 -39 -66 -67 0
-1 -37 -2 -66 -67 0
-27 -38 -39 -66 -68 0
-1 -38 -2 -66 -68 0
-1 -39 -2 -66 -69 0
-27 -38 -39 -67 -68 0
-1 -38 -2 -67 -68 0
-1 -39 -2 -67 -69 0
-1 -39 -2 -68 -69 0
-22 -33 -34 -70 -71 0
-23 -33 -35 -70 -71 0
-24 -33 -36 -70 -71 0
-25 -33 -37 -70 -71 0
-26 -33 -38 -70 -71 0
-27 -33 -39 -70 -71 0
-1 -33 -2 -70 -71 0
-23 -34 -35 -70 -72 0
-24 -34 -36 -70 -72 0
-25 -34 -37 -70 -72 0
-26 -34 -38 -70 -72 0
-27 -34 -39 -70 -72 0
-1 -34 -2 -70 -72 0
-24 -35 -36 -70 -73 0
-25 -35 -37 -70 -73 0
-26 -35 -38 -70 -73 0
-27 -35 -39 -70 -73 0
-1 -35 -2 -70 -73 0
-25 -36 -37 -70 -74 0
-26 -36 -38 -70 -74 0
-27 -36 -39 -70 -74 0
-1 -36 -2 -70 -74 0
-26 -37 -38 -70 -75 0
-27 -37 -39 -70 -75 0
-1 -37 -2 -70 -75 0
-27 -38 -39 -70 -76 0
-1 -38 -2 -70 -76 0
-1 -39 -2 -70 -77 0
-23 -34 -35 -71 -72 0
-24 -34 -36 -71 -72 0
-25 -34 -37 -71 -72 0
-26 -34 -38 -71 -72 0
-27 -34 -39 -71 -72 0
-1 -34 -2 -71 -72 0
-24 -35 -36 -71 -73 0
-25 -35 -37 -71 -73 0
-26 -35 -38 -71 -73 0
-27 -35 -39 -71 -73 0
-1 -35 -2 -71 -73 0
-25 -36 -37 -71 -74 0
-26 -36 -38 -71 -74 0
-27 -36 -39 -71 -74 0
-1 -36 -2 -71 -74 0
-26 -37 -38 -71 -75 0
-27 -37 -39 -71 -75 0
-1 -37 -2 -71 -75 0
-27 -38 -39 -71 -76 0
-1 -38 -2 -71 -76 0
-1 -39 -2 -71 -77 0
-24 -35 -36 -72 -73 0
-25 -35 -37 -72 -73 0
-26 -35 -38 -72 -73 0
-27 -35 -39 -72 -73 0
-1 -35 -2 -72 -73 0
-25 -36 -37 -72 -74 0
-26 -36 -38 -72 -74 0
-27 -36 -39 -72 -74 0
-1 -36 -2 -72 -74 0
-26 -37 -38 -72 -75 0
-27 -37 -39 -72 -75 0
-1 -37 -2 -72 -75 0
-27 -38 -39 -72 -76 0
-1 -38 -2 -72 -76 0
-1 -39 -2 -72 -77 0
-25 -36 -37 -73 -74 0
-26 -36 -38 -73 -74 0
-27 -36 -39 -73 -74 0
-1 -36 -2 -73 -74 0
-26 -37 -38 -73 -75 0
-27 -37 -39 -73 -75 0
-1 -37 -2 -73 -75 0
-27 -38 -39 -73 -76 0
-1 -38 -2 -73 -76 0
-1 -39 -2 -73 -77 0
-26 -37 -38 -74 -75 0
-27 -37 -39 -74 -75 0
-1 -37 -2 -74 -75 0
-27 -38 -39 -74 -76 0
-1 -38 -2 -74 -76 0
-1 -39 -2 -74 -77 0
-27 -38 -39 -75 -76 0
-1 -38 -2 -75 -76 0
-1 -39 -2 -75 -77 0
-1 -39 -2 -76 -77 0
-23 -34 -35 -78 -79 0
-24 -34 -36 -78 -79 0
-25 -34 -37 -78 -79 0
-26 -34 -38 -78 -79 0
-27 -34 -39 -78 -79 0
-1 -34 -2 -78 -79 0
-24 -35 -36 -78 -80 0
-25 -35 -37 -78 -80 0
-26 -35 -38 -78 -80 0
-27 -35 -39 -78 -80 0
-1 -35 -2 -78 -80 0
-25 -36 -37 -78 -81 0
-26 -36 -38 -78 -81 0
-27 -36 -39 -78 -81 0
-1 -36 -2 -78 -81 0
-26 -37 -38 -78 -82 0
-27 -37 -39 -78 -82 0
-1 -37 -2 -78 -82 0
-27 -38 -39 -78 -83 0
-1 -38 -2 -78 -83 0
-1 -39 -2 -78 -84 0
-24 -35 -36 -79 -80 0
-25 -35 -37 -79 -80 0
-26 -35 -38 -79 -80 0
-27 -35 -39 -79 -80 0
-1 -35 -2 -79 -80 0
-25 -36 -37 -79 -81 0
-26 -36 -38 -79 -81 0
-27 -36 -39 -79 -81 0
-1 -36 -2 -79 -81 0
-26 -37 -38 -79 -82 0
-27 -37 -39 -79 -82 0
-1 -37 -2 -79 -82 0
-27 -38 -39 -79 -83 0
-1 -38 -2 -79 -83 0
-1 -39 -2 -79 -84 0
-25 -36 -37 -80 -81 0
-26 -36 -38 -80 -81 0
-27 -36 -39 -80 -81 0
-1 -36 -2 -80 -81 0
-26 -37 -38 -80 -82 0
-27 -37 -39 -80 -82 0
-1 -37 -2 -80 -82 0
-27 -38 -39 -80 -83 0
-1 -38 -2 -80 -83 0
-1 -39 -2 -80 -84 0
-26 -37 -38 -81 -82 0
-27 -37 -39 -81 -82 0
-1 -37 -2 -81 -82 0
-27 -38 -39 -81 -83 0
-1 -38 -2 -81 -83 0
-1 -39 -2 -81 -84 0
-27 -38 -39 -82 -83 0
-1 -38 -2 -82 -83 0
-1 -39 -2 -82 -84 0
-1 -39 -2 -83 -84 0
-24 -35 -36 -85 -86 0
-25 -35 -37 -85 -86 0
-26 -35 -38 -85 -86 0
-27 -35 -39 -85 -86 0
-1 -35 -2 -85 -86 0
-25 -36 -37 -85 -87 0
-26 -36 -38 -85 -87 0
-27 -36 -39 -85 -87 0
-1 -36 -2 -85 -87 0
-26 -37 -38 -85 -88 0
-27 -37 -39 -85 -88 0
-1 -37 -2 -85 -88 0
-27 -38 -39 -85 -89 0
-1 -38 -2 -85 -89 0
-1 -39 -2 -85 -90 0
-25 -36 -37 -86 -87 0
-26 -36 -38 -86 -87 0
-27 -36 -39 -86 -87 0
-1 -36 -2 -86 -87 0
-26 -37 -38 -86 -88 0
-27 -37 -39 -86 -88 0
-1 -37 -2 -86 -88 0
-27 -38 -39 -86 -89 0
-1 -38 -2 -86 -89 0
-1 -39 -2 -86 -90 0
-26 -37 -38 -87 -88 0
-27 -37 -39 -87 -88 0
-1 -37 -2 -87 -88 0
-27 -38 -39 -87 -89 0
-1 -38 -2 -87 -89 0
-1 -39 -2 -87 -90 0
-27 -38 -39 -88 -89 0
-1 -38 -2 -88 -89 0
-1 -39 -2 -88 -90 0
-1 -39 -2 -89 -90 0
-25 -36 -37 -91 -92 0
-26 -36 -38 -91 -92 0
-27 -36 -39 -91 -92 0
-1 -36 -2 -91 -92 0
-26 -37 -38 -91 -93 0
-27 -37 -39 -91 -93 0
-1 -37 -2 -91 -93 0
-27 -38 -39 -91 -94 0
-1 -38 -2 -91 -94 0
-1 -39 -2 -91 -95 0
-26 -37 -38 -92 -93 0
-27 -37 -39 -92 -93 0
-1 -37 -2 -92 -93 0
-27 -38 -39 -92 -94 0
-1 -38 -2 -92 -94 0
-1 -39 -2 -92 -95 0
-27 -38 -39 -93 -94 0
-1 -38 -2 -93 -94 0
-1 -39 -2 -93 -95 0
-1 -39 -2 -94 -95 0
-26 -37 -38 -96 -97 0
-27 -37 -39 -96 -97 0
-1 -37 -2 -96 -97 0
-27 -38 -39 -96 -98 0
-1 -38 -2 -96 -98 0
-1 -39 -2 -96 -99 0
-27 -38 -39 -97 -98 0
-1 -38 -2 -97 -98 0
-1 -39 -2 -97 -99 0
-1 -39 -2 -98 -99 0
-27 -38 -39 -100 -101 0
-1 -38 -2 -100 -101 0
-1 -39 -2 -100 -102 0
-1 -39 -2 -101 -102 0
-1 -39 -2 -103 -104 0
-20 -42 -43 -51 -52 0
-21 -42 -44 -51 -52 0
-22 -42 -45 -51 -52 0
-23 -42 -46 -51 -52 0
-24 -42 -47 -51 -52 0
-25 -42 -48 -51 -52 0
-26 -42 -49 -51 -52 0
-27 -42 -50 -51 -52 0
-1 -42 -3 -51 -52 0
-21 -43 -44 -51 -53 0
-22 -43 -45 -51 -53 0
-23 -43 -46 -51 -53 0
-24 -43 -47 -51 -53 0
-25 -43 -48 -51 -53 0
-26 -43 -49 -51 -53 0
-27 -43 -50 -51 -53 0
-1 -43 -3 -51 -53 0
-22 -44 -45 -51 -54 0
-23 -44 -46 -51 -54 0
-24 -44 -47 -51 -54 0
-25 -44 -48 -51 -54 0
-26 -44 -49 -51 -54 0
-27 -44 -50 -51 -54 0
-1 -44 -3 -51 -54 0
-23 -45 -46 -51 -55 0
-24 -45 -47 -51 -55 0
-25 -45 -48 -51 -55 0
-26 -45 -49 -51 -55 0
-27 -45 -50 -51 -55 0
-1 -45 -3 -51 -55 0
-24 -46 -47 -51 -56 0
-25 -46 -48 -51 -56 0
-26 -46 -49 -51 -56 0
-27 -46 -50 -51 -56 0
-1 -46 -3 -51 -56 0
-25 -47 -48 -51 -57 0
-26 -47 -49 -51 -57 0
-27 -47 -50 -51 -57 0
-1 -47 -3 -51 -57 0
-26 -48 -49 -51 -58 0
-27 -48 -50 -51 -58 0
-1 -48 -3 -51 -58 0
-27 -49 -50 -51 -59 0
-1 -49 -3 -51 -59 0
-1 -50 -3 -51 -60 0
-21 -43 -44 -52 -53 0
-22 -43 -45 -52 -53 0
-23 -43 -46 -52 -53 0
-24 -43 -47 -52 -53 0
-25 -43 -48 -52 -53 0
-26 -43 -49 -52 -53 0
-27 -43 -50 -52 -53 0
-1 -43 -3 -52 -53 0
-22 -44 -45 -52 -54 0
-23 -44 -46 -52 -54 0
-24 -44 -47 -52 -54 0
-25 -44 -48 -52 -54 0
-26 -44 -49 -52 -54 0
-27 -44 -50 -52 -54 0
-1 -44 -3 -52 -54 0
-23 -45 -46 -52 -55 0
-24 -45 -47 -52 -55 0
-25 -45 -48 -52 -55 0
-26 -45 -49 -52 -55 0
-27 -45 -50 -52 -55 0
-1 -45 -3 -52 -55 0
-24 -46 -47 -52 -56 0
-25 -46 -48 -52 -56 0
-26 -46 -49 -52 -56 0
-27 -46 -50 -52 -56 0
-1 -46 -3 -52 -56 0
-25 -47 -48 -52 -57 0
-26 -47 -49 -52 -57 0
-27 -47 -50 -52 -57 0
-1 -47 -3 -52 -57 0
-26 -48 -49 -52 -58 0
-27 -48 -50 -52 -58 0
-1 -48 -3 -52 -58 0
-27 -49 -50 -52 -59 0
-1 -49 -3 -52 -59 0
-1 -50 -3 -52 -60 0
-22 -44 -45 -53 -54 0
-23 -44 -46 -53 -54 0
-24 -44 -47 -53 -54 0
-25 -44 -48 -53 -54 0
-26 -44 -49 -53 -54 0
-27 -44 -50 -53 -54 0
-1 -44 -3 -53 -54 0
-23 -45 -46 -53 -55 0
-24 -45 -47 -53 -55 0
-25 -45 -48 -53 -55 0
-26 -45 -49 -53 -55 0
-27 -45 -50 -53 -55 0
-1 -45 -3 -53 -55 0
-24 -46 -47 -53 -56 0
-25 -46 -48 -53 -56 0
-26 -46 -49 -53 -56 0
-27 -46 -50 -53 -56 0
-1 -46 -3 -53 -56 0
-25 -47 -48 -53 -57 0
-26 -47 -49 -53 -57 0
-27 -47 -50 -53 -57 0
-1 -47 -3 -53 -57 0
-26 -48 -49 -53 -58 0
-27 -48 -50 -53 -58 0
-1 -48 -3 -53 -58 0
-27 -49 -50 -53 -59 0
-1 -49 -3 -53 -59 0
-1 -50 -3 -53 -60 0
-23 -45 -46 -54 -55 0
-24 -45 -47 -54 -55 0
-25 -45 -48 -54 -55 0
-26 -45 -49 -54 -55 0
-27 -45 -50 -54 -55 0
-1 -45 -3 -54 -55 0
-24 -46 -47 -54 -56 0
-25 -46 -48 -54 -56 0
-26 -46 -49 -54 -56 0
-27 -46 -50 -54 -56 0
-1 -46 -3 -54 -56 0
-25 -47 -48 -54 -57 0
-26 -47 -49 -54 -57 0
-27 -47 -50 -54 -57 0
-1 -47 -3 -54 -57 0
-26 -48 -49 -54 -58 0
-27 -48 -50 -54 -58 0
-1 -48 -3 -54 -58 0
-27 -49 -50 -54 -59 0
-1 -49 -3 -54 -59 0
-1 -50 -3 -54 -60 0
-24 -46 -47 -55 -56 0
-25 -46 -48 -55 -56 0
-26 -46 -49 -55 -56 0
-27 -46 -50 -55 -56 0
-1 -46 -3 -55 -56 0
-25 -47 -48 -55 -57 0
-26 -47 -49 -55 -57 0
-27 -47 -50 -55 -57 0
-1 -47 -3 -55 -57 0
-26 -48 -49 -55 -58 0
-27 -48 -50 -55 -58 0
-1 -48 -3 -55 -58 0
-27 -49 -50 -55 -59 0
-1 -49 -3 -55 -59 0
-1 -50 -3 -55 -60 0
-25 -47 -48 -56 -57 0
-26 -47 -49 -56 -57 0
-27 -47 -50 -56 -57 0
-1 -47 -3 -56 -57 0
-26 -48 -49 -56 -58 0
-27 -48 -50 -56 -58 0
-1 -48 -3 -56 -58 0
-27 -49 -50 -56 -59 0
-1 -49 -3 -56 -59 0
-1 -50 -3 -56 -60 0
-26 -48 -49 -57 -58 0
-27 -48 -50 -57 -58 0
-1 -48 -3 -57 -58 0
-27 -49 -50 -57 -59 0
-1 -49 -3 -57 -59 0
-1 -50 -3 -57 -60 0
-27 -49 -50 -58 -59 0
-1 -49 -3 -58 -59 0
-1 -50 -3 -58 -60 0
-1 -50 -3 -59 -60 0
-21 -43 -44 -61 -62 0
-22 -43 -45 -61 -62 0
-23 -43 -46 -61 -62 0
-24 -43 -47 -61 -62 0
-25 -43 -48 -61 -62 0
-26 -43 -49 -61 -62 0
-27 -43 -50 -61 -62 0
-1 -43 -3 -61 -62 0
-22 -44 -45 -61 -63 0
-23 -44 -46 -61 -63 0
-24 -44 -47 -61 -63 0
-25 -44 -48 -61 -63 0
-26 -44 -49 -61 -63 0
-27 -44 -50 -61 -63 0
-1 -44 -3 -61 -63 0
-23 -45 -46 -61 -64 0
-24 -45 -47 -61 -64 0
-25 -45 -48 -61 -64 0
-26 -45 -49 -61 -64 0
-27 -45 -50 -61 -64 0
-1 -45 -3 -61 -64 0
-24 -46 -47 -61 -65 0
-25 -46 -48 -61 -65 0
-26 -46 -49 -61 -65 0
-27 -46 -50 -61 -65 0
-1 -46 -3 -61 -65 0
-25 -47 -48 -61 -66 0
-26 -47 -49 -61 -66 0
-27 -47 -50 -61 -66 0
-1 -47 -3 -61 -66 0
-26 -48 -49 -61 -67 0
-27 -48 -50 -61 -67 0
-1 -48 -3 -61 -67 0
-27 -49 -50 -61 -68 0
-1 -49 -3 -61 -68 0
-1 -50 -3 -61 -69 0
-22 -44 -45 -62 -63 0
-23 -44 -46 -62 -63 0
-24 -44 -47 -62 -63 0
-25 -44 -48 -62 -63 0
-26 -44 -49 -62 -63 0
-27 -44 -50 -62 -63 0
-1 -44 -3 -62 -63 0
-23 -45 -46 -62 -64 0
-24 -45 -47 -62 -64 0
-25 -45 -48 -62 -64 0
-26 -45 -49 -62 -64 0
-27 -45 -50 -62 -64 0
-1 -45 -3 -62 -64 0
-24 -46 -47 -62 -65 0
-25 -46 -48 -62 -65 0
-26 -46 -49 -62 -65 0
-27 -46 -50 -62 -65 0
-1 -46 -3 -62 -65 0
-25 -47 -48 -62 -66 0
-26 -47 -49 -62 -66 0
-27 -47 -50 -62 -66 0
-1 -47 -3 -62 -66 0
-26 -48 -49 -62 -67 0
-27 -48 -50 -62 -67 0
-1 -48 -3 -62 -67 0
-27 -49 -50 -62 -68 0
-1 -49 -3 -62 -68 0
-1 -50 -3 -62 -69 0
-23 -45 -46 -63 -64 0
-24 -45 -47 -63 -64 0
-25 -45 -48 -63 -64 0
-26 -45 -49 -63 -64 0
-27 -45 -50 -63 -64 0
-1 -45 -3 -63 -64 0
-24 -46 -47 -63 -65 0
-25 -46 -48 -63 -65 0
-26 -46 -49 -63 -65 0
-27 -46 -50 -63 -65 0
-1 -46 -3 -63 -65 0
-25 -47 -48 -63 -66 0
-26 -47 -49 -63 -66 0
-27 -47 -50 -63 -66 0
-1 -47 -3 -63 -66 0
-26 -48 -49 -63 -67 0
-27 -48 -50 -63 -67 0
-1 -48 -3 -63 -67 0
-27 -49 -50 -63 -68 0
-1 -49 -3 -63 -68 0
-1 -50 -3 -63 -69 0
-24 -46 -47 -64 -65 0
-25 -46 -48 -64 -65 0
-26 -46 -49 -64 -65 0
-27 -46 -50 -64 -65 0
-1 -46 -3 -64 -65 0
-25 -47 -48 -64 -66 0
-26 -47 -49 -64 -66 0
-27 -47 -50 -64 -66 0
-1 -47 -3 -64 -66 0
-26 -48 -49 -64 -67 0
-27 -48 -50 -64 -67 0
-1 -48 -3 -64 -67 0
-27 -49 -50 -64 -68 0
-1 -49 -3 -64 -68 0
-1 -50 -3 -64 -69 0
-25 -47 -48 -65 -66 0
-26 -47 -49 -65 -66 0
-27 -47 -50 -65 -66 0
-1 -47 -3 -65 -66 0
-26 -48 -49 -65 -67 0
-27 -48 -50 -65 -67 0
-1 -48 -3 -65 -67 0
-27 -49 -50 -65 -68 0
-1 -49 -3 -65 -68 0
-1 -50 -3 -65 -69 0
-26 -48 -49 -66 -67 0
-27 -48 -50 -66 -67 0
-1 -48 -3 -66 -67 0
-27 -49 -50 -66 -68 0
-1 -49 -3 -66 -68 0
-1 -50 -3 -66 -69 0
-27 -49 -50 -67 -68 0
-1 -49 -3 -67 -68 0
-1 -50 -3 -67 -69 0
-1 -50 -3 -68 -69 0
-22 -44 -45 -70 -71 0
-23 -44 -46 -70 -71 0
-24 -44 -47 -70 -71 0
-25 -44 -48 -70 -71 0
-26 -44 -49 -70 -71 0
-27 -44 -50 -70 -71 0
-1 -44 -3 -70 -71 0
-23 -45 -46 -70 -72 0
-24 -45 -47 -70 -72 0
-25 -45 -48 -70 -72 0
-26 -45 -49 -70 -72 0
-27 -45 -50 -70 -72 0
-1 -45 -3 -70 -72 0
-24 -46 -47 -70 -73 0
-25 -46 -48 -70 -73 0
-26 -46 -49 -70 -73 0
-27 -46 -50 -70 -73 0
-1 -46 -3 -70 -73 0
-25 -47 -48 -70 -74 0
-26 -47 -49 -70 -74 0
-27 -47 -50 -70 -74 0
-1 -47 -3 -70 -74 0
-26 -48 -49 -70 -75 0
-27 -48 -50 -70 -75 0
-1 -48 -3 -70 -75 0
-27 -49 -50 -70 -76 0
-1 -49 -3 -70 -76 0
-1 -50 -3 -70 -77 0
-23 -45 -46 -71 -72 0
-24 -45 -47 -71 -72 0
-25 -45 -48 -71 -72 0
-26 -45 -49 -71 -72 0
-27 -45 -50 -71 -72 0
-1 -45 -3 -71 -72 0
-24 -46 -47 -71 -73 0
-25 -46 -48 -71 -73 0
-26 -46 -49 -71 -73 0
-27 -46 -50 -71 -73 0
-1 -46 -3 -71 -73 0
-25 -47 -48 -71 -74 0
-26 -47 -49 -71 -74 0
-27 -47 -50 -71 -74 0
-1 -47 -3 -71 -74 0
-26 -48 -49 -71 -75 0
-27 -48 -50 -71 -75 0
-1 -48 -3 -71 -75 0
-27 -49 -50 -71 -76 0
-1 -49 -3 -71 -76 0
-1 -50 -3 -71 -77 0
-24 -46 -47 -72 -73 0
-25 -46 -48 -72 -73 0
-26 -46 -49 -72 -73 0
-27 -46 -50 -72 -73 0
-1 -46 -3 -72 -73 0
-25 -47 -48 -72 -74 0
-26 -47 -49 -72 -74 0
-27 -47 -50 -72 -74 0
-1 -47 -3 -72 -74 0
-26 -48 -49 -72 -75 0
-27 -48 -50 -72 -75 0
-1 -48 -3 -72 -75 0
-27 -49 -50 -72 -76 0
-1 -49 -3 -72 -76 0
-1 -50 -3 -72 -77 0
-25 -47 -48 -73 -74 0
-26 -47 -49 -73 -74 0
-27 -47 -50 -73 -74 0
-1 -47 -3 -73 -74 0
-26 -48 -49 -73 -75 0
-27 -48 -50 -73 -75 0
-1 -48 -3 -73 -75 0
-27 -49 -50 -73 -76 0
-1 -49 -3 -73 -76 0
-1 -50 -3 -73 -77 0
-26 -48 -49 -74 -75 0
-27 -48 -50 -74 -75 0
-1 -48 -3 -74 -75 0
-27 -49 -50 -74 -76 0
-1 -49 -3 -74 -76 0
-1 -50 -3 -74 -77 0
-27 -49 -50 -75 -76 0
-1 -49 -3 -75 -76 0
-1 -50 -3 -75 -77 0
-1 -50 -3 -76 -77 0
-23 -45 -46 -78 -79 0
-24 -45 -47 -78 -79 0
-25 -45 -48 -78 -79 0
-26 -45 -49 -78 -79 0
-27 -45 -50 -78 -79 0
-1 -45 -3 -78 -79 0
-24 -46 -47 -78 -80 0
-25 -46 -48 -78 -80 0
-26 -46 -49 -78 -80 0
-27 -46 -50 -78 -80 0
-1 -46 -3 -78 -80 0
-25 -47 -48 -78 -81 0
-26 -47 -49 -78 -81 0
-27 -47 -50 -78 -81 0
-1 -47 -3 -78 -81 0
-26 -48 -49 -78 -82 0
-27 -48 -50 -78 -82 0
-1 -48 -3 -78 -82 0
-27 -49 -50 -78 -83 0
-1 -49 -3 -78 -83 0
-1 -50 -3 -78 -84 0
-24 -46 -47 -79 -80 0
-25 -46 -48 -79 -80 0
-26 -46 -49 -79 -80 0
-27 -46 -50 -79 -80 0
-1 -46 -3 -79 -80 0
-25 -47 -48 -79 -81 0
-26 -47 -49 -79 -81 0
-27 -47 -50 -79 -81 0
-1 -47 -3 -79 -81 0
-26 -48 -49 -79 -82 0
-27 -48 -50 -79 -82 0
-1 -48 -3 -79 -82 0
-27 -49 -50 -79 -83 0
-1 -49 -3 -79 -83 0
-1 -50 -3 -79 -84 0
-25 -47 -48 -80 -81 0
-26 -47 -49 -80 -81 0
-27 -47 -50 -80 -81 0
-1 -47 -3 -80 -81 0
-26 -48 -49 -80 -82 0
-27 -48 -50 -80 -82 0
-1 -48 -3 -80 -82 0
-27 -49 -50 -80 -83 0
-1 -49 -3 -80 -83 0
-1 -50 -3 -80 -84 0
-26 -48 -49 -81 -82 0
-27 -48 -50 -81 -82 0
-1 -48 -3 -81 -82 0
-27 -49 -50 -81 -83 0
-1 -49 -3 -81 -83 0
-1 -50 -3 -81 -84 0
-27 -49 -50 -82 -83 0
-1 -49 -3 -82 -83 0
-1 -50 -3 -82 -84 0
-1 -50 -3 -83 -84 0
-24 -46 -47 -85 -86 0
-25 -46 -48 -85 -86 0
-26 -46 -49 -85 -86 0
-27 -46 -50 -85 -86 0
-1 -46 -3 -85 -86 0
-25 -47 -48 -85 -87 0
-26 -47 -49 -85 -87 0
-27 -47 -50 -85 -87 0
-1 -47 -3 -85 -87 0
-26 -48 -49 -85 -88 0
-27 -48 -50 -85 -88 0
-1 -48 -3 -85 -88 0
-27 -49 -50 -85 -89 0
-1 -49 -3 -85 -89 0
-1 -50 -3 -85 -90 0
-25 -47 -48 -86 -87 0
-26 -47 -49 -86 -87 0
-27 -47 -50 -86 -87 0
-1 -47 -3 -86 -87 0
-26 -48 -49 -86 -88 0
-27 -48 -50 -86 -88 0
-1 -48 -3 -86 -88 0
-27 -49 -50 -86 -89 0
-1 -49 -3 -86 -89 0
-1 -50 -3 -86 -90 0
-26 -48 -49 -87 -88 0
-27 -48 -50 -87 -88 0
-1 -48 -3 -87 -88 0
-27 -49 -50 -87 -89 0
-1 -49 -3 -87 -89 0
-1 -50 -3 -87 -90 0
-27 -49 -50 -88 -89 0
-1 -49 -3 -88 -89 0
-1 -50 -3 -88 -90 0
-1 -50 -3 -89 -90 0
-25 -47 -48 -91 -92 0
-26 -47 -49 -91 -92 0
-27 -47 -50 -91 -92 0
-1 -47 -3 -91 -92 0
-26 -48 -49 -91 -93 0
-27 -48 -50 -91 -93 0
-1 -48 -3 -91 -93 0
-27 -49 -50 -91 -94 0
-1 -49 -3 -91 -94 0
-1 -50 -3 -91 -95 0
-26 -48 -49 -92 -93 0
-27 -48 -50 -92 -93 0
-1 -48 -3 -92 -93 0
-27 -49 -50 -92 -94 0
-1 -49 -3 -92 -94 0
-1 -50 -3 -92 -95 0
-27 -49 -50 -93 -94 0
-1 -49 -3 -93 -94 0
-1 -50 -3 -93 -95 0
-1 -50 -3 -94 -95 0
-26 -48 -49 -96 -97 0
-27 -48 -50 -96 -97 0
-1 -48 -3 -96 -97 0
-27 -49 -50 -96 -98 0
-1 -49 -3 -96 -98 0
-1 -50 -3 -96 -99 0
-27 -49 -50 -97 -98 0
-1 -49 -3 -97 -98 0
-1 -50 -3 -97 -99 0
-1 -50 -3 -98 -99 0
-27 -49 -50 -100 -101 0
-1 -49 -3 -100 -101 0
-1 -50 -3 -100 -102 0
-1 -50 -3 -101 -102 0
-1 -50 -3 -103 -104 0
-21 -53 -54 -61 -62 0
-22 -53 -55 -61 -62 0
-23 -53 -56 -61 -62 0
-24 -53 -57 -61 -62 0
-25 -53 -58 -61 -62 0
-26 -53 -59 -61 -62 0
-27 -53 -60 -61 -62 0
-1 -53 -4 -61 -62 0
-22 -54 -55 -61 -63 0
-23 -54 -56 -61 -63 0
-24 -54 -57 -61 -63 0
-25 -54 -58 -61 -63 0
-26 -54 -59 -61 -63 0
-27 -54 -60 -61 -63 0
-1 -54 -4 -61 -63 0
-23 -55 -56 -61 -64 0
-24 -55 -57 -61 -64 0
-25 -55 -58 -61 -64 0
-26 -55 -59 -61 -64 0
-27 -55 -60 -61 -64 0
-1 -55 -4 -61 -64 0
-24 -56 -57 -61 -65 0
-25 -56 -58 -61 -65 0
-26 -56 -59 -61 -65 0
-27 -56 -60 -61 -65 0
-1 -56 -4 -61 -65 0
-25 -57 -58 -61 -66 0
-26 -57 -59 -61 -66 0
-27 -57 -60 -61 -66 0
-1 -57 -4 -61 -66 0
-26 -58 -59 -61 -67 0
-27 -58 -60 -61 -67 0
-1 -58 -4 -61 -67 0
-27 -59 -60 -61 -68 0
-1 -59 -4 -61 -68 0
-1 -60 -4 -61 -69 0
-22 -54 -55 -62 -63 0
-23 -54 -56 -62 -63 0
-24 -54 -57 -62 -63 0
-25 -54 -58 -62 -63 0
-26 -54 -59 -62 -63 0
-27 -54 -60 -62 -63 0
-1 -54 -4 -62 -63 0
-23 -55 -56 -62 -64 0
-24 -55 -57 -62 -64 0
-25 -55 -58 -62 -64 0
-26 -55 -59 -62 -64 0
-27 -55 -60 -62 -64 0
-1 -55 -4 -62 -64 0
-24 -56 -57 -62 -65 0
-25 -56 -58 -62 -65 0
-26 -56 -59 -62 -65 0
-27 -56 -60 -62 -65 0
-1 -56 -4 -62 -65 0
-25 -57 -58 -62 -66 0
-26 -57 -59 -62 -66 0
-27 -57 -60 -62 -66 0
-1 -57 -4 -62 -66 0
-26 -58 -59 -62 -67 0
-27 -58 -60 -62 -67 0
-1 -58 -4 -62 -67 0
-27 -59 -60 -62 -68 0
-1 -59 -4 -62 -68 0
-1 -60 -4 -62 -69 0
-23 -55 -56 -63 -64 0
-24 -55 -57 -63 -64 0
-25 -55 -58 -63 -64 0
-26 -55 -59 -63 -64 0
-27 -55 -60 -63 -64 0
-1 -55 -4 -63 -64 0
-24 -56 -57 -63 -65 0
-25 -56 -58 -63 -65 0
-26 -56 -59 -63 -65 0
-27 -56 -60 -63 -65 0
-1 -56 -4 -63 -65 0
-25 -57 -58 -63 -66 0
-26 -57 -59 -63 -66 0
-27 -57 -60 -63 -66 0
-1 -57 -4 -63 -66 0
-26 -58 -59 -63 -67 0
-27 -58 -60 -63 -67 0
-1 -58 -4 -63 -67 0
-27 -59 -60 -63 -68 0
-1 -59 -4 -63 -68 0
-1 -60 -4 -63 -69 0
-24 -56 -57 -64 -65 0
-25 -56 -58 -64 -65 0
-26 -56 -59 -64 -65 0
-27 -56 -60 -64 -65 0
-1 -56 -4 -64 -65 0
-25 -57 -58 -64 -66 0
-26 -57 -59 -64 -66 0
-27 -57 -60 -64 -66 0
-1 -57 -4 -64 -66 0
-26 -58 -59 -64 -67 0
-27 -58 -60 -64 -67 0
-1 -58 -4 -64 -67 0
-27 -59 -60 -64 -68 0
-1 -59 -4 -64 -68 0
-1 -60 -4 -64 -69 0
-25 -57 -58 -65 -66 0
-26 -57 -59 -65 -66 0
-27 -57 -60 -65 -66 0
-1 -57 -4 -65 -66 0
-26 -58 -59 -65 -67 0
-27 -58 -60 -65 -67 0
-1 -58 -4 -65 -67 0
-27 -59 -60 -65 -68 0
-1 -59 -4 -65 -68 0
-1 -60 -4 -65 -69 0
-26 -58 -59 -66 -67 0
-27 -58 -60 -66 -67 0
-1 -58 -4 -66 -67 0
-27 -59 -60 -66 -68 0
-1 -59 -4 -66 -68 0
-1 -60 -4 -66 -69 0
-27 -59 -60 -67 -68 0
-1 -59 -4 -67 -68 0
-1 -60 -4 -67 -69 0
-1 -60 -4 -68 -69 0
-22 -54 -55 -70 -71 0
-23 -54 -56 -70 -71 0
-24 -54 -57 -70 -71 0
-25 -54 -58 -70 -71 0
-26 -54 -59 -70 -71 0
-27 -54 -60 -70 -71 0
-1 -54 -4 -70 -71 0
-23 -55 -56 -70 -72 0
-24 -55 -57 -70 -72 0
-25 -55 -58 -70 -72 0
-26 -55 -59 -70 -72 0
-27 -55 -60 -70 -72 0
-1 -55 -4 -70 -72 0
-24 -56 -57 -70 -73 0
-25 -56 -58 -70 -73 0
-26 -56 -59 -70 -73 0
-27 -56 -60 -70 -73 0
-1 -56 -4 -70 -73 0
-25 -57 -58 -70 -74 0
-26 -57 -59 -70 -74 0
-27 -57 -60 -70 -74 0
-1 -57 -4 -70 -74 0
-26 -58 -59 -70 -75 0
-27 -58 -60 -70 -75 0
-1 -58 -4 -70 -75 0
-27 -59 -60 -70 -76 0
-1 -59 -4 -70 -76 0
-1 -60 -4 -70 -77 0
-23 -55 -56 -71 -72 0
-24 -55 -57 -71 -72 0
-25 -55 -58 -71 -72 0
-26 -55 -59 -71 -72 0
-27 -55 -60 -71 -72 0
-1 -55 -4 -71 -72 0
-24 -56 -57 -71 -73 0
-25 -56 -58 -71 -73 0
-26 -56 -59 -71 -73 0
-27 -56 -60 -71 -73 0
-1 -56 -4 -71 -73 0
-25 -57 -58 -71 -74 0
-26 -57 -59 -71 -74 0
-27 -57 -60 -71 -74 0
-1 -57 -4 -71 -74 0
-26 -58 -59 -71 -75 0
-27 -58 -60 -71 -75 0
-1 -58 -4 -71 -75 0
-27 -59 -60 -71 -76 0
-1 -59 -4 -71 -76 0
-1 -60 -4 -71 -77 0
-24 -56 -57 -72 -73 0
-25 -56 -58 -72 -73 0
-26 -56 -59 -72 -73 0
-27 -56 -60 -72 -73 0
-1 -56 -4 -72 -73 0
-25 -57 -58 -72 -74 0
-26 -57 -59 -72 -74 0
-27 -57 -60 -72 -74 0
-1 -57 -4 -72 -74 0
-26 -58 -59 -72 -75 0
-27 -58 -60 -72 -75 0
-1 -58 -4 -72 -75 0
-27 -59 -60 -72 -76 0
-1 -59 -4 -72 -76 0
-1 -60 -4 -72 -77 0
-25 -57 -58 -73 -74 0
-26 -57 -59 -73 -74 0
-27 -57 -60 -73 -74 0
-1 -57 -4 -73 -74 0
-26 -58 -59 -73 -75 0
-27 -58 -60 -73 -75 0
-1 -58 -4 -73 -75 0
-27 -59 -60 -73 -76 0
-1 -59 -4 -73 -76 0
-1 -60 -4 -73 -77 0
-26 -58 -59 -74 -75 0
-27 -58 -60 -74 -75 0
-1 -58 -4 -74 -75 0
-27 -59 -60 -74 -76 0
-1 -59 -4 -74 -76 0
-1 -60 -4 -74 -77 0
-27 -59 -60 -75 -76 0
-1 -59 -4 -75 -76 0
-1 -60 -4 -75 -77 0
-1 -60 -4 -76 -77 0
-23 -55 -56 -78 -79 0
-24 -55 -57 -78 -79 0
-25 -55 -58 -78 -79 0
-26 -55 -59 -78 -79 0
-27 -55 -60 -78 -79 0
-1 -55 -4 -78 -79 0
-24 -56 -57 -78 -80 0
-25 -56 -58 -78 -80 0
-26 -56 -59 -78 -80 0
-27 -56 -60 -78 -80 0
-1 -56 -4 -78 -80 0
-25 -57 -58 -78 -81 0
-26 -57 -59 -78 -81 0
-27 -57 -60 -78 -81 0
-1 -57 -4 -78 -81 0
-26 -58 -59 -78 -82 0
-27 -58 -60 -78 -82 0
-1 -58 -4 -78 -82 0
-27 -59 -60 -78 -83 0
-1 -59 -4 -78 -83 0
-1 -60 -4 -78 -84 0
-24 -56 -57 -79 -80 0
-25 -56 -58 -79 -80 0
-26 -56 -59 -79 -80 0
-27 -56 -60 -79 -80 0
-1 -56 -4 -79 -80 0
-25 -57 -58 -79 -81 0
-26 -57 -59 -79 -81 0
-27 -57 -60 -79 -81 0
-1 -57 -4 -79 -81 0
-26 -58 -59 -79 -82 0
-27 -58 -60 -79 -82 0
-1 -58 -4 -79 -82 0
-27 -59 -60 -79 -83 0
-1 -59 -4 -79 -83 0
-1 -60 -4 -79 -84 0
-25 -57 -58 -80 -81 0
-26 -57 -59 -80 -81 0
-27 -57 -60 -80 -81 0
-1 -57 -4 -80 -81 0
-26 -58 -59 -80 -82 0
-27 -58 -60 -80 -82 0
-1 -58 -4 -80 -82 0
-27 -59 -60 -80 -83 0
-1 -59 -4 -80 -83 0
-1 -60 -4 -80 -84 0
-26 -58 -59 -81 -82 0
-27 -58 -60 -81 -82 0
-1 -58 -4 -81 -82 0
-27 -59 -60 -81 -83 0
-1 -59 -4 -81 -83 0
-1 -60 -4 -81 -84 0
-27 -59 -60 -82 -83 0
-1 -59 -4 -82 -83 0
-1 -60 -4 -82 -84 0
-1 -60 -4 -83 -84 0
-24 -56 -57 -85 -86 0
-25 -56 -58 -85 -86 0
-26 -56 -59 -85 -86 0
-27 -56 -60 -85 -86 0
-1 -56 -4 -85 -86 0
-25 -57 -58 -85 -87 0
-26 -57 -59 -85 -87 0
-27 -57 -60 -85 -87 0
-1 -57 -4 -85 -87 0
-26 -58 -59 -85 -88 0
-27 -58 -60 -85 -88 0
-1 -58 -4 -85 -88 0
-27 -59 -60 -85 -89 0
-1 -59 -4 -85 -89 0
-1 -60 -4 -85 -90 0
-25 -57 -58 -86 -87 0
-26 -57 -59 -86 -87 0
-27 -57 -60 -86 -87 0
-1 -57 -4 -86 -87 0
-26 -58 -59 -86 -88 0
-27 -58 -60 -86 -88 0
-1 -58 -4 -86 -88 0
-27 -59 -60 -86 -89 0
-1 -59 -4 -86 -89 0
-1 -60 -4 -86 -90 0
-26 -58 -59 -87 -88 0
-27 -58 -60 -87 -88 0
-1 -58 -4 -87 -88 0
-27 -59 -60 -87 -89 0
-1 -59 -4 -87 -89 0
-1 -60 -4 -87 -90 0
-27 -59 -60 -88 -89 0
-1 -59 -4 -88 -89 0
-1 -60 -4 -88 -90 0
-1 -60 -4 -89 -90 0
-25 -57 -58 -91 -92 0
-26 -57 -59 -91 -92 0
-27 -57 -60 -91 -92 0
-1 -57 -4 -91 -92 0
-26 -58 -59 -91 -93 0
-27 -58 -60 -91 -93 0
-1 -58 -4 -91 -93 0
-27 -59 -60 -91 -94 0
-1 -59 -4 -91 -94 0
-1 -60 -4 -91 -95 0
-26 -58 -59 -92 -93 0
-27 -58 -60 -92 -93 0
-1 -58 -4 -92 -93 0
-27 -59 -60 -92 -94 0
-1 -59 -4 -92 -94 0
-1 -60 -4 -92 -95 0
-27 -59 -60 -93 -94 0
-1 -59 -4 -93 -94 0
-1 -60 -4 -93 -95 0
-1 -60 -4 -94 -95 0
-26 -58 -59 -96 -97 0
-27 -58 -60 -96 -97 0
-1 -58 -4 -96 -97 0
-27 -59 -60 -96 -98 0
-1 -59 -4 -96 -98 0
-1 -60 -4 -96 -99 0
-27 -59 -60 -97 -98 0
-1 -59 -4 -97 -98 0
-1 -60 -4 -97 -99 0
-1 -60 -4 -98 -99 0
-27 -59 -60 -100 -101 0
-1 -59 -4 -100 -101 0
-1 -60 -4 -100 -102 0
-1 -60 -4 -101 -102 0
-1 -60 -4 -103 -104 0
-22 -63 -64 -70 -71 0
-23 -63 -65 -70 -71 0
-24 -63 -66 -70 -71 0
-25 -63 -67 -70 -71 0
-26 -63 -68 -70 -71 0
-27 -63 -69 -70 -71 0
-1 -63 -5 -70 -71 0
-23 -64 -65 -70 -72 0
-24 -64 -66 -70 -72 0
-25 -64 -67 -70 -72 0
-26 -64 -68 -70 -72 0
-27 -64 -69 -70 -72 0
-1 -64 -5 -70 -72 0
-24 -65 -66 -70 -73 0
-25 -65 -67 -70 -73 0
-26 -65 -68 -70 -73 0
-27 -65 -69 -70 -73 0
-1 -65 -5 -70 -73 0
-25 -66 -67 -70 -74 0
-26 -66 -68 -70 -74 0
-27 -66 -69 -70 -74 0
-1 -66 -5 -70 -74 0
-26 -67 -68 -70 -75 0
-27 -67 -69 -70 -75 0
-1 -67 -5 -70 -75 0
-27 -68 -69 -70 -76 0
-1 -68 -5 -70 -76 0
-1 -69 -5 -70 -77 0
-23 -64 -65 -71 -72 0
-24 -64 -66 -71 -72 0
-25 -64 -67 -71 -72 0
-26 -64 -68 -71 -72 0
-27 -64 -69 -71 -72 0
-1 -64 -5 -71 -72 0
-24 -65 -66 -71 -73 0
-25 -65 -67 -71 -73 0
-26 -65 -68 -71 -73 0
-27 -65 -69 -71 -73 0
-1 -65 -5 -71 -73 0
-25 -66 -67 -71 -74 0
-26 -66 -68 -71 -74 0
-27 -66 -69 -71 -74 0
-1 -66 -5 -71 -74 0
-26 -67 -68 -71 -75 0
-27 -67 -69 -71 -75 0
-1 -67 -5 -71 -75 0
-27 -68 -69 -71 -76 0
-1 -68 -5 -71 -76 0
-1 -69 -5 -71 -77 0
-24 -65 -66 -72 -73 0
-25 -65 -67 -72 -73 0
-26 -65 -68 -72 -73 0
-27 -65 -69 -72 -73 0
-1 -65 -5 -72 -73 0
-25 -66 -67 -72 -74 0
-26 -66 -68 -72 -74 0
-27 -66 -69 -72 -74 0
-1 -66 -5 -72 -74 0
-26 -67 -68 -72 -75 0
-27 -67 -69 -72 -75 0
-1 -67 -5 -72 -75 0
-27 -68 -69 -72 -76 0
-1 -68 -5 -72 -76 0
-1 -69 -5 -72 -77 0
-25 -66 -67 -73 -74 0
-26 -66 -68 -73 -74 0
-27 -66 -69 -73 -74 0
-1 -66 -5 -73 -74 0
-26 -67 -68 -73 -75 0
-27 -67 -69 -73 -75 0
-1 -67 -5 -73 -75 0
-27 -68 -69 -73 -76 0
-1 -68 -5 -73 -76 0
-1 -69 -5 -73 -77 0
-26 -67 -68 -74 -75 0
-27 -67 -69 -74 -75 0
-1 -67 -5 -74 -75 0
-27 -68 -69 -74 -76 0
-1 -68 -5 -74 -76 0
-1 -69 -5 -74 -77 0
-27 -68 -69 -75 -76 0
-1 -68 -5 -75 -76 0
-1 -69 -5 -75 -77 0
-1 -69 -5 -76 -77 0
-23 -64 -65 -78 -79 0
-24 -64 -66 -78 -79 0
-25 -64 -67 -78 -79 0
-26 -64 -68 -78 -79 0
-27 -64 -69 -78 -79 0
-1 -64 -5 -78 -79 0
-24 -65 -66 -78 -80 0
-25 -65 -67 -78 -80 0
-26 -65 -68 -78 -80 0
-27 -65 -69 -78 -80 0
-1 -65 -5 -78 -80 0
-25 -66 -67 -78 -81 0
-26 -66 -68 -78 -81 0
-27 -66 -69 -78 -81 0
-1 -66 -5 -78 -81 0
-26 -67 -68 -78 -82 0
-27 -67 -69 -78 -82 0
-1 -67 -5 -78 -82 0
-27 -68 -69 -78 -83 0
-1 -68 -5 -78 -83 0
-1 -69 -5 -78 -84 0
-24 -65 -66 -79 -80 0
-25 -65 -67 -79 -80 0
-26 -65 -68 -79 -80 0
-27 -65 -69 -79 -80 0
-1 -65 -5 -79 -80 0
-25 -66 -67 -79 -81 0
-26 -66 -68 -79 -81 0
-27 -66 -69 -79 -81 0
-1 -66 -5 -79 -81 0
-26 -67 -68 -79 -82 0
-27 -67 -69 -79 -82 0
-1 -67 -5 -79 -82 0
-27 -68 -69 -79 -83 0
-1 -68 -5 -79 -83 0
-1 -69 -5 -79 -84 0
-25 -66 -67 -80 -81 0
-26 -66 -68 -80 -81 0
-27 -66 -69 -80 -81 0
-1 -66 -5 -80 -81 0
-26 -67 -68 -80 -82 0
-27 -67 -69 -80 -82 0
-1 -67 -5 -80 -82 0
-27 -68 -69 -80 -83 0
-1 -68 -5 -80 -83 0
-1 -69 -5 -80 -84 0
-26 -67 -68 -81 -82 0
-27 -67 -69 -81 -82 0
-1 -67 -5 -81 -82 0
-27 -68 -69 -81 -83 0
-1 -68 -5 -81 -83 0
-1 -69 -5 -81 -84 0
-27 -68 -69 -82 -83 0
-1 -68 -5 -82 -83 0
-1 -69 -5 -82 -84 0
-1 -69 -5 -83 -84 0
-24 -65 -66 -85 -86 0
-25 -65 -67 -85 -86 0
-26 -65 -68 -85 -86 0
-27 -65 -69 -85 -86 0
-1 -65 -5 -85 -86 0
-25 -66 -67 -85 -87 0
-26 -66 -68 -85 -87 0
-27 -66 -69 -85 -87 0
-1 -66 -5 -85 -87 0
-26 -67 -68 -85 -88 0
-27 -67 -69 -85 -88 0
-1 -67 -5 -85 -88 0
-27 -68 -69 -85 -89 0
-1 -68 -5 -85 -89 0
-1 -69 -5 -85 -90 0
-25 -66 -67 -86 -87 0
-26 -66 -68 -86 -87 0
-27 -66 -69 -86 -87 0
-1 -66 -5 -86 -87 0
-26 -67 -68 -86 -88 0
-27 -67 -69 -86 -88 0
-1 -67 -5 -86 -88 0
-27 -68 -69 -86 -89 0
-1 -68 -5 -86 -89 0
-1 -69 -5 -86 -90 0
-26 -67 -68 -87 -88 0
-27 -67 -69 -87 -88 0
-1 -67 -5 -87 -88 0
-27 -68 -69 -87 -89 0
-1 -68 -5 -87 -89 0
-1 -69 -5 -87 -90 0
-27 -68 -69 -88 -89 0
-1 -68 -5 -88 -89 0
-1 -69 -5 -88 -90 0
-1 -69 -5 -89 -90 0
-25 -66 -67 -91 -92 0
-26 -66 -68 -91 -92 0
-27 -66 -69 -91 -92 0
-1 -66 -5 -91 -92 0
-26 -67 -68 -91 -93 0
-27 -67 -69 -91 -93 0
-1 -67 -5 -91 -93 0
-27 -68 -69 -91 -94 0
-1 -68 -5 -91 -94 0
-1 -69 -5 -91 -95 0
-26 -67 -68 -92 -93 0
-27 -67 -69 -92 -93 0
-1 -67 -5 -92 -93 0
-27 -68 -69 -92 -94 0
-1 -68 -5 -92 -94 0
-1 -69 -5 -92 -95 0
-27 -68 -69 -93 -94 0
-1 -68 -5 -93 -94 0
-1 -69 -5 -93 -95 0
-1 -69 -5 -94 -95 0
-26 -67 -68 -96 -97 0
-27 -67 -69 -96 -97 0
-1 -67 -5 -96 -97 0
-27 -68 -69 -96 -98 0
-1 -68 -5 -96 -98 0
-1 -69 -5 -96 -99 0
-27 -68 -69 -97 -98 0
-1 -68 -5 -97 -98 0
-1 -69 -5 -97 -99 0
-1 -69 -5 -98 -99 0
-27 -68 -69 -100 -101 0
-1 -68 -5 -100 -101 0
-1 -69 -5 -100 -102 0
-1 -69 -5 -101 -102 0
-1 -69 -5 -103 -104 0
-23 -72 -73 -78 -79 0
-24 -72 -74 -78 -79 0
-25 -72 -75 -78 -79 0
-26 -72 -76 -78 -79 0
-27 -72 -77 -78 -79 0
-1 -72 -6 -78 -79 0
-24 -73 -74 -78 -80 0
-25 -73 -75 -78 -80 0
-26 -73 -76 -78 -80 0
-27 -73 -77 -78 -80 0
-1 -73 -6 -78 -80 0
-25 -74 -75 -78 -81 0
-26 -74 -76 -78 -81 0
-27 -74 -77 -78 -81 0
-1 -74 -6 -78 -81 0
-26 -75 -76 -78 -82 0
-27 -75 -77 -78 -82 0
-1 -75 -6 -78 -82 0
-27 -76 -77 -78 -83 0
-1 -76 -6 -78 -83 0
-1 -77 -6 -78 -84 0
-24 -73 -74 -79 -80 0
-25 -73 -75 -79 -80 0
-26 -73 -76 -79 -80 0
-27 -73 -77 -79 -80 0
-1 -73 -6 -79 -80 0
-25 -74 -75 -79 -81 0
-26 -74 -76 -79 -81 0
-27 -74 -77 -79 -81 0
-1 -74 -6 -79 -81 0
-26 -75 -76 -79 -82 0
-27 -75 -77 -79 -82 0
-1 -75 -6 -79 -82 0
-27 -76 -77 -79 -83 0
-1 -76 -6 -79 -83 0
-1 -77 -6 -79 -84 0
-25 -74 -75 -80 -81 0
-26 -74 -76 -80 -81 0
-27 -74 -77 -80 -81 0
-1 -74 -6 -80 -81 0
-26 -75 -76 -80 -82 0
-27 -75 -77 -80 -82 0
-1 -75 -6 -80 -82 0
-27 -76 -77 -80 -83 0
-1 -76 -6 -80 -83 0
-1 -77 -6 -80 -84 0
-26 -75 -76 -81 -82 0
-27 -75 -77 -81 -82 0
-1 -75 -6 -81 -82 0
-27 -76 -77 -81 -83 0
-1 -76 -6 -81 -83 0
-1 -77 -6 -81 -84 0
-27 -76 -77 -82 -83 0
-1 -76 -6 -82 -83 0
-1 -77 -6 -82 -84 0
-1 -77 -6 -83 -84 0
-24 -73 -74 -85 -86 0
-25 -73 -75 -85 -86 0
-26 -73 -76 -85 -86 0
-27 -73 -77 -85 -86 0
-1 -73 -6 -85 -86 0
-25 -74 -75 -85 -87 0
-26 -74 -76 -85 -87 0
-27 -74 -77 -85 -87 0
-1 -74 -6 -85 -87 0
-26 -75 -76 -85 -88 0
-27 -75 -77 -85 -88 0
-1 -75 -6 -85 -88 0
-27 -76 -77 -85 -89 0
-1 -76 -6 -85 -89 0
-1 -77 -6 -85 -90 0
-25 -74 -75 -86 -87 0
-26 -74 -76 -86 -87 0
-27 -74 -77 -86 -87 0
-1 -74 -6 -86 -87 0
-26 -75 -76 -86 -88 0
-27 -75 -77 -86 -88 0
-1 -75 -6 -86 -88 0
-27 -76 -77 -86 -89 0
-1 -76 -6 -86 -89 0
-1 -77 -6 -86 -90 0
-26 -75 -76 -87 -88 0
-27 -75 -77 -87 -88 0
-1 -75 -6 -87 -88 0
-27 -76 -77 -87 -89 0
-1 -76 -6 -87 -89 0
-1 -77 -6 -87 -90 0
-27 -76 -77 -88 -89 0
-1 -76 -6 -88 -89 0
-1 -77 -6 -88 -90 0
-1 -77 -6 -89 -90 0
-25 -74 -75 -91 -92 0
-26 -74 -76 -91 -92 0
-27 -74 -77 -91 -92 0
-1 -74 -6 -91 -92 0
-26 -75 -76 -91 -93 0
-27 -75 -77 -91 -93 0
-1 -75 -6 -91 -93 0
-27 -76 -77 -91 -94 0
-1 -76 -6 -91 -94 0
-1 -77 -6 -91 -95 0
-26 -75 -76 -92 -93 0
-27 -75 -77 -92 -93 0
-1 -75 -6 -92 -93 0
-27 -76 -77 -92 -94 0
-1 -76 -6 -92 -94 0
-1 -77 -6 -92 -95 0
-27 -76 -77 -93 -94 0
-1 -76 -6 -93 -94 0
-1 -77 -6 -93 -95 0
-1 -77 -6 -94 -95 0
-26 -75 -76 -96 -97 0
-27 -75 -77 -96 -97 0
-1 -75 -6 -96 -97 0
-27 -76 -77 -96 -98 0
-1 -76 -6 -96 -98 0
-1 -77 -6 -96 -99 0
-27 -76 -77 -97 -98 0
-1 -76 -6 -97 -98 0
-1 -77 -6 -97 -99 0
-1 -77 -6 -98 -99 0
-27 -76 -77 -100 -101 0
-1 -76 -6 -100 -101 0
-1 -77 -6 -100 -102 0
-1 -77 -6 -101 -102 0
-1 -77 -6 -103 -104 0
-24 -80 -81 -85 -86 0
-25 -80 -82 -85 -86 0
-26 -80 -83 -85 -86 0
-27 -80 -84 -85 -86 0
-1 -80 -7 -85 -86 0
-25 -81 -82 -85 -87 0
-26 -81 -83 -85 -87 0
-27 -81 -84 -85 -87 0
-1 -81 -7 -85 -87 0
-26 -82 -83 -85 -88 0
-27 -82 -84 -85 -88 0
-1 -82 -7 -85 -88 0
-27 -83 -84 -85 -89 0
-1 -83 -7 -85 -89 0
-1 -84 -7 -85 -90 0
-25 -81 -82 -86 -87 0
-26 -81 -83 -86 -87 0
-27 -81 -84 -86 -87 0
-1 -81 -7 -86 -87 0
-26 -82 -83 -86 -88 0
-27 -82 -84 -86 -88 0
-1 -82 -7 -86 -88 0
-27 -83 -84 -86 -89 0
-1 -83 -7 -86 -89 0
-1 -84 -7 -86 -90 0
-26 -82 -83 -87 -88 0
-27 -82 -84 -87 -88 0
-1 -82 -7 -87 -88 0
-27 -83 -84 -87 -89 0
-1 -83 -7 -87 -89 0
-1 -84 -7 -87 -90 0
-27 -83 -84 -88 -89 0
-1 -83 -7 -88 -89 0
-1 -84 -7 -88 -90 0
-1 -84 -7 -89 -90 0
-25 -81 -82 -91 -92 0
-26 -81 -83 -91 -92 0
-27 -81 -84 -91 -92 0
-1 -81 -7 -91 -92 0
-26 -82 -83 -91 -93 0
-27 -82 -84 -91 -93 0
-1 -82 -7 -91 -93 0
-27 -83 -84 -91 -94 0
-1 -83 -7 -91 -94 0
-1 -84 -7 -91 -95 0
-26 -82 -83 -92 -93 0
-27 -82 -84 -92 -93 0
-1 -82 -7 -92 -93 0
-27 -83 -84 -92 -94 0
-1 -83 -7 -92 -94 0
-1 -84 -7 -92 -95 0
-27 -83 -84 -93 -94 0
-1 -83 -7 -93 -94 0
-1 -84 -7 -93 -95 0
-1 -84 -7 -94 -95 0
-26 -82 -83 -96 -97 0
-27 -82 -84 -96 -97 0
-1 -82 -7 -96 -97 0
-27 -83 -84 -96 -98 0
-1 -83 -7 -96 -98 0
-1 -84 -7 -96 -99 0
-27 -83 -84 -97 -98 0
-1 -83 -7 -97 -98 0
-1 -84 -7 -97 -99 0
-1 -84 -7 -98 -99 0
-27 -83 -84 -100 -101 0
-1 -83 -7 -100 -101 0
-1 -84 -7 -100 -102 0
-1 -84 -7 -101 -102 0
-1 -84 -7 -103 -104 0
-25 -87 -88 -91 -92 0
-26 -87 -89 -91 -92 0
-27 -87 -90 -91 -92 0
-1 -87 -8 -91 -92 0
-26 -88 -89 -91 -93 0
-27 -88 -90 -91 -93 0
-1 -88 -8 -91 -93 0
-27 -89 -90 -91 -94 0
-1 -89 -8 -91 -94 0
-1 -90 -8 -91 -95 0
-26 -88 -89 -92 -93 0
-27 -88 -90 -92 -93 0
-1 -88 -8 -92 -93 0
-27 -89 -90 -92 -94 0
-1 -89 -8 -92 -94 0
-1 -90 -8 -92 -95 0
-27 -89 -90 -93 -94 0
-1 -89 -8 -93 -94 0
-1 -90 -8 -93 -95 0
-1 -90 -8 -94 -95 0
-26 -88 -89 -96 -97 0
-27 -88 -90 -96 -97 0
-1 -88 -8 -96 -97 0
-27 -89 -90 -96 -98 0
-1 -89 -8 -96 -98 0
-1 -90 -8 -96 -99 0
-27 -89 -90 -97 -98 0
-1 -89 -8 -97 -98 0
-1 -90 -8 -97 -99 0
-1 -90 -8 -98 -99 0
-27 -89 -90 -100 -101 0
-1 -89 -8 -100 -101 0
-1 -90 -8 -100 -102 0
-1 -90 -8 -101 -102 0
-1 -90 -8 -103 -104 0
-26 -93 -94 -96 -97 0
-27 -93 -95 -96 -97 0
-1 -93 -9 -96 -97 0
-27 -94 -95 -96 -98 0
-1 -94 -9 -96 -98 0
-1 -95 -9 -96 -99 0
-27 -94 -95 -97 -98 0
-1 -94 -9 -97 -98 0
-1 -95 -9 -97 -99 0
-1 -95 -9 -98 -99 0
-27 -94 -95 -100 -101 0
-1 -94 -9 -100 -101 0
-1 -95 -9 -100 -102 0
-1 -95 -9 -101 -102 0
-1 -95 -9 -103 -104 0
-27 -98 -99 -100 -101 0
-1 -98 -10 -100 -101 0
-1 -99 -10 -100 -102 0
-1 -99 -10 -101 -102 0
-1 -99 -10 -103 -104 0
-1 -102 -11 -103 -104 0
-32 -42 -43 -51 -52 0
-33 -42 -44 -51 -52 0
-34 -42 -45 -51 -52 0
-35 -42 -46 -51 -52 0
-36 -42 -47 -51 -52 0
-37 -42 -48 -51 -52 0
-38 -42 -49 -51 -52 0
-39 -42 -50 -51 -52 0
-2 -42 -3 -51 -52 0
-15 -42 -16 -51 -52 0
-33 -43 -44 -51 -53 0
-34 -43 -45 -51 -53 0
-35 -43 -46 -51 -53 0
-36 -43 -47 -51 -53 0
-37 -43 -48 -51 -53 0
-38 -43 -49 -51 -53 0
-39 -43 -50 -51 -53 0
-2 -43 -3 -51 -53 0
-15 -43 -16 -51 -53 0
-34 -44 -45 -51 -54 0
-35 -44 -46 -51 -54 0
-36 -44 -47 -51 -54 0
-37 -44 -48 -51 -54 0
-38 -44 -49 -51 -54 0
-39 -44 -50 -51 -54 0
-2 -44 -3 -51 -54 0
-15 -44 -16 -51 -54 0
-35 -45 -46 -51 -55 0
-36 -45 -47 -51 -55 0
-37 -45 -48 -51 -55 0
-38 -45 -49 -51 -55 0
-39 -45 -50 -51 -55 0
-2 -45 -3 -51 -55 0
-15 -45 -16 -51 -55 0
-36 -46 -47 -51 -56 0
-37 -46 -48 -51 -56 0
-38 -46 -49 -51 -56 0
-39 -46 -50 -51 -56 0
-2 -46 -3 -51 -56 0
-15 -46 -16 -51 -56 0
-37 -47 -48 -51 -57 0
-38 -47 -49 -51 -57 0
-39 -47 -50 -51 -57 0
-2 -47 -3 -51 -57 0
-15 -47 -16 -51 -57 0
-38 -48 -49 -51 -58 0
-39 -48 -50 -51 -58 0
-2 -48 -3 -51 -58 0
-15 -48 -16 -51 -58 0
-39 -49 -50 -51 -59 0
-2 -49 -3 -51 -59 0
-15 -49 -16 -51 -59 0
-2 -50 -3 -51 -60 0
-15 -50 -16 -51 -60 0
-15 -3 -16 -51 -4 0
-33 -43 -44 -52 -53 0
-34 -43 -45 -52 -53 0
-35 -43 -46 -52 -53 0
-36 -43 -47 -52 -53 0
-37 -43 -48 -52 -53 0
-38 -43 -49 -52 -53 0
-39 -43 -50 -52 -53 0
-2 -43 -3 -52 -53 0
-15 -43 -16 -52 -53 0
-34 -44 -45 -52 -54 0
-35 -44 -46 -52 -54 0
-36 -44 -47 -52 -54 0
-37 -44 -48 -52 -54 0
-38 -44 -49 -52 -54 0
-39 -44 -50 -52 -54 0
-2 -44 -3 -52 -54 0
-15 -44 -16 -52 -54 0
-35 -45 -46 -52 -55 0
-36 -45 -47 -52 -55 0
-37 -45 -48 -52 -55 0
-38 -45 -49 -52 -55 0
-39 -45 -50 -52 -55 0
-2 -45 -3 -52 -55 0
-15 -45 -16 -52 -55 0
-36 -46 -47 -52 -56 0
-37 -46 -48 -52 -56 0
-38 -46 -49 -52 -56 0
-39 -46 -50 -52 -56 0
-2 -46 -3 -52 -56 0
-15 -46 -16 -52 -56 0
-37 -47 -48 -52 -57 0
-38 -47 -49 -52 -57 0
-39 -47 -50 -52 -57 0
-2 -47 -3 -52 -57 0
-15 -47 -16 -52 -57 0
-38 -48 -49 -52 -58 0
-39 -48 -50 -52 -58 0
-2 -48 -3 -52 -58 0
-15 -48 -16 -52 -58 0
-39 -49 -50 -52 -59 0
-2 -49 -3 -52 -59 0
-15 -49 -16 -52 -59 0
-2 -50 -3 -52 -60 0
-15 -50 -16 -52 -60 0
-15 -3 -16 -52 -4 0
-34 -44 -45 -53 -54 0
-35 -44 -46 -53 -54 0
-36 -44 -47 -53 -54 0
-37 -44 -48 -53 -54 0
-38 -44 -49 -53 -54 0
-39 -44 -50 -53 -54 0
-2 -44 -3 -53 -54 0
-15 -44 -16 -53 -54 0
-35 -45 -46 -53 -55 0
-36 -45 -47 -53 -55 0
-37 -45 -48 -53 -55 0
-38 -45 -49 -53 -55 0
-39 -45 -50 -53 -55 0
-2 -45 -3 -53 -55 0
-15 -45 -16 -53 -55 0
-36 -46 -47 -53 -56 0
-37 -46 -48 -53 -56 0
-38 -46 -49 -53 -56 0
-39 -46 -50 -53 -56 0
-2 -46 -3 -53 -56 0
-15 -46 -16 -53 -56 0
-37 -47 -48 -53 -57 0
-38 -47 -49 -53 -57 0
-39 -47 -50 -53 -57 0
-2 -47 -3 -53 -57 0
-15 -47 -16 -53 -57 0
-38 -48 -49 -53 -58 0
-39 -48 -50 -53 -58 0
-2 -48 -3 -53 -58 0
-15 -48 -16 -53 -58 0
-39 -49 -50 -53 -59 0
-2 -49 -3 -53 -59 0
-15 -49 -16 -53 -59 0
-2 -50 -3 -53 -60 0
-15 -50 -16 -53 -60 0
-15 -3 -16 -53 -4 0
-35 -45 -46 -54 -55 0
-36 -45 -47 -54 -55 0
-37 -45 -48 -54 -55 0
-38 -45 -49 -54 -55 0
-39 -45 -50 -54 -55 0
-2 -45 -3 -54 -55 0
-15 -45 -16 -54 -55 0
-36 -46 -47 -54 -56 0
-37 -46 -48 -54 -56 0
-38 -46 -49 -54 -56 0
-39 -46 -50 -54 -56 0
-2 -46 -3 -54 -56 0
-15 -46 -16 -54 -56 0
-37 -47 -48 -54 -57 0
-38 -47 -49 -54 -57 0
-39 -47 -50 -54 -57 0
-2 -47 -3 -54 -57 0
-15 -47 -16 -54 -57 0
-38 -48 -49 -54 -58 0
-39 -48 -50 -54 -58 0
-2 -48 -3 -54 -58 0
-15 -48 -16 -54 -58 0
-39 -49 -50 -54 -59 0
-2 -49 -3 -54 -59 0
-15 -49 -16 -54 -59 0
-2 -50 -3 -54 -60 0
-15 -50 -16 -54 -60 0
-15 -3 -16 -54 -4 0
-36 -46 -47 -55 -56 0
-37 -46 -48 -55 -56 0
-38 -46 -49 -55 -56 0
-39 -46 -50 -55 -56 0
-2 -46 -3 -55 -56 0
-15 -46 -16 -55 -56 0
-37 -47 -48 -55 -57 0
-38 -47 -49 -55 -57 0
-39 -47 -50 -55 -57 0
-2 -47 -3 -55 -57 0
-15 -47 -16 -55 -57 0
-38 -48 -49 -55 -58 0
-39 -48 -50 -55 -58 0
-2 -48 -3 -55 -58 0
-15 -48 -16 -55 -58 0
-39 -49 -50 -55 -59 0
-2 -49 -3 -55 -59 0
-15 -49 -16 -55 -59 0
-2 -50 -3 -55 -60 0
-15 -50 -16 -55 -60 0
-15 -3 -16 -55 -4 0
-37 -47 -48 -56 -57 0
-38 -47 -49 -56 -57 0
-39 -47 -50 -56 -57 0
-2 -47 -3 -56 -57 0
-15 -47 -16 -56 -57 0
-38 -48 -49 -56 -58 0
-39 -48 -50 -56 -58 0
-2 -48 -3 -56 -58 0
-15 -48 -16 -56 -58 0
-39 -49 -50 -56 -59 0
-2 -49 -3 -56 -59 0
-15 -49 -16 -56 -59 0
-2 -50 -3 -56 -60 0
-15 -50 -16 -56 -60 0
-15 -3 -16 -56 -4 0
-38 -48 -49 -57 -58 0
-39 -48 -50 -57 -58 0
-2 -48 -3 -57 -58 0
-15 -48 -16 -57 -58 0
-39 -49 -50 -57 -59 0
-2 -49 -3 -57 -59 0
-15 -49 -16 -57 -59 0
-2 -50 -3 -57 -60 0
-15 -50 -16 -57 -60 0
-15 -3 -16 -57 -4 0
-39 -49 -50 -58 -59 0
-2 -49 -3 -58 -59 0
-15 -49 -16 -58 -59 0
-2 -50 -3 -58 -60 0
-15 -50 -16 -58 -60 0
-15 -3 -16 -58 -4 0
-2 -50 -3 -59 -60 0
-15 -50 -16 -59 -60 0
-15 -3 -16 -59 -4 0
-15 -3 -16 -60 -4 0
-33 -43 -44 -61 -62 0
-34 -43 -45 -61 -62 0
-35 -43 -46 -61 -62 0
-36 -43 -47 -61 -62 0
-37 -43 -48 -61 -62 0
-38 -43 -49 -61 -62 0
-39 -43 -50 -61 -62 0
-2 -43 -3 -61 -62 0
-15 -43 -16 -61 -62 0
-34 -44 -45 -61 -63 0
-35 -44 -46 -61 -63 0
-36 -44 -47 -61 -63 0
-37 -44 -48 -61 -63 0
-38 -44 -49 -61 -63 0
-39 -44 -50 -61 -63 0
-2 -44 -3 -61 -63 0
-15 -44 -16 -61 -63 0
-35 -45 -46 -61 -64 0
-36 -45 -47 -61 -64 0
-37 -45 -48 -61 -64 0
-38 -45 -49 -61 -64 0
-39 -45 -50 -61 -64 0
-2 -45 -3 -61 -64 0
-15 -45 -16 -61 -64 0
-36 -46 -47 -61 -65 0
-37 -46 -48 -61 -65 0
-38 -46 -49 -61 -65 0
-39 -46 -50 -61 -65 0
-2 -46 -3 -61 -65 0
-15 -46 -16 -61 -65 0
-37 -47 -48 -61 -66 0
-38 -47 -49 -61 -66 0
-39 -47 -50 -61 -66 0
-2 -47 -3 -61 -66 0
-15 -47 -16 -61 -66 0
-38 -48 -49 -61 -67 0
-39 -48 -50 -61 -67 0
-2 -48 -3 -61 -67 0
-15 -48 -16 -61 -67 0
-39 -49 -50 -61 -68 0
-2 -49 -3 -61 -68 0
-15 -49 -16 -61 -68 0
-2 -50 -3 -61 -69 0
-15 -50 -16 -61 -69 0
-15 -3 -16 -61 -5 0
-34 -44 -45 -62 -63 0
-35 -44 -46 -62 -63 0
-36 -44 -47 -62 -63 0
-37 -44 -48 -62 -63 0
-38 -44 -49 -62 -63 0
-39 -44 -50 -62 -63 0
-2 -44 -3 -62 -63 0
-15 -44 -16 -62 -63 0
-35 -45 -46 -62 -64 0
-36 -45 -47 -62 -64 0
-37 -45 -48 -62 -64 0
-38 -45 -49 -62 -64 0
-39 -45 -50 -62 -64 0
-2 -45 -3 -62 -64 0
-15 -45 -16 -62 -64 0
-36 -46 -47 -62 -65 0
-37 -46 -48 -62 -65 0
-38 -46 -49 -62 -65 0
-39 -46 -50 -62 -65 0
-2 -46 -3 -62 -65 0
-15 -46 -16 -62 -65 0
-37 -47 -48 -62 -66 0
-38 -47 -49 -62 -66 0
-39 -47 -50 -62 -66 0
-2 -47 -3 -62 -66 0
-15 -47 -16 -62 -66 0
-38 -48 -49 -62 -67 0
-39 -48 -50 -62 -67 0
-2 -48 -3 -62 -67 0
-15 -48 -16 -62 -67 0
-39 -49 -50 -62 -68 0
-2 -49 -3 -62 -68 0
-15 -49 -16 -62 -68 0
-2 -50 -3 -62 -69 0
-15 -50 -16 -62 -69 0
-15 -3 -16 -62 -5 0
-35 -45 -46 -63 -64 0
-36 -45 -47 -63 -64 0
-37 -45 -48 -63 -64 0
-38 -45 -49 -63 -64 0
-39 -45 -50 -63 -64 0
-2 -45 -3 -63 -64 0
-15 -45 -16 -63 -64 0
-36 -46 -47 -63 -65 0
-37 -46 -48 -63 -65 0
-38 -46 -49 -63 -65 0
-39 -46 -50 -63 -65 0
-2 -46 -3 -63 -65 0
-15 -46 -16 -63 -65 0
-37 -47 -48 -63 -66 0
-38 -47 -49 -63 -66 0
-39 -47 -50 -63 -66 0
-2 -47 -3 -63 -66 0
-15 -47 -16 -63 -66 0
-38 -48 -49 -63 -67 0
-39 -48 -50 -63 -67 0
-2 -48 -3 -63 -67 0
-15 -48 -16 -63 -67 0
-39 -49 -50 -63 -68 0
-2 -49 -3 -63 -68 0
-15 -49 -16 -63 -68 0
-2 -50 -3 -63 -69 0
-15 -50 -16 -63 -69 0
-15 -3 -16 -63 -5 0
-36 -46 -47 -64 -65 0
-37 -46 -48 -64 -65 0
-38 -46 -49 -64 -65 0
-39 -46 -50 -64 -65 0
-2 -46 -3 -64 -65 0
-15 -46 -16 -64 -65 0
-37 -47 -48 -64 -66 0
-38 -47 -49 -64 -66 0
-39 -47 -50 -64 -66 0
-2 -47 -3 -64 -66 0
-15 -47 -16 -64 -66 0
-38 -48 -49 -64 -67 0
-39 -48 -50 -64 -67 0
-2 -48 -3 -64 -67 0
-15 -48 -16 -64 -67 0
-39 -49 -50 -64 -68 0
-2 -49 -3 -64 -68 0
-15 -49 -16 -64 -68 0
-2 -50 -3 -64 -69 0
-15 -50 -16 -64 -69 0
-15 -3 -16 -64 -5 0
-37 -47 -48 -65 -66 0
-38 -47 -49 -65 -66 0
-39 -47 -50 -65 -66 0
-2 -47 -3 -65 -66 0
-15 -47 -16 -65 -66 0
-38 -48 -49 -65 -67 0
-39 -48 -50 -65 -67 0
-2 -48 -3 -65 -67 0
-15 -48 -16 -65 -67 0
-39 -49 -50 -65 -68 0
-2 -49 -3 -65 -68 0
-15 -49 -16 -65 -68 0
-2 -50 -3 -65 -69 0
-15 -50 -16 -65 -69 0
-15 -3 -16 -65 -5 0
-38 -48 -49 -66 -67 0
-39 -48 -50 -66 -67 0
-2 -48 -3 -66 -67 0
-15 -48 -16 -66 -67 0
-39 -49 -50 -66 -68 0
-2 -49 -3 -66 -68 0
-15 -49 -16 -66 -68 0
-2 -50 -3 -66 -69 0
-15 -50 -16 -66 -69 0
-15 -3 -16 -66 -5 0
-39 -49 -50 -67 -68 0
-2 -49 -3 -67 -68 0
-15 -49 -16 -67 -68 0
-2 -50 -3 -67 -69 0
-15 -50 -16 -67 -69 0
-15 -3 -16 -67 -5 0
-2 -50 -3 -68 -69 0
-15 -50 -16 -68 -69 0
-15 -3 -16 -68 -5 0
-15 -3 -16 -69 -5 0
-34 -44 -45 -70 -71 0
-35 -44 -46 -70 -71 0
-36 -44 -47 -70 -71 0
-37 -44 -48 -70 -71 0
-38 -44 -49 -70 -71 0
-39 -44 -50 -70 -71 0
-2 -44 -3 -70 -71 0
-15 -44 -16 -70 -71 0
-35 -45 -46 -70 -72 0
-36 -45 -47 -70 -72 0
-37 -45 -48 -70 -72 0
-38 -45 -49 -70 -72 0
-39 -45 -50 -70 -72 0
-2 -45 -3 -70 -72 0
-15 -45 -16 -70 -72 0
-36 -46 -47 -70 -73 0
-37 -46 -48 -70 -73 0
-38 -46 -49 -70 -73 0
-39 -46 -50 -70 -73 0
-2 -46 -3 -70 -73 0
-15 -46 -16 -70 -73 0
-37 -47 -48 -70 -74 0
-38 -47 -49 -70 -74 0
-39 -47 -50 -70 -74 0
-2 -47 -3 -70 -74 0
-15 -47 -16 -70 -74 0
-38 -48 -49 -70 -75 0
-39 -48 -50 -70 -75 0
-2 -48 -3 -70 -75 0
-15 -48 -16 -70 -75 0
-39 -49 -50 -70 -76 0
-2 -49 -3 -70 -76 0
-15 -49 -16 -70 -76 0
-2 -50 -3 -70 -77 0
-15 -50 -16 -70 -77 0
-15 -3 -16 -70 -6 0
-35 -45 -46 -71 -72 0
-36 -45 -47 -71 -72 0
-37 -45 -48 -71 -72 0
-38 -45 -49 -71 -72 0
-39 -45 -50 -71 -72 0
-2 -45 -3 -71 -72 0
-15 -45 -16 -71 -72 0
-36 -46 -47 -71 -73 0
-37 -46 -48 -71 -73 0
-38 -46 -49 -71 -73 0
-39 -46 -50 -71 -73 0
-2 -46 -3 -71 -73 0
-15 -46 -16 -71 -73 0
-37 -47 -48 -71 -74 0
-38 -47 -49 -71 -74 0
-39 -47 -50 -71 -74 0
-2 -47 -3 -71 -74 0
-15 -47 -16 -71 -74 0
-38 -48 -49 -71 -75 0
-39 -48 -50 -71 -75 0
-2 -48 -3 -71 -75 0
-15 -48 -16 -71 -75 0
-39 -49 -50 -71 -76 0
-2 -49 -3 -71 -76 0
-15 -49 -16 -71 -76 0
-2 -50 -3 -71 -77 0
-15 -50 -16 -71 -77 0
-15 -3 -16 -71 -6 0
-36 -46 -47 -72 -73 0
-37 -46 -48 -72 -73 0
-38 -46 -49 -72 -73 0
-39 -46 -50 -72 -73 0
-2 -46 -3 -72 -73 0
-15 -46 -16 -72 -73 0
-37 -47 -48 -72 -74 0
-38 -47 -49 -72 -74 0
-39 -47 -50 -72 -74 0
-2 -47 -3 -72 -74 0
-15 -47 -16 -72 -74 0
-38 -48 -49 -72 -75 0
-39 -48 -50 -72 -75 0
-2 -48 -3 -72 -75 0
-15 -48 -16 -72 -75 0
-39 -49 -50 -72 -76 0
-2 -49 -3 -72 -76 0
-15 -49 -16 -72 -76 0
-2 -50 -3 -72 -77 0
-15 -50 -16 -72 -77 0
-15 -3 -16 -72 -6 0
-37 -47 -48 -73 -74 0
-38 -47 -49 -73 -74 0
-39 -47 -50 -73 -74 0
-2 -47 -3 -73 -74 0
-15 -47 -16 -73 -74 0
-38 -48 -49 -73 -75 0
-39 -48 -50 -73 -75 0
-2 -48 -3 -73 -75 0
-15 -48 -16 -73 -75 0
-39 -49 -50 -73 -76 0
-2 -49 -3 -73 -76 0
-15 -49 -16 -73 -76 0
-2 -50 -3 -73 -77 0
-15 -50 -16 -73 -77 0
-15 -3 -16 -73 -6 0
-38 -48 -49 -74 -75 0
-39 -48 -50 -74 -75 0
-2 -48 -3 -74 -75 0
-15 -48 -16 -74 -75 0
-39 -49 -50 -74 -76 0
-2 -49 -3 -74 -76 0
-15 -49 -16 -74 -76 0
-2 -50 -3 -74 -77 0
-15 -50 -16 -74 -77 0
-15 -3 -16 -74 -6 0
-39 -49 -50 -75 -76 0
-2 -49 -3 -75 -76 0
-15 -49 -16 -75 -76 0
-2 -50 -3 -75 -77 0
-15 -50 -16 -75 -77 0
-15 -3 -16 -75 -6 0
-2 -50 -3 -76 -77 0
-15 -50 -16 -76 -77 0
-15 -3 -16 -76 -6 0
-15 -3 -16 -77 -6 0
-35 -45 -46 -78 -79 0
-36 -45 -47 -78 -79 0
-37 -45 -48 -78 -79 0
-38 -45 -49 -78 -79 0
-39 -45 -50 -78 -79 0
-2 -45 -3 -78 -79 0
-15 -45 -16 -78 -79 0
-36 -46 -47 -78 -80 0
-37 -46 -48 -78 -80 0
-38 -46 -49 -78 -80 0
-39 -46 -50 -78 -80 0
-2 -46 -3 -78 -80 0
-15 -46 -16 -78 -80 0
-37 -47 -48 -78 -81 0
-38 -47 -49 -78 -81 0
-39 -47 -50 -78 -81 0
-2 -47 -3 -78 -81 0
-15 -47 -16 -78 -81 0
-38 -48 -49 -78 -82 0
-39 -48 -50 -78 -82 0
-2 -48 -3 -78 -82 0
-15 -48 -16 -78 -82 0
-39 -49 -50 -78 -83 0
-2 -49 -3 -78 -83 0
-15 -49 -16 -78 -83 0
-2 -50 -3 -78 -84 0
-15 -50 -16 -78 -84 0
-15 -3 -16 -78 -7 0
-36 -46 -47 -79 -80 0
-37 -46 -48 -79 -80 0
-38 -46 -49 -79 -80 0
-39 -46 -50 -79 -80 0
-2 -46 -3 -79 -80 0
-15 -46 -16 -79 -80 0
-37 -47 -48 -79 -81 0
-38 -47 -49 -79 -81 0
-39 -47 -50 -79 -81 0
-2 -47 -3 -79 -81 0
-15 -47 -16 -79 -81 0
-38 -48 -49 -79 -82 0
-39 -48 -50 -79 -82 0
-2 -48 -3 -79 -82 0
-15 -48 -16 -79 -82 0
-39 -49 -50 -79 -83 0
-2 -49 -3 -79 -83 0
-15 -49 -16 -79 -83 0
-2 -50 -3 -79 -84 0
-15 -50 -16 -79 -84 0
-15 -3 -16 -79 -7 0
-37 -47 -48 -80 -81 0
-38 -47 -49 -80 -81 0
-39 -47 -50 -80 -81 0
-2 -47 -3 -80 -81 0
-15 -47 -16 -80 -81 0
-38 -48 -49 -80 -82 0
-39 -48 -50 -80 -82 0
-2 -48 -3 -80 -82 0
-15 -48 -16 -80 -82 0
-39 -49 -50 -80 -83 0
-2 -49 -3 -80 -83 0
-15 -49 -16 -80 -83 0
-2 -50 -3 -80 -84 0
-15 -50 -16 -80 -84 0
-15 -3 -16 -80 -7 0
-38 -48 -49 -81 -82 0
-39 -48 -50 -81 -82 0
-2 -48 -3 -81 -82 0
-15 -48 -16 -81 -82 0
-39 -49 -50 -81 -83 0
-2 -49 -3 -81 -83 0
-15 -49 -16 -81 -83 0
-2 -50 -3 -81 -84 0
-15 -50 -16 -81 -84 0
-15 -3 -16 -81 -7 0
-39 -49 -50 -82 -83 0
-2 -49 -3 -82 -83 0
-15 -49 -16 -82 -83 0
-2 -50 -3 -82 -84 0
-15 -50 -16 -82 -84 0
-15 -3 -16 -82 -7 0
-2 -50 -3 -83 -84 0
-15 -50 -16 -83 -84 0
-15 -3 -16 -83 -7 0
-15 -3 -16 -84 -7 0
-36 -46 -47 -85 -86 0
-37 -46 -48 -85 -86 0
-38 -46 -49 -85 -86 0
-39 -46 -50 -85 -86 0
-2 -46 -3 -85 -86 0
-15 -46 -16 -85 -86 0
-37 -47 -48 -85 -87 0
-38 -47 -49 -85 -87 0
-39 -47 -50 -85 -87 0
-2 -47 -3 -85 -87 0
-15 -47 -16 -85 -87 0
-38 -48 -49 -85 -88 0
-39 -48 -50 -85 -88 0
-2 -48 -3 -85 -88 0
-15 -48 -16 -85 -88 0
-39 -49 -50 -85 -89 0
-2 -49 -3 -85 -89 0
-15 -49 -16 -85 -89 0
-2 -50 -3 -85 -90 0
-15 -50 -16 -85 -90 0
-15 -3 -16 -85 -8 0
-37 -47 -48 -86 -87 0
-38 -47 -49 -86 -87 0
-39 -47 -50 -86 -87 0
-2 -47 -3 -86 -87 0
-15 -47 -16 -86 -87 0
-38 -48 -49 -86 -88 0
-39 -48 -50 -86 -88 0
-2 -48 -3 -86 -88 0
-15 -48 -16 -86 -88 0
-39 -49 -50 -86 -89 0
-2 -49 -3 -86 -89 0
-15 -49 -16 -86 -89 0
-2 -50 -3 -86 -90 0
-15 -50 -16 -86 -90 0
-15 -3 -16 -86 -8 0
-38 -48 -49 -87 -88 0
-39 -48 -50 -87 -88 0
-2 -48 -3 -87 -88 0
-15 -48 -16 -87 -88 0
-39 -49 -50 -87 -89 0
-2 -49 -3 -87 -89 0
-15 -49 -16 -87 -89 0
-2 -50 -3 -87 -90 0
-15 -50 -16 -87 -90 0
-15 -3 -16 -87 -8 0
-39 -49 -50 -88 -89 0
-2 -49 -3 -88 -89 0
-15 -49 -16 -88 -89 0
-2 -50 -3 -88 -90 0
-15 -50 -16 -88 -90 0
-15 -3 -16 -88 -8 0
-2 -50 -3 -89 -90 0
-15 -50 -16 -89 -90 0
-15 -3 -16 -89 -8 0
-15 -3 -16 -90 -8 0
-37 -47 -48 -91 -92 0
-38 -47 -49 -91 -92 0
-39 -47 -50 -91 -92 0
-2 -47 -3 -91 -92 0
-15 -47 -16 -91 -92 0
-38 -48 -49 -91 -93 0
-39 -48 -50 -91 -93 0
-2 -48 -3 -91 -93 0
-15 -48 -16 -91 -93 0
-39 -49 -50 -91 -94 0
-2 -49 -3 -91 -94 0
-15 -49 -16 -91 -94 0
-2 -50 -3 -91 -95 0
-15 -50 -16 -91 -95 0
-15 -3 -16 -91 -9 0
-38 -48 -49 -92 -93 0
-39 -48 -50 -92 -93 0
-2 -48 -3 -92 -93 0
-15 -48 -16 -92 -93 0
-39 -49 -50 -92 -94 0
-2 -49 -3 -92 -94 0
-15 -49 -16 -92 -94 0
-2 -50 -3 -92 -95 0
-15 -50 -16 -92 -95 0
-15 -3 -16 -92 -9 0
-39 -49 -50 -93 -94 0
-2 -49 -3 -93 -94 0
-15 -49 -16 -93 -94 0
-2 -50 -3 -93 -95 0
-15 -50 -16 -93 -95 0
-15 -3 -16 -93 -9 0
-2 -50 -3 -94 -95 0
-15 -50 -16 -94 -95 0
-15 -3 -16 -94 -9 0
-15 -3 -16 -95 -9 0
-38 -48 -49 -96 -97 0
-39 -48 -50 -96 -97 0
-2 -48 -3 -96 -97 0
-15 -48 -16 -96 -97 0
-39 -49 -50 -96 -98 0
-2 -49 -3 -96 -98 0
-15 -49 -16 -96 -98 0
-2 -50 -3 -96 -99 0
-15 -50 -16 -96 -99 0
-15 -3 -16 -96 -10 0
-39 -49 -50 -97 -98 0
-2 -49 -3 -97 -98 0
-15 -49 -16 -97 -98 0
-2 -50 -3 -97 -99 0
-15 -50 -16 -97 -99 0
-15 -3 -16 -97 -10 0
-2 -50 -3 -98 -99 0
-15 -50 -16 -98 -99 0
-15 -3 -16 -98 -10 0
-15 -3 -16 -99 -10 0
-39 -49 -50 -100 -101 0
-2 -49 -3 -100 -101 0
-15 -49 -16 -100 -101 0
-2 -50 -3 -100 -102 0
-15 -50 -16 -100 -102 0
-15 -3 -16 -100 -11 0
-2 -50 -3 -101 -102 0
-15 -50 -16 -101 -102 0
-15 -3 -16 -101 -11 0
-15 -3 -16 -102 -11 0
-2 -50 -3 -103 -104 0
-15 -50 -16 -103 -104 0
-15 -3 -16 -103 -12 0
-15 -3 -16 -104 -12 0
-15 -3 -16 -105 -13 0
-33 -53 -54 -61 -62 0
-34 -53 -55 -61 -62 0
-35 -53 -56 -61 -62 0
-36 -53 -57 -61 -62 0
-37 -53 -58 -61 -62 0
-38 -53 -59 -61 -62 0
-39 -53 -60 -61 -62 0
-2 -53 -4 -61 -62 0
-15 -53 -17 -61 -62 0
-34 -54 -55 -61 -63 0
-35 -54 -56 -61 -63 0
-36 -54 -57 -61 -63 0
-37 -54 -58 -61 -63 0
-38 -54 -59 -61 -63 0
-39 -54 -60 -61 -63 0
-2 -54 -4 -61 -63 0
-15 -54 -17 -61 -63 0
-35 -55 -56 -61 -64 0
-36 -55 -57 -61 -64 0
-37 -55 -58 -61 -64 0
-38 -55 -59 -61 -64 0
-39 -55 -60 -61 -64 0
-2 -55 -4 -61 -64 0
-15 -55 -17 -61 -64 0
-36 -56 -57 -61 -65 0
-37 -56 -58 -61 -65 0
-38 -56 -59 -61 -65 0
-39 -56 -60 -61 -65 0
-2 -56 -4 -61 -65 0
-15 -56 -17 -61 -65 0
-37 -57 -58 -61 -66 0
-38 -57 -59 -61 -66 0
-39 -57 -60 -61 -66 0
-2 -57 -4 -61 -66 0
-15 -57 -17 -61 -66 0
-38 -58 -59 -61 -67 0
-39 -58 -60 -61 -67 0
-2 -58 -4 -61 -67 0
-15 -58 -17 -61 -67 0
-39 -59 -60 -61 -68 0
-2 -59 -4 -61 -68 0
-15 -59 -17 -61 -68 0
-2 -60 -4 -61 -69 0
-15 -60 -17 -61 -69 0
-15 -4 -17 -61 -5 0
-34 -54 -55 -62 -63 0
-35 -54 -56 -62 -63 0
-36 -54 -57 -62 -63 0
-37 -54 -58 -62 -63 0
-38 -54 -59 -62 -63 0
-39 -54 -60 -62 -63 0
-2 -54 -4 -62 -63 0
-15 -54 -17 -62 -63 0
-35 -55 -56 -62 -64 0
-36 -55 -57 -62 -64 0
-37 -55 -58 -62 -64 0
-38 -55 -59 -62 -64 0
-39 -55 -60 -62 -64 0
-2 -55 -4 -62 -64 0
-15 -55 -17 -62 -64 0
-36 -56 -57 -62 -65 0
-37 -56 -58 -62 -65 0
-38 -56 -59 -62 -65 0
-39 -56 -60 -62 -65 0
-2 -56 -4 -62 -65 0
-15 -56 -17 -62 -65 0
-37 -57 -58 -62 -66 0
-38 -57 -59 -62 -66 0
-39 -57 -60 -62 -66 0
-2 -57 -4 -62 -66 0
-15 -57 -17 -62 -66 0
-38 -58 -59 -62 -67 0
-39 -58 -60 -62 -67 0
-2 -58 -4 -62 -67 0
-15 -58 -17 -62 -67 0
-39 -59 -60 -62 -68 0
-2 -59 -4 -62 -68 0
-15 -59 -17 -62 -68 0
-2 -60 -4 -62 -69 0
-15 -60 -17 -62 -69 0
-15 -4 -17 -62 -5 0
-35 -55 -56 -63 -64 0
-36 -55 -57 -63 -64 0
-37 -55 -58 -63 -64 0
-38 -55 -59 -63 -64 0
-39 -55 -60 -63 -64 0
-2 -55 -4 -63 -64 0
-15 -55 -17 -63 -64 0
-36 -56 -57 -63 -65 0
-37 -56 -58 -63 -65 0
-38 -56 -59 -63 -65 0
-39 -56 -60 -63 -65 0
-2 -56 -4 -63 -65 0
-15 -56 -17 -63 -65 0
-37 -57 -58 -63 -66 0
-38 -57 -59 -63 -66 0
-39 -57 -60 -63 -66 0
-2 -57 -4 -63 -66 0
-15 -57 -17 -63 -66 0
-38 -58 -59 -63 -67 0
-39 -58 -60 -63 -67 0
-2 -58 -4 -63 -67 0
-15 -58 -17 -63 -67 0
-39 -59 -60 -63 -68 0
-2 -59 -4 -63 -68 0
-15 -59 -17 -63 -68 0
-2 -60 -4 -63 -69 0
-15 -60 -17 -63 -69 0
-15 -4 -17 -63 -5 0
-36 -56 -57 -64 -65 0
-37 -56 -58 -64 -65 0
-38 -56 -59 -64 -65 0
-39 -56 -60 -64 -65 0
-2 -56 -4 -64 -65 0
-15 -56 -17 -64 -65 0
-37 -57 -58 -64 -66 0
-38 -57 -59 -64 -66 0
-39 -57 -60 -64 -66 0
-2 -57 -4 -64 -66 0
-15 -57 -17 -64 -66 0
-38 -58 -59 -64 -67 0
-39 -58 -60 -64 -67 0
-2 -58 -4 -64 -67 0
-15 -58 -17 -64 -67 0
-39 -59 -60 -64 -68 0
-2 -59 -4 -64 -68 0
-15 -59 -17 -64 -68 0
-2 -60 -4 -64 -69 0
-15 -60 -17 -64 -69 0
-15 -4 -17 -64 -5 0
-37 -57 -58 -65 -66 0
-38 -57 -59 -65 -66 0
-39 -57 -60 -65 -66 0
-2 -57 -4 -65 -66 0
-15 -57 -17 -65 -66 0
-38 -58 -59 -65 -67 0
-39 -58 -60 -65 -67 0
-2 -58 -4 -65 -67 0
-15 -58 -17 -65 -67 0
-39 -59 -60 -65 -68 0
-2 -59 -4 -65 -68 0
-15 -59 -17 -65 -68 0
-2 -60 -4 -65 -69 0
-15 -60 -17 -65 -69 0
-15 -4 -17 -65 -5 0
-38 -58 -59 -66 -67 0
-39 -58 -60 -66 -67 0
-2 -58 -4 -66 -67 0
-15 -58 -17 -66 -67 0
-39 -59 -60 -66 -68 0
-2 -59 -4 -66 -68 0
-15 -59 -17 -66 -68 0
-2 -60 -4 -66 -69 0
-15 -60 -17 -66 -69 0
-15 -4 -17 -66 -5 0
-39 -59 -60 -67 -68 0
-2 -59 -4 -67 -68 0
-15 -59 -17 -67 -68 0
-2 -60 -4 -67 -69 0
-15 -60 -17 -67 -69 0
-15 -4 -17 -67 -5 0
-2 -60 -4 -68 -69 0
-15 -60 -17 -68 -69 0
-15 -4 -17 -68 -5 0
-15 -4 -17 -69 -5 0
-34 -54 -55 -70 -71 0
-35 -54 -56 -70 -71 0
-36 -54 -57 -70 -71 0
-37 -54 -58 -70 -71 0
-38 -54 -59 -70 -71 0
-39 -54 -60 -70 -71 0
-2 -54 -4 -70 -71 0
-15 -54 -17 -70 -71 0
-35 -55 -56 -70 -72 0
-36 -55 -57 -70 -72 0
-37 -55 -58 -70 -72 0
-38 -55 -59 -70 -72 0
-39 -55 -60 -70 -72 0
-2 -55 -4 -70 -72 0
-15 -55 -17 -70 -72 0
-36 -56 -57 -70 -73 0
-37 -56 -58 -70 -73 0
-38 -56 -59 -70 -73 0
-39 -56 -60 -70 -73 0
-2 -56 -4 -70 -73 0
-15 -56 -17 -70 -73 0
-37 -57 -58 -70 -74 0
-38 -57 -59 -70 -74 0
-39 -57 -60 -70 -74 0
-2 -57 -4 -70 -74 0
-15 -57 -17 -70 -74 0
-38 -58 -59 -70 -75 0
-39 -58 -60 -70 -75 0
-2 -58 -4 -70 -75 0
-15 -58 -17 -70 -75 0
-39 -59 -60 -70 -76 0
-2 -59 -4 -70 -76 0
-15 -59 -17 -70 -76 0
-2 -60 -4 -70 -77 0
-15 -60 -17 -70 -77 0
-15 -4 -17 -70 -6 0
-35 -55 -56 -71 -72 0
-36 -55 -57 -71 -72 0
-37 -55 -58 -71 -72 0
-38 -55 -59 -71 -72 0
-39 -55 -60 -71 -72 0
-2 -55 -4 -71 -72 0
-15 -55 -17 -71 -72 0
-36 -56 -57 -71 -73 0
-37 -56 -58 -71 -73 0
-38 -56 -59 -71 -73 0
-39 -56 -60 -71 -73 0
-2 -56 -4 -71 -73 0
-15 -56 -17 -71 -73 0
-37 -57 -58 -71 -74 0
-38 -57 -59 -71 -74 0
-39 -57 -60 -71 -74 0
-2 -57 -4 -71 -74 0
-15 -57 -17 -71 -74 0
-38 -58 -59 -71 -75 0
-39 -58 -60 -71 -75 0
-2 -58 -4 -71 -75 0
-15 -58 -17 -71 -75 0
-39 -59 -60 -71 -76 0
-2 -59 -4 -71 -76 0
-15 -59 -17 -71 -76 0
-2 -60 -4 -71 -77 0
-15 -60 -17 -71 -77 0
-15 -4 -17 -71 -6 0
-36 -56 -57 -72 -73 0
-37 -56 -58 -72 -73 0
-38 -56 -59 -72 -73 0
-39 -56 -60 -72 -73 0
-2 -56 -4 -72 -73 0
-15 -56 -17 -72 -73 0
-37 -57 -58 -72 -74 0
-38 -57 -59 -72 -74 0
-39 -57 -60 -72 -74 0
-2 -57 -4 -72 -74 0
-15 -57 -17 -72 -74 0
-38 -58 -59 -72 -75 0
-39 -58 -60 -72 -75 0
-2 -58 -4 -72 -75 0
-15 -58 -17 -72 -75 0
-39 -59 -60 -72 -76 0
-2 -59 -4 -72 -76 0
-15 -59 -17 -72 -76 0
-2 -60 -4 -72 -77 0
-15 -60 -17 -72 -77 0
-15 -4 -17 -72 -6 0
-37 -57 -58 -73 -74 0
-38 -57 -59 -73 -74 0
-39 -57 -60 -73 -74 0
-2 -57 -4 -73 -74 0
-15 -57 -17 -73 -74 0
-38 -58 -59 -73 -75 0
-39 -58 -60 -73 -75 0
-2 -58 -4 -73 -75 0
-15 -58 -17 -73 -75 0
-39 -59 -60 -73 -76 0
-2 -59 -4 -73 -76 0
-15 -59 -17 -73 -76 0
-2 -60 -4 -73 -77 0
-15 -60 -17 -73 -77 0
-15 -4 -17 -73 -6 0
-38 -58 -59 -74 -75 0
-39 -58 -60 -74 -75 0
-2 -58 -4 -74 -75 0
-15 -58 -17 -74 -75 0
-39 -59 -60 -74 -76 0
-2 -59 -4 -74 -76 0
-15 -59 -17 -74 -76 0
-2 -60 -4 -74 -77 0
-15 -60 -17 -74 -77 0
-15 -4 -17 -74 -6 0
-39 -59 -60 -75 -76 0
-2 -59 -4 -75 -76 0
-15 -59 -17 -75 -76 0
-2 -60 -4 -75 -77 0
-15 -60 -17 -75 -77 0
-15 -4 -17 -75 -6 0
-2 -60 -4 -76 -77 0
-15 -60 -17 -76 -77 0
-15 -4 -17 -76 -6 0
-15 -4 -17 -77 -6 0
-35 -55 -56 -78 -79 0
-36 -55 -57 -78 -79 0
-37 -55 -58 -78 -79 0
-38 -55 -59 -78 -79 0
-39 -55 -60 -78 -79 0
-2 -55 -4 -78 -79 0
-15 -55 -17 -78 -79 0
-36 -56 -57 -78 -80 0
-37 -56 -58 -78 -80 0
-38 -56 -59 -78 -80 0
-39 -56 -60 -78 -80 0
-2 -56 -4 -78 -80 0
-15 -56 -17 -78 -80 0
-37 -57 -58 -78 -81 0
-38 -57 -59 -78 -81 0
-39 -57 -60 -78 -81 0
-2 -57 -4 -78 -81 0
-15 -57 -17 -78 -81 0
-38 -58 -59 -78 -82 0
-39 -58 -60 -78 -82 0
-2 -58 -4 -78 -82 0
-15 -58 -17 -78 -82 0
-39 -59 -60 -78 -83 0
-2 -59 -4 -78 -83 0
-15 -59 -17 -78 -83 0
-2 -60 -4 -78 -84 0
-15 -60 -17 -78 -84 0
-15 -4 -17 -78 -7 0
-36 -56 -57 -79 -80 0
-37 -56 -58 -79 -80 0
-38 -56 -59 -79 -80 0
-39 -56 -60 -79 -80 0
-2 -56 -4 -79 -80 0
-15 -56 -17 -79 -80 0
-37 -57 -58 -79 -81 0
-38 -57 -59 -79 -81 0
-39 -57 -60 -79 -81 0
-2 -57 -4 -79 -81 0
-15 -57 -17 -79 -81 0
-38 -58 -59 -79 -82 0
-39 -58 -60 -79 -82 0
-2 -58 -4 -79 -82 0
-15 -58 -17 -79 -82 0
-39 -59 -60 -79 -83 0
-2 -59 -4 -79 -83 0
-15 -59 -17 -79 -83 0
-2 -60 -4 -79 -84 0
-15 -60 -17 -79 -84 0
-15 -4 -17 -79 -7 0
-37 -57 -58 -80 -81 0
-38 -57 -59 -80 -81 0
-39 -57 -60 -80 -81 0
-2 -57 -4 -80 -81 0
-15 -57 -17 -80 -81 0
-38 -58 -59 -80 -82 0
-39 -58 -60 -80 -82 0
-2 -58 -4 -80 -82 0
-15 -58 -17 -80 -82 0
-39 -59 -60 -80 -83 0
-2 -59 -4 -80 -83 0
-15 -59 -17 -80 -83 0
-2 -60 -4 -80 -84 0
-15 -60 -17 -80 -84 0
-15 -4 -17 -80 -7 0
-38 -58 -59 -81 -82 0
-39 -58 -60 -81 -82 0
-2 -58 -4 -81 -82 0
-15 -58 -17 -81 -82 0
-39 -59 -60 -81 -83 0
-2 -59 -4 -81 -83 0
-15 -59 -17 -81 -83 0
-2 -60 -4 -81 -84 0
-15 -60 -17 -81 -84 0
-15 -4 -17 -81 -7 0
-39 -59 -60 -82 -83 0
-2 -59 -4 -82 -83 0
-15 -59 -17 -82 -83 0
-2 -60 -4 -82 -84 0
-15 -60 -17 -82 -84 0
-15 -4 -17 -82 -7 0
-2 -60 -4 -83 -84 0
-15 -60 -17 -83 -84 0
-15 -4 -17 -83 -7 0
-15 -4 -17 -84 -7 0
-36 -56 -57 -85 -86 0
-37 -56 -58 -85 -86 0
-38 -56 -59 -85 -86 0
-39 -56 -60 -85 -86 0
-2 -56 -4 -85 -86 0
-15 -56 -17 -85 -86 0
-37 -57 -58 -85 -87 0
-38 -57 -59 -85 -87 0
-39 -57 -60 -85 -87 0
-2 -57 -4 -85 -87 0
-15 -57 -17 -85 -87 0
-38 -58 -59 -85 -88 0
-39 -58 -60 -85 -88 0
-2 -58 -4 -85 -88 0
-15 -58 -17 -85 -88 0
-39 -59 -60 -85 -89 0
-2 -59 -4 -85 -89 0
-15 -59 -17 -85 -89 0
-2 -60 -4 -85 -90 0
-15 -60 -17 -85 -90 0
-15 -4 -17 -85 -8 0
-37 -57 -58 -86 -87 0
-38 -57 -59 -86 -87 0
-39 -57 -60 -86 -87 0
-2 -57 -4 -86 -87 0
-15 -57 -17 -86 -87 0
-38 -58 -59 -86 -88 0
-39 -58 -60 -86 -88 0
-2 -58 -4 -86 -88 0
-15 -58 -17 -86 -88 0
-39 -59 -60 -86 -89 0
-2 -59 -4 -86 -89 0
-15 -59 -17 -86 -89 0
-2 -60 -4 -86 -90 0
-15 -60 -17 -86 -90 0
-15 -4 -17 -86 -8 0
-38 -58 -59 -87 -88 0
-39 -58 -60 -87 -88 0
-2 -58 -4 -87 -88 0
-15 -58 -17 -87 -88 0
-39 -59 -60 -87 -89 0
-2 -59 -4 -87 -89 0
-15 -59 -17 -87 -89 0
-2 -60 -4 -87 -90 0
-15 -60 -17 -87 -90 0
-15 -4 -17 -87 -8 0
-39 -59 -60 -88 -89 0
-2 -59 -4 -88 -89 0
-15 -59 -17 -88 -89 0
-2 -60 -4 -88 -90 0
-15 -60 -17 -88 -90 0
-15 -4 -17 -88 -8 0
-2 -60 -4 -89 -90 0
-15 -60 -17 -89 -90 0
-15 -4 -17 -89 -8 0
-15 -4 -17 -90 -8 0
-37 -57 -58 -91 -92 0
-38 -57 -59 -91 -92 0
-39 -57 -60 -91 -92 0
-2 -57 -4 -91 -92 0
-15 -57 -17 -91 -92 0
-38 -58 -59 -91 -93 0
-39 -58 -60 -91 -93 0
-2 -58 -4 -91 -93 0
-15 -58 -17 -91 -93 0
-39 -59 -60 -91 -94 0
-2 -59 -4 -91 -94 0
-15 -59 -17 -91 -94 0
-2 -60 -4 -91 -95 0
-15 -60 -17 -91 -95 0
-15 -4 -17 -91 -9 0
-38 -58 -59 -92 -93 0
-39 -58 -60 -92 -93 0
-2 -58 -4 -92 -93 0
-15 -58 -17 -92 -93 0
-39 -59 -60 -92 -94 0
-2 -59 -4 -92 -94 0
-15 -59 -17 -92 -94 0
-2 -60 -4 -92 -95 0
-15 -60 -17 -92 -95 0
-15 -4 -17 -92 -9 0
-39 -59 -60 -93 -94 0
-2 -59 -4 -93 -94 0
-15 -59 -17 -93 -94 0
-2 -60 -4 -93 -95 0
-15 -60 -17 -93 -95 0
-15 -4 -17 -93 -9 0
-2 -60 -4 -94 -95 0
-15 -60 -17 -94 -95 0
-15 -4 -17 -94 -9 0
-15 -4 -17 -95 -9 0
-38 -58 -59 -96 -97 0
-39 -58 -60 -96 -97 0
-2 -58 -4 -96 -97 0
-15 -58 -17 -96 -97 0
-39 -59 -60 -96 -98 0
-2 -59 -4 -96 -98 0
-15 -59 -17 -96 -98 0
-2 -60 -4 -96 -99 0
-15 -60 -17 -96 -99 0
-15 -4 -17 -96 -10 0
-39 -59 -60 -97 -98 0
-2 -59 -4 -97 -98 0
-15 -59 -17 -97 -98 0
-2 -60 -4 -97 -99 0
-15 -60 -17 -97 -99 0
-15 -4 -17 -97 -10 0
-2 -60 -4 -98 -99 0
-15 -60 -17 -98 -99 0
-15 -4 -17 -98 -10 0
-15 -4 -17 -99 -10 0
-39 -59 -60 -100 -101 0
-2 -59 -4 -100 -101 0
-15 -59 -17 -100 -101 0
-2 -60 -4 -100 -102 0
-15 -60 -17 -100 -102 0
-15 -4 -17 -100 -11 0
-2 -60 -4 -101 -102 0
-15 -60 -17 -101 -102 0
-15 -4 -17 -101 -11 0
-15 -4 -17 -102 -11 0
-2 -60 -4 -103 -104 0
-15 -60 -17 -103 -104 0
-15 -4 -17 -103 -12 0
-15 -4 -17 -104 -12 0
-15 -4 -17 -105 -13 0
-34 -63 -64 -70 -71 0
-35 -63 -65 -70 -71 0
-36 -63 -66 -70 -71 0
-37 -63 -67 -70 -71 0
-38 -63 -68 -70 -71 0
-39 -63 -69 -70 -71 0
-2 -63 -5 -70 -71 0
-15 -63 -18 -70 -71 0
-35 -64 -65 -70 -72 0
-36 -64 -66 -70 -72 0
-37 -64 -67 -70 -72 0
-38 -64 -68 -70 -72 0
-39 -64 -69 -70 -72 0
-2 -64 -5 -70 -72 0
-15 -64 -18 -70 -72 0
-36 -65 -66 -70 -73 0
-37 -65 -67 -70 -73 0
-38 -65 -68 -70 -73 0
-39 -65 -69 -70 -73 0
-2 -65 -5 -70 -73 0
-15 -65 -18 -70 -73 0
-37 -66 -67 -70 -74 0
-38 -66 -68 -70 -74 0
-39 -66 -69 -70 -74 0
-2 -66 -5 -70 -74 0
-15 -66 -18 -70 -74 0
-38 -67 -68 -70 -75 0
-39 -67 -69 -70 -75 0
-2 -67 -5 -70 -75 0
-15 -67 -18 -70 -75 0
-39 -68 -69 -70 -76 0
-2 -68 -5 -70 -76 0
-15 -68 -18 -70 -76 0
-2 -69 -5 -70 -77 0
-15 -69 -18 -70 -77 0
-15 -5 -18 -70 -6 0
-35 -64 -65 -71 -72 0
-36 -64 -66 -71 -72 0
-37 -64 -67 -71 -72 0
-38 -64 -68 -71 -72 0
-39 -64 -69 -71 -72 0
-2 -64 -5 -71 -72 0
-15 -64 -18 -71 -72 0
-36 -65 -66 -71 -73 0
-37 -65 -67 -71 -73 0
-38 -65 -68 -71 -73 0
-39 -65 -69 -71 -73 0
-2 -65 -5 -71 -73 0
-15 -65 -18 -71 -73 0
-37 -66 -67 -71 -74 0
-38 -66 -68 -71 -74 0
-39 -66 -69 -71 -74 0
-2 -66 -5 -71 -74 0
-15 -66 -18 -71 -74 0
-38 -67 -68 -71 -75 0
-39 -67 -69 -71 -75 0
-2 -67 -5 -71 -75 0
-15 -67 -18 -71 -75 0
-39 -68 -69 -71 -76 0
-2 -68 -5 -71 -76 0
-15 -68 -18 -71 -76 0
-2 -69 -5 -71 -77 0
-15 -69 -18 -71 -77 0
-15 -5 -18 -71 -6 0
-36 -65 -66 -72 -73 0
-37 -65 -67 -72 -73 0
-38 -65 -68 -72 -73 0
-39 -65 -69 -72 -73 0
-2 -65 -5 -72 -73 0
-15 -65 -18 -72 -73 0
-37 -66 -67 -72 -74 0
-38 -66 -68 -72 -74 0
-39 -66 -69 -72 -74 0
-2 -66 -5 -72 -74 0
-15 -66 -18 -72 -74 0
-38 -67 -68 -72 -75 0
-39 -67 -69 -72 -75 0
-2 -67 -5 -72 -75 0
-15 -67 -18 -72 -75 0
-39 -68 -69 -72 -76 0
-2 -68 -5 -72 -76 0
-15 -68 -18 -72 -76 0
-2 -69 -5 -72 -77 0
-15 -69 -18 -72 -77 0
-15 -5 -18 -72 -6 0
-37 -66 -67 -73 -74 0
-38 -66 -68 -73 -74 0
-39 -66 -69 -73 -74 0
-2 -66 -5 -73 -74 0
-15 -66 -18 -73 -74 0
-38 -67 -68 -73 -75 0
-39 -67 -69 -73 -75 0
-2 -67 -5 -73 -75 0
-15 -67 -18 -73 -75 0
-39 -68 -69 -73 -76 0
-2 -68 -5 -73 -76 0
-15 -68 -18 -73 -76 0
-2 -69 -5 -73 -77 0
-15 -69 -18 -73 -77 0
-15 -5 -18 -73 -6 0
-38 -67 -68 -74 -75 0
-39 -67 -69 -74 -75 0
-2 -67 -5 -74 -75 0
-15 -67 -18 -74 -75 0
-39 -68 -69 -74 -76 0
-2 -68 -5 -74 -76 0
-15 -68 -18 -74 -76 0
-2 -69 -5 -74 -77 0
-15 -69 -18 -74 -77 0
-15 -5 -18 -74 -6 0
-39 -68 -69 -75 -76 0
-2 -68 -5 -75 -76 0
-15 -68 -18 -75 -76 0
-2 -69 -5 -75 -77 0
-15 -69 -18 -75 -77 0
-15 -5 -18 -75 -6 0
-2 -69 -5 -76 -77 0
-15 -69 -18 -76 -77 0
-15 -5 -18 -76 -6 0
-15 -5 -18 -77 -6 0
-35 -64 -65 -78 -79 0
-36 -64 -66 -78 -79 0
-37 -64 -67 -78 -79 0
-38 -64 -68 -78 -79 0
-39 -64 -69 -78 -79 0
-2 -64 -5 -78 -79 0
-15 -64 -18 -78 -79 0
-36 -65 -66 -78 -80 0
-37 -65 -67 -78 -80 0
-38 -65 -68 -78 -80 0
-39 -65 -69 -78 -80 0
-2 -65 -5 -78 -80 0
-15 -65 -18 -78 -80 0
-37 -66 -67 -78 -81 0
-38 -66 -68 -78 -81 0
-39 -66 -69 -78 -81 0
-2 -66 -5 -78 -81 0
-15 -66 -18 -78 -81 0
-38 -67 -68 -78 -82 0
-39 -67 -69 -78 -82 0
-2 -67 -5 -78 -82 0
-15 -67 -18 -78 -82 0
-39 -68 -69 -78 -83 0
-2 -68 -5 -78 -83 0
-15 -68 -18 -78 -83 0
-2 -69 -5 -78 -84 0
-15 -69 -18 -78 -84 0
-15 -5 -18 -78 -7 0
-36 -65 -66 -79 -80 0
-37 -65 -67 -79 -80 0
-38 -65 -68 -79 -80 0
-39 -65 -69 -79 -80 0
-2 -65 -5 -79 -80 0
-15 -65 -18 -79 -80 0
-37 -66 -67 -79 -81 0
-38 -66 -68 -79 -81 0
-39 -66 -69 -79 -81 0
-2 -66 -5 -79 -81 0
-15 -66 -18 -79 -81 0
-38 -67 -68 -79 -82 0
-39 -67 -69 -79 -82 0
-2 -67 -5 -79 -82 0
-15 -67 -18 -79 -82 0
-39 -68 -69 -79 -83 0
-2 -68 -5 -79 -83 0
-15 -68 -18 -79 -83 0
-2 -69 -5 -79 -84 0
-15 -69 -18 -79 -84 0
-15 -5 -18 -79 -7 0
-37 -66 -67 -80 -81 0
-38 -66 -68 -80 -81 0
-39 -66 -69 -80 -81 0
-2 -66 -5 -80 -81 0
-15 -66 -18 -80 -81 0
-38 -67 -68 -80 -82 0
-39 -67 -69 -80 -82 0
-2 -67 -5 -80 -82 0
-15 -67 -18 -80 -82 0
-39 -68 -69 -80 -83 0
-2 -68 -5 -80 -83 0
-15 -68 -18 -80 -83 0
-2 -69 -5 -80 -84 0
-15 -69 -18 -80 -84 0
-15 -5 -18 -80 -7 0
-38 -67 -68 -81 -82 0
-39 -67 -69 -81 -82 0
-2 -67 -5 -81 -82 0
-15 -67 -18 -81 -82 0
-39 -68 -69 -81 -83 0
-2 -68 -5 -81 -83 0
-15 -68 -18 -81 -83 0
-2 -69 -5 -81 -84 0
-15 -69 -18 -81 -84 0
-15 -5 -18 -81 -7 0
-39 -68 -69 -82 -83 0
-2 -68 -5 -82 -83 0
-15 -68 -18 -82 -83 0
-2 -69 -5 -82 -84 0
-15 -69 -18 -82 -84 0
-15 -5 -18 -82 -7 0
-2 -69 -5 -83 -84 0
-15 -69 -18 -83 -84 0
-15 -5 -18 -83 -7 0
-15 -5 -18 -84 -7 0
-36 -65 -66 -85 -86 0
-37 -65 -67 -85 -86 0
-38 -65 -68 -85 -86 0
-39 -65 -69 -85 -86 0
-2 -65 -5 -85 -86 0
-15 -65 -18 -85 -86 0
-37 -66 -67 -85 -87 0
-38 -66 -68 -85 -87 0
-39 -66 -69 -85 -87 0
-2 -66 -5 -85 -87 0
-15 -66 -18 -85 -87 0
-38 -67 -68 -85 -88 0
-39 -67 -69 -85 -88 0
-2 -67 -5 -85 -88 0
-15 -67 -18 -85 -88 0
-39 -68 -69 -85 -89 0
-2 -68 -5 -85 -89 0
-15 -68 -18 -85 -89 0
-2 -69 -5 -85 -90 0
-15 -69 -18 -85 -90 0
-15 -5 -18 -85 -8 0
-37 -66 -67 -86 -87 0
-38 -66 -68 -86 -87 0
-39 -66 -69 -86 -87 0
-2 -66 -5 -86 -87 0
-15 -66 -18 -86 -87 0
-38 -67 -68 -86 -88 0
-39 -67 -69 -86 -88 0
-2 -67 -5 -86 -88 0
-15 -67 -18 -86 -88 0
-39 -68 -69 -86 -89 0
-2 -68 -5 -86 -89 0
-15 -68 -18 -86 -89 0
-2 -69 -5 -86 -90 0
-15 -69 -18 -86 -90 0
-15 -5 -18 -86 -8 0
-38 -67 -68 -87 -88 0
-39 -67 -69 -87 -88 0
-2 -67 -5 -87 -88 0
-15 -67 -18 -87 -88 0
-39 -68 -69 -87 -89 0
-2 -68 -5 -87 -89 0
-15 -68 -18 -87 -89 0
-2 -69 -5 -87 -90 0
-15 -69 -18 -87 -90 0
-15 -5 -18 -87 -8 0
-39 -68 -69 -88 -89 0
-2 -68 -5 -88 -89 0
-15 -68 -18 -88 -89 0
-2 -69 -5 -88 -90 0
-15 -69 -18 -88 -90 0
-15 -5 -18 -88 -8 0
-2 -69 -5 -89 -90 0
-15 -69 -18 -89 -90 0
-15 -5 -18 -89 -8 0
-15 -5 -18 -90 -8 0
-37 -66 -67 -91 -92 0
-38 -66 -68 -91 -92 0
-39 -66 -69 -91 -92 0
-2 -66 -5 -91 -92 0
-15 -66 -18 -91 -92 0
-38 -67 -68 -91 -93 0
-39 -67 -69 -91 -93 0
-2 -67 -5 -91 -93 0
-15 -67 -18 -91 -93 0
-39 -68 -69 -91 -94 0
-2 -68 -5 -91 -94 0
-15 -68 -18 -91 -94 0
-2 -69 -5 -91 -95 0
-15 -69 -18 -91 -95 0
-15 -5 -18 -91 -9 0
-38 -67 -68 -92 -93 0
-39 -67 -69 -92 -93 0
-2 -67 -5 -92 -93 0
-15 -67 -18 -92 -93 0
-39 -68 -69 -92 -94 0
-2 -68 -5 -92 -94 0
-15 -68 -18 -92 -94 0
-2 -69 -5 -92 -95 0
-15 -69 -18 -92 -95 0
-15 -5 -18 -92 -9 0
-39 -68 -69 -93 -94 0
-2 -68 -5 -93 -94 0
-15 -68 -18 -93 -94 0
-2 -69 -5 -93 -95 0
-15 -69 -18 -93 -95 0
-15 -5 -18 -93 -9 0
-2 -69 -5 -94 -95 0
-15 -69 -18 -94 -95 0
-15 -5 -18 -94 -9 0
-15 -5 -18 -95 -9 0
-38 -67 -68 -96 -97 0
-39 -67 -69 -96 -97 0
-2 -67 -5 -96 -97 0
-15 -67 -18 -96 -97 0
-39 -68 -69 -96 -98 0
-2 -68 -5 -96 -98 0
-15 -68 -18 -96 -98 0
-2 -69 -5 -96 -99 0
-15 -69 -18 -96 -99 0
-15 -5 -18 -96 -10 0
-39 -68 -69 -97 -98 0
-2 -68 -5 -97 -98 0
-15 -68 -18 -97 -98 0
-2 -69 -5 -97 -99 0
-15 -69 -18 -97 -99 0
-15 -5 -18 -97 -10 0
-2 -69 -5 -98 -99 0
-15 -69 -18 -98 -99 0
-15 -5 -18 -98 -10 0
-15 -5 -18 -99 -10 0
-39 -68 -69 -100 -101 0
-2 -68 -5 -100 -101 0
-15 -68 -18 -100 -101 0
-2 -69 -5 -100 -102 0
-15 -69 -18 -100 -102 0
-15 -5 -18 -100 -11 0
-2 -69 -5 -101 -102 0
-15 -69 -18 -101 -102 0
-15 -5 -18 -101 -11 0
-15 -5 -18 -102 -11 0
-2 -69 -5 -103 -104 0
-15 -69 -18 -103 -104 0
-15 -5 -18 -103 -12 0
-15 -5 -18 -104 -12 0
-15 -5 -18 -105 -13 0
-35 -72 -73 -78 -79 0
-36 -72 -74 -78 -79 0
-37 -72 -75 -78 -79 0
-38 -72 -76 -78 -79 0
-39 -72 -77 -78 -79 0
-2 -72 -6 -78 -79 0
-15 -72 -19 -78 -79 0
-36 -73 -74 -78 -80 0
-37 -73 -75 -78 -80 0
-38 -73 -76 -78 -80 0
-39 -73 -77 -78 -80 0
-2 -73 -6 -78 -80 0
-15 -73 -19 -78 -80 0
-37 -74 -75 -78 -81 0
-38 -74 -76 -78 -81 0
-39 -74 -77 -78 -81 0
-2 -74 -6 -78 -81 0
-15 -74 -19 -78 -81 0
-38 -75 -76 -78 -82 0
-39 -75 -77 -78 -82 0
-2 -75 -6 -78 -82 0
-15 -75 -19 -78 -82 0
-39 -76 -77 -78 -83 0
-2 -76 -6 -78 -83 0
-15 -76 -19 -78 -83 0
-2 -77 -6 -78 -84 0
-15 -77 -19 -78 -84 0
-15 -6 -19 -78 -7 0
-36 -73 -74 -79 -80 0
-37 -73 -75 -79 -80 0
-38 -73 -76 -79 -80 0
-39 -73 -77 -79 -80 0
-2 -73 -6 -79 -80 0
-15 -73 -19 -79 -80 0
-37 -74 -75 -79 -81 0
-38 -74 -76 -79 -81 0
-39 -74 -77 -79 -81 0
-2 -74 -6 -79 -81 0
-15 -74 -19 -79 -81 0
-38 -75 -76 -79 -82 0
-39 -75 -77 -79 -82 0
-2 -75 -6 -79 -82 0
-15 -75 -19 -79 -82 0
-39 -76 -77 -79 -83 0
-2 -76 -6 -79 -83 0
-15 -76 -19 -79 -83 0
-2 -77 -6 -79 -84 0
-15 -77 -19 -79 -84 0
-15 -6 -19 -79 -7 0
-37 -74 -75 -80 -81 0
-38 -74 -76 -80 -81 0
-39 -74 -77 -80 -81 0
-2 -74 -6 -80 -81 0
-15 -74 -19 -80 -81 0
-38 -75 -76 -80 -82 0
-39 -75 -77 -80 -82 0
-2 -75 -6 -80 -82 0
-15 -75 -19 -80 -82 0
-39 -76 -77 -80 -83 0
-2 -76 -6 -80 -83 0
-15 -76 -19 -80 -83 0
-2 -77 -6 -80 -84 0
-15 -77 -19 -80 -84 0
-15 -6 -19 -80 -7 0
-38 -75 -76 -81 -82 0
-39 -75 -77 -81 -82 0
-2 -75 -6 -81 -82 0
-15 -75 -19 -81 -82 0
-39 -76 -77 -81 -83 0
-2 -76 -6 -81 -83 0
-15 -76 -19 -81 -83 0
-2 -77 -6 -81 -84 0
-15 -77 -19 -81 -84 0
-15 -6 -19 -81 -7 0
-39 -76 -77 -82 -83 0
-2 -76 -6 -82 -83 0
-15 -76 -19 -82 -83 0
-2 -77 -6 -82 -84 0
-15 -77 -19 -82 -84 0
-15 -6 -19 -82 -7 0
-2 -77 -6 -83 -84 0
-15 -77 -19 -83 -84 0
-15 -6 -19 -83 -7 0
-15 -6 -19 -84 -7 0
-36 -73 -74 -85 -86 0
-37 -73 -75 -85 -86 0
-38 -73 -76 -85 -86 0
-39 -73 -77 -85 -86 0
-2 -73 -6 -85 -86 0
-15 -73 -19 -85 -86 0
-37 -74 -75 -85 -87 0
-38 -74 -76 -85 -87 0
-39 -74 -77 -85 -87 0
-2 -74 -6 -85 -87 0
-15 -74 -19 -85 -87 0
-38 -75 -76 -85 -88 0
-39 -75 -77 -85 -88 0
-2 -75 -6 -85 -88 0
-15 -75 -19 -85 -88 0
-39 -76 -77 -85 -89 0
-2 -76 -6 -85 -89 0
-15 -76 -19 -85 -89 0
-2 -77 -6 -85 -90 0
-15 -77 -19 -85 -90 0
-15 -6 -19 -85 -8 0
-37 -74 -75 -86 -87 0
-38 -74 -76 -86 -87 0
-39 -74 -77 -86 -87 0
-2 -74 -6 -86 -87 0
-15 -74 -19 -86 -87 0
-38 -75 -76 -86 -88 0
-39 -75 -77 -86 -88 0
-2 -75 -6 -86 -88 0
-15 -75 -19 -86 -88 0
-39 -76 -77 -86 -89 0
-2 -76 -6 -86 -89 0
-15 -76 -19 -86 -89 0
-2 -77 -6 -86 -90 0
-15 -77 -19 -86 -90 0
-15 -6 -19 -86 -8 0
-38 -75 -76 -87 -88 0
-39 -75 -77 -87 -88 0
-2 -75 -6 -87 -88 0
-15 -75 -19 -87 -88 0
-39 -76 -77 -87 -89 0
-2 -76 -6 -87 -89 0
-15 -76 -19 -87 -89 0
-2 -77 -6 -87 -90 0
-15 -77 -19 -87 -90 0
-15 -6 -19 -87 -8 0
-39 -76 -77 -88 -89 0
-2 -76 -6 -88 -89 0
-15 -76 -19 -88 -89 0
-2 -77 -6 -88 -90 0
-15 -77 -19 -88 -90 0
-15 -6 -19 -88 -8 0
-2 -77 -6 -89 -90 0
-15 -77 -19 -89 -90 0
-15 -6 -19 -89 -8 0
-15 -6 -19 -90 -8 0
-37 -74 -75 -91 -92 0
-38 -74 -76 -91 -92 0
-39 -74 -77 -91 -92 0
-2 -74 -6 -91 -92 0
-15 -74 -19 -91 -92 0
-38 -75 -76 -91 -93 0
-39 -75 -77 -91 -93 0
-2 -75 -6 -91 -93 0
-15 -75 -19 -91 -93 0
-39 -76 -77 -91 -94 0
-2 -76 -6 -91 -94 0
-15 -76 -19 -91 -94 0
-2 -77 -6 -91 -95 0
-15 -77 -19 -91 -95 0
-15 -6 -19 -91 -9 0
-38 -75 -76 -92 -93 0
-39 -75 -77 -92 -93 0
-2 -75 -6 -92 -93 0
-15 -75 -19 -92 -93 0
-39 -76 -77 -92 -94 0
-2 -76 -6 -92 -94 0
-15 -76 -19 -92 -94 0
-2 -77 -6 -92 -95 0
-15 -77 -19 -92 -95 0
-15 -6 -19 -92 -9 0
-39 -76 -77 -93 -94 0
-2 -76 -6 -93 -94 0
-15 -76 -19 -93 -94 0
-2 -77 -6 -93 -95 0
-15 -77 -19 -93 -95 0
-15 -6 -19 -93 -9 0
-2 -77 -6 -94 -95 0
-15 -77 -19 -94 -95 0
-15 -6 -19 -94 -9 0
-15 -6 -19 -95 -9 0
-38 -75 -76 -96 -97 0
-39 -75 -77 -96 -97 0
-2 -75 -6 -96 -97 0
-15 -75 -19 -96 -97 0
-39 -76 -77 -96 -98 0
-2 -76 -6 -96 -98 0
-15 -76 -19 -96 -98 0
-2 -77 -6 -96 -99 0
-15 -77 -19 -96 -99 0
-15 -6 -19 -96 -10 0
-39 -76 -77 -97 -98 0
-2 -76 -6 -97 -98 0
-15 -76 -19 -97 -98 0
-2 -77 -6 -97 -99 0
-15 -77 -19 -97 -99 0
-15 -6 -19 -97 -10 0
-2 -77 -6 -98 -99 0
-15 -77 -19 -98 -99 0
-15 -6 -19 -98 -10 0
-15 -6 -19 -99 -10 0
-39 -76 -77 -100 -101 0
-2 -76 -6 -100 -101 0
-15 -76 -19 -100 -101 0
-2 -77 -6 -100 -102 0
-15 -77 -19 -100 -102 0
-15 -6 -19 -100 -11 0
-2 -77 -6 -101 -102 0
-15 -77 -19 -101 -102 0
-15 -6 -19 -101 -11 0
-15 -6 -19 -102 -11 0
-2 -77 -6 -103 -104 0
-15 -77 -19 -103 -104 0
-15 -6 -19 -103 -12 0
-15 -6 -19 -104 -12 0
-15 -6 -19 -105 -13 0
-36 -80 -81 -85 -86 0
-37 -80 -82 -85 -86 0
-38 -80 -83 -85 -86 0
-39 -80 -84 -85 -86 0
-2 -80 -7 -85 -86 0
-15 -80 -20 -85 -86 0
-37 -81 -82 -85 -87 0
-38 -81 -83 -85 -87 0
-39 -81 -84 -85 -87 0
-2 -81 -7 -85 -87 0
-15 -81 -20 -85 -87 0
-38 -82 -83 -85 -88 0
-39 -82 -84 -85 -88 0
-2 -82 -7 -85 -88 0
-15 -82 -20 -85 -88 0
-39 -83 -84 -85 -89 0
-2 -83 -7 -85 -89 0
-15 -83 -20 -85 -89 0
-2 -84 -7 -85 -90 0
-15 -84 -20 -85 -90 0
-15 -7 -20 -85 -8 0
-37 -81 -82 -86 -87 0
-38 -81 -83 -86 -87 0
-39 -81 -84 -86 -87 0
-2 -81 -7 -86 -87 0
-15 -81 -20 -86 -87 0
-38 -82 -83 -86 -88 0
-39 -82 -84 -86 -88 0
-2 -82 -7 -86 -88 0
-15 -82 -20 -86 -88 0
-39 -83 -84 -86 -89 0
-2 -83 -7 -86 -89 0
-15 -83 -20 -86 -89 0
-2 -84 -7 -86 -90 0
-15 -84 -20 -86 -90 0
-15 -7 -20 -86 -8 0
-38 -82 -83 -87 -88 0
-39 -82 -84 -87 -88 0
-2 -82 -7 -87 -88 0
-15 -82 -20 -87 -88 0
-39 -83 -84 -87 -89 0
-2 -83 -7 -87 -89 0
-15 -83 -20 -87 -89 0
-2 -84 -7 -87 -90 0
-15 -84 -20 -87 -90 0
-15 -7 -20 -87 -8 0
-39 -83 -84 -88 -89 0
-2 -83 -7 -88 -89 0
-15 -83 -20 -88 -89 0
-2 -84 -7 -88 -90 0
-15 -84 -20 -88 -90 0
-15 -7 -20 -88 -8 0
-2 -84 -7 -89 -90 0
-15 -84 -20 -89 -90 0
-15 -7 -20 -89 -8 0
-15 -7 -20 -90 -8 0
-37 -81 -82 -91 -92 0
-38 -81 -83 -91 -92 0
-39 -81 -84 -91 -92 0
-2 -81 -7 -91 -92 0
-15 -81 -20 -91 -92 0
-38 -82 -83 -91 -93 0
-39 -82 -84 -91 -93 0
-2 -82 -7 -91 -93 0
-15 -82 -20 -91 -93 0
-39 -83 -84 -91 -94 0
-2 -83 -7 -91 -94 0
-15 -83 -20 -91 -94 0
-2 -84 -7 -91 -95 0
-15 -84 -20 -91 -95 0
-15 -7 -20 -91 -9 0
-38 -82 -83 -92 -93 0
-39 -82 -84 -92 -93 0
-2 -82 -7 -92 -93 0
-15 -82 -20 -92 -93 0
-39 -83 -84 -92 -94 0
-2 -83 -7 -92 -94 0
-15 -83 -20 -92 -94 0
-2 -84 -7 -92 -95 0
-15 -84 -20 -92 -95 0
-15 -7 -20 -92 -9 0
-39 -83 -84 -93 -94 0
-2 -83 -7 -93 -94 0
-15 -83 -20 -93 -94 0
-2 -84 -7 -93 -95 0
-15 -84 -20 -93 -95 0
-15 -7 -20 -93 -9 0
-2 -84 -7 -94 -95 0
-15 -84 -20 -94 -95 0
-15 -7 -20 -94 -9 0
-15 -7 -20 -95 -9 0
-38 -82 -83 -96 -97 0
-39 -82 -84 -96 -97 0
-2 -82 -7 -96 -97 0
-15 -82 -20 -96 -97 0
-39 -83 -84 -96 -98 0
-2 -83 -7 -96 -98 0
-15 -83 -20 -96 -98 0
-2 -84 -7 -96 -99 0
-15 -84 -20 -96 -99 0
-15 -7 -20 -96 -10 0
-39 -83 -84 -97 -98 0
-2 -83 -7 -97 -98 0
-15 -83 -20 -97 -98 0
-2 -84 -7 -97 -99 0
-15 -84 -20 -97 -99 0
-15 -7 -20 -97 -10 0
-2 -84 -7 -98 -99 0
-15 -84 -20 -98 -99 0
-15 -7 -20 -98 -10 0
-15 -7 -20 -99 -10 0
-39 -83 -84 -100 -101 0
-2 -83 -7 -100 -101 0
-15 -83 -20 -100 -101 0
-2 -84 -7 -100 -102 0
-15 -84 -20 -100 -102 0
-15 -7 -20 -100 -11 0
-2 -84 -7 -101 -102 0
-15 -84 -20 -101 -102 0
-15 -7 -20 -101 -11 0
-15 -7 -20 -102 -11 0
-2 -84 -7 -103 -104 0
-15 -84 -20 -103 -104 0
-15 -7 -20 -103 -12 0
-15 -7 -20 -104 -12 0
-15 -7 -20 -105 -13 0
-37 -87 -88 -91 -92 0
-38 -87 -89 -91 -92 0
-39 -87 -90 -91 -92 0
-2 -87 -8 -91 -92 0
-15 -87 -21 -91 -92 0
-38 -88 -89 -91 -93 0
-39 -88 -90 -91 -93 0
-2 -88 -8 -91 -93 0
-15 -88 -21 -91 -93 0
-39 -89 -90 -91 -94 0
-2 -89 -8 -91 -94 0
-15 -89 -21 -91 -94 0
-2 -90 -8 -91 -95 0
-15 -90 -21 -91 -95 0
-15 -8 -21 -91 -9 0
-38 -88 -89 -92 -93 0
-39 -88 -90 -92 -93 0
-2 -88 -8 -92 -93 0
-15 -88 -21 -92 -93 0
-39 -89 -90 -92 -94 0
-2 -89 -8 -92 -94 0
-15 -89 -21 -92 -94 0
-2 -90 -8 -92 -95 0
-15 -90 -21 -92 -95 0
-15 -8 -21 -92 -9 0
-39 -89 -90 -93 -94 0
-2 -89 -8 -93 -94 0
-15 -89 -21 -93 -94 0
-2 -90 -8 -93 -95 0
-15 -90 -21 -93 -95 0
-15 -8 -21 -93 -9 0
-2 -90 -8 -94 -95 0
-15 -90 -21 -94 -95 0
-15 -8 -21 -94 -9 0
-15 -8 -21 -95 -9 0
-38 -88 -89 -96 -97 0
-39 -88 -90 -96 -97 0
-2 -88 -8 -96 -97 0
-15 -88 -21 -96 -97 0
-39 -89 -90 -96 -98 0
-2 -89 -8 -96 -98 0
-15 -89 -21 -96 -98 0
-2 -90 -8 -96 -99 0
-15 -90 -21 -96 -99 0
-15 -8 -21 -96 -10 0
-39 -89 -90 -97 -98 0
-2 -89 -8 -97 -98 0
-15 -89 -21 -97 -98 0
-2 -90 -8 -97 -99 0
-15 -90 -21 -97 -99 0
-15 -8 -21 -97 -10 0
-2 -90 -8 -98 -99 0
-15 -90 -21 -98 -99 0
-15 -8 -21 -98 -10 0
-15 -8 -21 -99 -10 0
-39 -89 -90 -100 -101 0
-2 -89 -8 -100 -101 0
-15 -89 -21 -100 -101 0
-2 -90 -8 -100 -102 0
-15 -90 -21 -100 -102 0
-15 -8 -21 -100 -11 0
-2 -90 -8 -101 -102 0
-15 -90 -21 -101 -102 0
-15 -8 -21 -101 -11 0
-15 -8 -21 -102 -11 0
-2 -90 -8 -103 -104 0
-15 -90 -21 -103 -104 0
-15 -8 -21 -103 -12 0
-15 -8 -21 -104 -12 0
-15 -8 -21 -105 -13 0
-38 -93 -94 -96 -97 0
-39 -93 -95 -96 -97 0
-2 -93 -9 -96 -97 0
-15 -93 -22 -96 -97 0
-39 -94 -95 -96 -98 0
-2 -94 -9 -96 -98 0
-15 -94 -22 -96 -98 0
-2 -95 -9 -96 -99 0
-15 -95 -22 -96 -99 0
-15 -9 -22 -96 -10 0
-39 -94 -95 -97 -98 0
-2 -94 -9 -97 -98 0
-15 -94 -22 -97 -98 0
-2 -95 -9 -97 -99 0
-15 -95 -22 -97 -99 0
-15 -9 -22 -97 -10 0
-2 -95 -9 -98 -99 0
-15 -95 -22 -98 -99 0
-15 -9 -22 -98 -10 0
-15 -9 -22 -99 -10 0
-39 -94 -95 -100 -101 0
-2 -94 -9 -100 -101 0
-15 -94 -22 -100 -101 0
-2 -95 -9 -100 -102 0
-15 -95 -22 -100 -102 0
-15 -9 -22 -100 -11 0
-2 -95 -9 -101 -102 0
-15 -95 -22 -101 -102 0
-15 -9 -22 -101 -11 0
-15 -9 -22 -102 -11 0
-2 -95 -9 -103 -104 0
-15 -95 -22 -103 -104 0
-15 -9 -22 -103 -12 0
-15 -9 -22 -104 -12 0
-15 -9 -22 -105 -13 0
-39 -98 -99 -100 -101 0
-2 -98 -10 -100 -101 0
-15 -98 -23 -100 -101 0
-2 -99 -10 -100 -102 0
-15 -99 -23 -100 -102 0
-15 -10 -23 -100 -11 0
-2 -99 -10 -101 -102 0
-15 -99 -23 -101 -102 0
-15 -10 -23 -101 -11 0
-15 -10 -23 -102 -11 0
-2 -99 -10 -103 -104 0
-15 -99 -23 -103 -104 0
-15 -10 -23 -103 -12 0
-15 -10 -23 -104 -12 0
-15 -10 -23 -105 -13 0
-2 -102 -11 -103 -104 0
-15 -102 -24 -103 -104 0
-15 -11 -24 -103 -12 0
-15 -11 -24 -104 -12 0
-15 -11 -24 -105 -13 0
-15 -12 -25 -105 -13 0
-44 -53 -54 -61 -62 0
-45 -53 -55 -61 -62 0
-46 -53 -56 -61 -62 0
-47 -53 -57 -61 -62 0
-48 -53 -58 -61 -62 0
-49 -53 -59 -61 -62 0
-50 -53 -60 -61 -62 0
-3 -53 -4 -61 -62 0
-16 -53 -17 -61 -62 0
-28 -53 -29 -61 -62 0
-45 -54 -55 -61 -63 0
-46 -54 -56 -61 -63 0
-47 -54 -57 -61 -63 0
-48 -54 -58 -61 -63 0
-49 -54 -59 -61 -63 0
-50 -54 -60 -61 -63 0
-3 -54 -4 -61 -63 0
-16 -54 -17 -61 -63 0
-28 -54 -29 -61 -63 0
-46 -55 -56 -61 -64 0
-47 -55 -57 -61 -64 0
-48 -55 -58 -61 -64 0
-49 -55 -59 -61 -64 0
-50 -55 -60 -61 -64 0
-3 -55 -4 -61 -64 0
-16 -55 -17 -61 -64 0
-28 -55 -29 -61 -64 0
-47 -56 -57 -61 -65 0
-48 -56 -58 -61 -65 0
-49 -56 -59 -61 -65 0
-50 -56 -60 -61 -65 0
-3 -56 -4 -61 -65 0
-16 -56 -17 -61 -65 0
-28 -56 -29 -61 -65 0
-48 -57 -58 -61 -66 0
-49 -57 -59 -61 -66 0
-50 -57 -60 -61 -66 0
-3 -57 -4 -61 -66 0
-16 -57 -17 -61 -66 0
-28 -57 -29 -61 -66 0
-49 -58 -59 -61 -67 0
-50 -58 -60 -61 -67 0
-3 -58 -4 -61 -67 0
-16 -58 -17 -61 -67 0
-28 -58 -29 -61 -67 0
-50 -59 -60 -61 -68 0
-3 -59 -4 -61 -68 0
-16 -59 -17 -61 -68 0
-28 -59 -29 -61 -68 0
-3 -60 -4 -61 -69 0
-16 -60 -17 -61 -69 0
-28 -60 -29 -61 -69 0
-16 -4 -17 -61 -5 0
-28 -4 -29 -61 -5 0
-28 -17 -29 -61 -18 0
-45 -54 -55 -62 -63 0
-46 -54 -56 -62 -63 0
-47 -54 -57 -62 -63 0
-48 -54 -58 -62 -63 0
-49 -54 -59 -62 -63 0
-50 -54 -60 -62 -63 0
-3 -54 -4 -62 -63 0
-16 -54 -17 -62 -63 0
-28 -54 -29 -62 -63 0
-46 -55 -56 -62 -64 0
-47 -55 -57 -62 -64 0
-48 -55 -58 -62 -64 0
-49 -55 -59 -62 -64 0
-50 -55 -60 -62 -64 0
-3 -55 -4 -62 -64 0
-16 -55 -17 -62 -64 0
-28 -55 -29 -62 -64 0
-47 -56 -57 -62 -65 0
-48 -56 -58 -62 -65 0
-49 -56 -59 -62 -65 0
-50 -56 -60 -62 -65 0
-3 -56 -4 -62 -65 0
-16 -56 -17 -62 -65 0
-28 -56 -29 -62 -65 0
-48 -57 -58 -62 -66 0
-49 -57 -59 -62 -66 0
-50 -57 -60 -62 -66 0
-3 -57 -4 -62 -66 0
-16 -57 -17 -62 -66 0
-28 -57 -29 -62 -66 0
-49 -58 -59 -62 -67 0
-50 -58 -60 -62 -67 0
-3 -58 -4 -62 -67 0
-16 -58 -17 -62 -67 0
-28 -58 -29 -62 -67 0
-50 -59 -60 -62 -68 0
-3 -59 -4 -62 -68 0
-16 -59 -17 -62 -68 0
-28 -59 -29 -62 -68 0
-3 -60 -4 -62 -69 0
-16 -60 -17 -62 -69 0
-28 -60 -29 -62 -69 0
-16 -4 -17 -62 -5 0
-28 -4 -29 -62 -5 0
-28 -17 -29 -62 -18 0
-46 -55 -56 -63 -64 0
-47 -55 -57 -63 -64 0
-48 -55 -58 -63 -64 0
-49 -55 -59 -63 -64 0
-50 -55 -60 -63 -64 0
-3 -55 -4 -63 -64 0
-16 -55 -17 -63 -64 0
-28 -55 -29 -63 -64 0
-47 -56 -57 -63 -65 0
-48 -56 -58 -63 -65 0
-49 -56 -59 -63 -65 0
-50 -56 -60 -63 -65 0
-3 -56 -4 -63 -65 0
-16 -56 -17 -63 -65 0
-28 -56 -29 -63 -65 0
-48 -57 -58 -63 -66 0
-49 -57 -59 -63 -66 0
-50 -57 -60 -63 -66 0
-3 -57 -4 -63 -66 0
-16 -57 -17 -63 -66 0
-28 -57 -29 -63 -66 0
-49 -58 -59 -63 -67 0
-50 -58 -60 -63 -67 0
-3 -58 -4 -63 -67 0
-16 -58 -17 -63 -67 0
-28 -58 -29 -63 -67 0
-50 -59 -60 -63 -68 0
-3 -59 -4 -63 -68 0
-16 -59 -17 -63 -68 0
-28 -59 -29 -63 -68 0
-3 -60 -4 -63 -69 0
-16 -60 -17 -63 -69 0
-28 -60 -29 -63 -69 0
-16 -4 -17 -63 -5 0
-28 -4 -29 -63 -5 0
-28 -17 -29 -63 -18 0
-47 -56 -57 -64 -65 0
-48 -56 -58 -64 -65 0
-49 -56 -59 -64 -65 0
-50 -56 -60 -64 -65 0
-3 -56 -4 -64 -65 0
-16 -56 -17 -64 -65 0
-28 -56 -29 -64 -65 0
-48 -57 -58 -64 -66 0
-49 -57 -59 -64 -66 0
-50 -57 -60 -64 -66 0
-3 -57 -4 -64 -66 0
-16 -57 -17 -64 -66 0
-28 -57 -29 -64 -66 0
-49 -58 -59 -64 -67 0
-50 -58 -60 -64 -67 0
-3 -58 -4 -64 -67 0
-16 -58 -17 -64 -67 0
-28 -58 -29 -64 -67 0
-50 -59 -60 -64 -68 0
-3 -59 -4 -64 -68 0
-16 -59 -17 -64 -68 0
-28 -59 -29 -64 -68 0
-3 -60 -4 -64 -69 0
-16 -60 -17 -64 -69 0
-28 -60 -29 -64 -69 0
-16 -4 -17 -64 -5 0
-28 -4 -29 -64 -5 0
-28 -17 -29 -64 -18 0
-48 -57 -58 -65 -66 0
-49 -57 -59 -65 -66 0
-50 -57 -60 -65 -66 0
-3 -57 -4 -65 -66 0
-16 -57 -17 -65 -66 0
-28 -57 -29 -65 -66 0
-49 -58 -59 -65 -67 0
-50 -58 -60 -65 -67 0
-3 -58 -4 -65 -67 0
-16 -58 -17 -65 -67 0
-28 -58 -29 -65 -67 0
-50 -59 -60 -65 -68 0
-3 -59 -4 -65 -68 0
-16 -59 -17 -65 -68 0
-28 -59 -29 -65 -68 0
-3 -60 -4 -65 -69 0
-16 -60 -17 -65 -69 0
-28 -60 -29 -65 -69 0
-16 -4 -17 -65 -5 0
-28 -4 -29 -65 -5 0
-28 -17 -29 -65 -18 0
-49 -58 -59 -66 -67 0
-50 -58 -60 -66 -67 0
-3 -58 -4 -66 -67 0
-16 -58 -17 -66 -67 0
-28 -58 -29 -66 -67 0
-50 -59 -60 -66 -68 0
-3 -59 -4 -66 -68 0
-16 -59 -17 -66 -68 0
-28 -59 -29 -66 -68 0
-3 -60 -4 -66 -69 0
-16 -60 -17 -66 -69 0
-28 -60 -29 -66 -69 0
-16 -4 -17 -66 -5 0
-28 -4 -29 -66 -5 0
-28 -17 -29 -66 -18 0
-50 -59 -60 -67 -68 0
-3 -59 -4 -67 -68 0
-16 -59 -17 -67 -68 0
-28 -59 -29 -67 -68 0
-3 -60 -4 -67 -69 0
-16 -60 -17 -67 -69 0
-28 -60 -29 -67 -69 0
-16 -4 -17 -67 -5 0
-28 -4 -29 -67 -5 0
-28 -17 -29 -67 -18 0
-3 -60 -4 -68 -69 0
-16 -60 -17 -68 -69 0
-28 -60 -29 -68 -69 0
-16 -4 -17 -68 -5 0
-28 -4 -29 -68 -5 0
-28 -17 -29 -68 -18 0
-16 -4 -17 -69 -5 0
-28 -4 -29 -69 -5 0
-28 -17 -29 -69 -18 0
-28 -17 -29 -5 -18 0
-45 -54 -55 -70 -71 0
-46 -54 -56 -70 -71 0
-47 -54 -57 -70 -71 0
-48 -54 -58 -70 -71 0
-49 -54 -59 -70 -71 0
-50 -54 -60 -70 -71 0
-3 -54 -4 -70 -71 0
-16 -54 -17 -70 -71 0
-28 -54 -29 -70 -71 0
-46 -55 -56 -70 -72 0
-47 -55 -57 -70 -72 0
-48 -55 -58 -70 -72 0
-49 -55 -59 -70 -72 0
-50 -55 -60 -70 -72 0
-3 -55 -4 -70 -72 0
-16 -55 -17 -70 -72 0
-28 -55 -29 -70 -72 0
-47 -56 -57 -70 -73 0
-48 -56 -58 -70 -73 0
-49 -56 -59 -70 -73 0
-50 -56 -60 -70 -73 0
-3 -56 -4 -70 -73 0
-16 -56 -17 -70 -73 0
-28 -56 -29 -70 -73 0
-48 -57 -58 -70 -74 0
-49 -57 -59 -70 -74 0
-50 -57 -60 -70 -74 0
-3 -57 -4 -70 -74 0
-16 -57 -17 -70 -74 0
-28 -57 -29 -70 -74 0
-49 -58 -59 -70 -75 0
-50 -58 -60 -70 -75 0
-3 -58 -4 -70 -75 0
-16 -58 -17 -70 -75 0
-28 -58 -29 -70 -75 0
-50 -59 -60 -70 -76 0
-3 -59 -4 -70 -76 0
-16 -59 -17 -70 -76 0
-28 -59 -29 -70 -76 0
-3 -60 -4 -70 -77 0
-16 -60 -17 -70 -77 0
-28 -60 -29 -70 -77 0
-16 -4 -17 -70 -6 0
-28 -4 -29 -70 -6 0
-28 -17 -29 -70 -19 0
-46 -55 -56 -71 -72 0
-47 -55 -57 -71 -72 0
-48 -55 -58 -71 -72 0
-49 -55 -59 -71 -72 0
-50 -55 -60 -71 -72 0
-3 -55 -4 -71 -72 0
-16 -55 -17 -71 -72 0
-28 -55 -29 -71 -72 0
-47 -56 -57 -71 -73 0
-48 -56 -58 -71 -73 0
-49 -56 -59 -71 -73 0
-50 -56 -60 -71 -73 0
-3 -56 -4 -71 -73 0
-16 -56 -17 -71 -73 0
-28 -56 -29 -71 -73 0
-48 -57 -58 -71 -74 0
-49 -57 -59 -71 -74 0
-50 -57 -60 -71 -74 0
-3 -57 -4 -71 -74 0
-16 -57 -17 -71 -74 0
-28 -57 -29 -71 -74 0
-49 -58 -59 -71 -75 0
-50 -58 -60 -71 -75 0
-3 -58 -4 -71 -75 0
-16 -58 -17 -71 -75 0
-28 -58 -29 -71 -75 0
-50 -59 -60 -71 -76 0
-3 -59 -4 -71 -76 0
-16 -59 -17 -71 -76 0
-28 -59 -29 -71 -76 0
-3 -60 -4 -71 -77 0
-16 -60 -17 -71 -77 0
-28 -60 -29 -71 -77 0
-16 -4 -17 -71 -6 0
-28 -4 -29 -71 -6 0
-28 -17 -29 -71 -19 0
-47 -56 -57 -72 -73 0
-48 -56 -58 -72 -73 0
-49 -56 -59 -72 -73 0
-50 -56 -60 -72 -73 0
-3 -56 -4 -72 -73 0
-16 -56 -17 -72 -73 0
-28 -56 -29 -72 -73 0
-48 -57 -58 -72 -74 0
-49 -57 -59 -72 -74 0
-50 -57 -60 -72 -74 0
-3 -57 -4 -72 -74 0
-16 -57 -17 -72 -74 0
-28 -57 -29 -72 -74 0
-49 -58 -59 -72 -75 0
-50 -58 -60 -72 -75 0
-3 -58 -4 -72 -75 0
-16 -58 -17 -72 -75 0
-28 -58 -29 -72 -75 0
-50 -59 -60 -72 -76 0
-3 -59 -4 -72 -76 0
-16 -59 -17 -72 -76 0
-28 -59 -29 -72 -76 0
-3 -60 -4 -72 -77 0
-16 -60 -17 -72 -77 0
-28 -60 -29 -72 -77 0
-16 -4 -17 -72 -6 0
-28 -4 -29 -72 -6 0
-28 -17 -29 -72 -19 0
-48 -57 -58 -73 -74 0
-49 -57 -59 -73 -74 0
-50 -57 -60 -73 -74 0
-3 -57 -4 -73 -74 0
-16 -57 -17 -73 -74 0
-28 -57 -29 -73 -74 0
-49 -58 -59 -73 -75 0
-50 -58 -60 -73 -75 0
-3 -58 -4 -73 -75 0
-16 -58 -17 -73 -75 0
-28 -58 -29 -73 -75 0
-50 -59 -60 -73 -76 0
-3 -59 -4 -73 -76 0
-16 -59 -17 -73 -76 0
-28 -59 -29 -73 -76 0
-3 -60 -4 -73 -77 0
-16 -60 -17 -73 -77 0
-28 -60 -29 -73 -77 0
-16 -4 -17 -73 -6 0
-28 -4 -29 -73 -6 0
-28 -17 -29 -73 -19 0
-49 -58 -59 -74 -75 0
-50 -58 -60 -74 -75 0
-3 -58 -4 -74 -75 0
-16 -58 -17 -74 -75 0
-28 -58 -29 -74 -75 0
-50 -59 -60 -74 -76 0
-3 -59 -4 -74 -76 0
-16 -59 -17 -74 -76 0
-28 -59 -29 -74 -76 0
-3 -60 -4 -74 -77 0
-16 -60 -17 -74 -77 0
-28 -60 -29 -74 -77 0
-16 -4 -17 -74 -6 0
-28 -4 -29 -74 -6 0
-28 -17 -29 -74 -19 0
-50 -59 -60 -75 -76 0
-3 -59 -4 -75 -76 0
-16 -59 -17 -75 -76 0
-28 -59 -29 -75 -76 0
-3 -60 -4 -75 -77 0
-16 -60 -17 -75 -77 0
-28 -60 -29 -75 -77 0
-16 -4 -17 -75 -6 0
-28 -4 -29 -75 -6 0
-28 -17 -29 -75 -19 0
-3 -60 -4 -76 -77 0
-16 -60 -17 -76 -77 0
-28 -60 -29 -76 -77 0
-16 -4 -17 -76 -6 0
-28 -4 -29 -76 -6 0
-28 -17 -29 -76 -19 0
-16 -4 -17 -77 -6 0
-28 -4 -29 -77 -6 0
-28 -17 -29 -77 -19 0
-28 -17 -29 -6 -19 0
-46 -55 -56 -78 -79 0
-47 -55 -57 -78 -79 0
-48 -55 -58 -78 -79 0
-49 -55 -59 -78 -79 0
-50 -55 -60 -78 -79 0
-3 -55 -4 -78 -79 0
-16 -55 -17 -78 -79 0
-28 -55 -29 -78 -79 0
-47 -56 -57 -78 -80 0
-48 -56 -58 -78 -80 0
-49 -56 -59 -78 -80 0
-50 -56 -60 -78 -80 0
-3 -56 -4 -78 -80 0
-16 -56 -17 -78 -80 0
-28 -56 -29 -78 -80 0
-48 -57 -58 -78 -81 0
-49 -57 -59 -78 -81 0
-50 -57 -60 -78 -81 0
-3 -57 -4 -78 -81 0
-16 -57 -17 -78 -81 0
-28 -57 -29 -78 -81 0
-49 -58 -59 -78 -82 0
-50 -58 -60 -78 -82 0
-3 -58 -4 -78 -82 0
-16 -58 -17 -78 -82 0
-28 -58 -29 -78 -82 0
-50 -59 -60 -78 -83 0
-3 -59 -4 -78 -83 0
-16 -59 -17 -78 -83 0
-28 -59 -29 -78 -83 0
-3 -60 -4 -78 -84 0
-16 -60 -17 -78 -84 0
-28 -60 -29 -78 -84 0
-16 -4 -17 -78 -7 0
-28 -4 -29 -78 -7 0
-28 -17 -29 -78 -20 0
-47 -56 -57 -79 -80 0
-48 -56 -58 -79 -80 0
-49 -56 -59 -79 -80 0
-50 -56 -60 -79 -80 0
-3 -56 -4 -79 -80 0
-16 -56 -17 -79 -80 0
-28 -56 -29 -79 -80 0
-48 -57 -58 -79 -81 0
-49 -57 -59 -79 -81 0
-50 -57 -60 -79 -81 0
-3 -57 -4 -79 -81 0
-16 -57 -17 -79 -81 0
-28 -57 -29 -79 -81 0
-49 -58 -59 -79 -82 0
-50 -58 -60 -79 -82 0
-3 -58 -4 -79 -82 0
-16 -58 -17 -79 -82 0
-28 -58 -29 -79 -82 0
-50 -59 -60 -79 -83 0
-3 -59 -4 -79 -83 0
-16 -59 -17 -79 -83 0
-28 -59 -29 -79 -83 0
-3 -60 -4 -79 -84 0
-16 -60 -17 -79 -84 0
-28 -60 -29 -79 -84 0
-16 -4 -17 -79 -7 0
-28 -4 -29 -79 -7 0
-28 -17 -29 -79 -20 0
-48 -57 -58 -80 -81 0
-49 -57 -59 -80 -81 0
-50 -57 -60 -80 -81 0
-3 -57 -4 -80 -81 0
-16 -57 -17 -80 -81 0
-28 -57 -29 -80 -81 0
-49 -58 -59 -80 -82 0
-50 -58 -60 -80 -82 0
-3 -58 -4 -80 -82 0
-16 -58 -17 -80 -82 0
-28 -58 -29 -80 -82 0
-50 -59 -60 -80 -83 0
-3 -59 -4 -80 -83 0
-16 -59 -17 -80 -83 0
-28 -59 -29 -80 -83 0
-3 -60 -4 -80 -84 0
-16 -60 -17 -80 -84 0
-28 -60 -29 -80 -84 0
-16 -4 -17 -80 -7 0
-28 -4 -29 -80 -7 0
-28 -17 -29 -80 -20 0
-49 -58 -59 -81 -82 0
-50 -58 -60 -81 -82 0
-3 -58 -4 -81 -82 0
-16 -58 -17 -81 -82 0
-28 -58 -29 -81 -82 0
-50 -59 -60 -81 -83 0
-3 -59 -4 -81 -83 0
-16 -59 -17 -81 -83 0
-28 -59 -29 -81 -83 0
-3 -60 -4 -81 -84 0
-16 -60 -17 -81 -84 0
-28 -60 -29 -81 -84 0
-16 -4 -17 -81 -7 0
-28 -4 -29 -81 -7 0
-28 -17 -29 -81 -20 0
-50 -59 -60 -82 -83 0
-3 -59 -4 -82 -83 0
-16 -59 -17 -82 -83 0
-28 -59 -29 -82 -83 0
-3 -60 -4 -82 -84 0
-16 -60 -17 -82 -84 0
-28 -60 -29 -82 -84 0
-16 -4 -17 -82 -7 0
-28 -4 -29 -82 -7 0
-28 -17 -29 -82 -20 0
-3 -60 -4 -83 -84 0
-16 -60 -17 -83 -84 0
-28 -60 -29 -83 -84 0
-16 -4 -17 -83 -7 0
-28 -4 -29 -83 -7 0
-28 -17 -29 -83 -20 0
-16 -4 -17 -84 -7 0
-28 -4 -29 -84 -7 0
-28 -17 -29 -84 -20 0
-28 -17 -29 -7 -20 0
-47 -56 -57 -85 -86 0
-48 -56 -58 -85 -86 0
-49 -56 -59 -85 -86 0
-50 -56 -60 -85 -86 0
-3 -56 -4 -85 -86 0
-16 -56 -17 -85 -86 0
-28 -56 -29 -85 -86 0
-48 -57 -58 -85 -87 0
-49 -57 -59 -85 -87 0
-50 -57 -60 -85 -87 0
-3 -57 -4 -85 -87 0
-16 -57 -17 -85 -87 0
-28 -57 -29 -85 -87 0
-49 -58 -59 -85 -88 0
-50 -58 -60 -85 -88 0
-3 -58 -4 -85 -88 0
-16 -58 -17 -85 -88 0
-28 -58 -29 -85 -88 0
-50 -59 -60 -85 -89 0
-3 -59 -4 -85 -89 0
-16 -59 -17 -85 -89 0
-28 -59 -29 -85 -89 0
-3 -60 -4 -85 -90 0
-16 -60 -17 -85 -90 0
-28 -60 -29 -85 -90 0
-16 -4 -17 -85 -8 0
-28 -4 -29 -85 -8 0
-28 -17 -29 -85 -21 0
-48 -57 -58 -86 -87 0
-49 -57 -59 -86 -87 0
-50 -57 -60 -86 -87 0
-3 -57 -4 -86 -87 0
-16 -57 -17 -86 -87 0
-28 -57 -29 -86 -87 0
-49 -58 -59 -86 -88 0
-50 -58 -60 -86 -88 0
-3 -58 -4 -86 -88 0
-16 -58 -17 -86 -88 0
-28 -58 -29 -86 -88 0
-50 -59 -60 -86 -89 0
-3 -59 -4 -86 -89 0
-16 -59 -17 -86 -89 0
-28 -59 -29 -86 -89 0
-3 -60 -4 -86 -90 0
-16 -60 -17 -86 -90 0
-28 -60 -29 -86 -90 0
-16 -4 -17 -86 -8 0
-28 -4 -29 -86 -8 0
-28 -17 -29 -86 -21 0
-49 -58 -59 -87 -88 0
-50 -58 -60 -87 -88 0
-3 -58 -4 -87 -88 0
-16 -58 -17 -87 -88 0
-28 -58 -29 -87 -88 0
-50 -59 -60 -87 -89 0
-3 -59 -4 -87 -89 0
-16 -59 -17 -87 -89 0
-28 -59 -29 -87 -89 0
-3 -60 -4 -87 -90 0
-16 -60 -17 -87 -90 0
-28 -60 -29 -87 -90 0
-16 -4 -17 -87 -8 0
-28 -4 -29 -87 -8 0
-28 -17 -29 -87 -21 0
-50 -59 -60 -88 -89 0
-3 -59 -4 -88 -89 0
-16 -59 -17 -88 -89 0
-28 -59 -29 -88 -89 0
-3 -60 -4 -88 -90 0
-16 -60 -17 -88 -90 0
-28 -60 -29 -88 -90 0
-16 -4 -17 -88 -8 0
-28 -4 -29 -88 -8 0
-28 -17 -29 -88 -21 0
-3 -60 -4 -89 -90 0
-16 -60 -17 -89 -90 0
-28 -60 -29 -89 -90 0
-16 -4 -17 -89 -8 0
-28 -4 -29 -89 -8 0
-28 -17 -29 -89 -21 0
-16 -4 -17 -90 -8 0
-28 -4 -29 -90 -8 0
-28 -17 -29 -90 -21 0
-28 -17 -29 -8 -21 0
-48 -57 -58 -91 -92 0
-49 -57 -59 -91 -92 0
-50 -57 -60 -91 -92 0
-3 -57 -4 -91 -92 0
-16 -57 -17 -91 -92 0
-28 -57 -29 -91 -92 0
-49 -58 -59 -91 -93 0
-50 -58 -60 -91 -93 0
-3 -58 -4 -91 -93 0
-16 -58 -17 -91 -93 0
-28 -58 -29 -91 -93 0
-50 -59 -60 -91 -94 0
-3 -59 -4 -91 -94 0
-16 -59 -17 -91 -94 0
-28 -59 -29 -91 -94 0
-3 -60 -4 -91 -95 0
-16 -60 -17 -91 -95 0
-28 -60 -29 -91 -95 0
-16 -4 -17 -91 -9 0
-28 -4 -29 -91 -9 0
-28 -17 -29 -91 -22 0
-49 -58 -59 -92 -93 0
-50 -58 -60 -92 -93 0
-3 -58 -4 -92 -93 0
-16 -58 -17 -92 -93 0
-28 -58 -29 -92 -93 0
-50 -59 -60 -92 -94 0
-3 -59 -4 -92 -94 0
-16 -59 -17 -92 -94 0
-28 -59 -29 -92 -94 0
-3 -60 -4 -92 -95 0
-16 -60 -17 -92 -95 0
-28 -60 -29 -92 -95 0
-16 -4 -17 -92 -9 0
-28 -4 -29 -92 -9 0
-28 -17 -29 -92 -22 0
-50 -59 -60 -93 -94 0
-3 -59 -4 -93 -94 0
-16 -59 -17 -93 -94 0
-28 -59 -29 -93 -94 0
-3 -60 -4 -93 -95 0
-16 -60 -17 -93 -95 0
-28 -60 -29 -93 -95 0
-16 -4 -17 -93 -9 0
-28 -4 -29 -93 -9 0
-28 -17 -29 -93 -22 0
-3 -60 -4 -94 -95 0
-16 -60 -17 -94 -95 0
-28 -60 -29 -94 -95 0
-16 -4 -17 -94 -9 0
-28 -4 -29 -94 -9 0
-28 -17 -29 -94 -22 0
-16 -4 -17 -95 -9 0
-28 -4 -29 -95 -9 0
-28 -17 -29 -95 -22 0
-28 -17 -29 -9 -22 0
-49 -58 -59 -96 -97 0
-50 -58 -60 -96 -97 0
-3 -58 -4 -96 -97 0
-16 -58 -17 -96 -97 0
-28 -58 -29 -96 -97 0
-50 -59 -60 -96 -98 0
-3 -59 -4 -96 -98 0
-16 -59 -17 -96 -98 0
-28 -59 -29 -96 -98 0
-3 -60 -4 -96 -99 0
-16 -60 -17 -96 -99 0
-28 -60 -29 -96 -99 0
-16 -4 -17 -96 -10 0
-28 -4 -29 -96 -10 0
-28 -17 -29 -96 -23 0
-50 -59 -60 -97 -98 0
-3 -59 -4 -97 -98 0
-16 -59 -17 -97 -98 0
-28 -59 -29 -97 -98 0
-3 -60 -4 -97 -99 0
-16 -60 -17 -97 -99 0
-28 -60 -29 -97 -99 0
-16 -4 -17 -97 -10 0
-28 -4 -29 -97 -10 0
-28 -17 -29 -97 -23 0
-3 -60 -4 -98 -99 0
-16 -60 -17 -98 -99 0
-28 -60 -29 -98 -99 0
-16 -4 -17 -98 -10 0
-28 -4 -29 -98 -10 0
-28 -17 -29 -98 -23 0
-16 -4 -17 -99 -10 0
-28 -4 -29 -99 -10 0
-28 -17 -29 -99 -23 0
-28 -17 -29 -10 -23 0
-50 -59 -60 -100 -101 0
-3 -59 -4 -100 -101 0
-16 -59 -17 -100 -101 0
-28 -59 -29 -100 -101 0
-3 -60 -4 -100 -102 0
-16 -60 -17 -100 -102 0
-28 -60 -29 -100 -102 0
-16 -4 -17 -100 -11 0
-28 -4 -29 -100 -11 0
-28 -17 -29 -100 -24 0
-3 -60 -4 -101 -102 0
-16 -60 -17 -101 -102 0
-28 -60 -29 -101 -102 0
-16 -4 -17 -101 -11 0
-28 -4 -29 -101 -11 0
-28 -17 -29 -101 -24 0
-16 -4 -17 -102 -11 0
-28 -4 -29 -102 -11 0
-28 -17 -29 -102 -24 0
-28 -17 -29 -11 -24 0
-3 -60 -4 -103 -104 0
-16 -60 -17 -103 -104 0
-28 -60 -29 -103 -104 0
-16 -4 -17 -103 -12 0
-28 -4 -29 -103 -12 0
-28 -17 -29 -103 -25 0
-16 -4 -17 -104 -12 0
-28 -4 -29 -104 -12 0
-28 -17 -29 -104 -25 0
-28 -17 -29 -12 -25 0
-16 -4 -17 -105 -13 0
-28 -4 -29 -105 -13 0
-28 -17 -29 -105 -26 0
-28 -17 -29 -13 -26 0
-28 -17 -29 -14 -27 0
-45 -63 -64 -70 -71 0
-46 -63 -65 -70 -71 0
-47 -63 -66 -70 -71 0
-48 -63 -67 -70 -71 0
-49 -63 -68 -70 -71 0
-50 -63 -69 -70 -71 0
-3 -63 -5 -70 -71 0
-16 -63 -18 -70 -71 0
-28 -63 -30 -70 -71 0
-46 -64 -65 -70 -72 0
-47 -64 -66 -70 -72 0
-48 -64 -67 -70 -72 0
-49 -64 -68 -70 -72 0
-50 -64 -69 -70 -72 0
-3 -64 -5 -70 -72 0
-16 -64 -18 -70 -72 0
-28 -64 -30 -70 -72 0
-47 -65 -66 -70 -73 0
-48 -65 -67 -70 -73 0
-49 -65 -68 -70 -73 0
-50 -65 -69 -70 -73 0
-3 -65 -5 -70 -73 0
-16 -65 -18 -70 -73 0
-28 -65 -30 -70 -73 0
-48 -66 -67 -70 -74 0
-49 -66 -68 -70 -74 0
-50 -66 -69 -70 -74 0
-3 -66 -5 -70 -74 0
-16 -66 -18 -70 -74 0
-28 -66 -30 -70 -74 0
-49 -67 -68 -70 -75 0
-50 -67 -69 -70 -75 0
-3 -67 -5 -70 -75 0
-16 -67 -18 -70 -75 0
-28 -67 -30 -70 -75 0
-50 -68 -69 -70 -76 0
-3 -68 -5 -70 -76 0
-16 -68 -18 -70 -76 0
-28 -68 -30 -70 -76 0
-3 -69 -5 -70 -77 0
-16 -69 -18 -70 -77 0
-28 -69 -30 -70 -77 0
-16 -5 -18 -70 -6 0
-28 -5 -30 -70 -6 0
-28 -18 -30 -70 -19 0
-46 -64 -65 -71 -72 0
-47 -64 -66 -71 -72 0
-48 -64 -67 -71 -72 0
-49 -64 -68 -71 -72 0
-50 -64 -69 -71 -72 0
-3 -64 -5 -71 -72 0
-16 -64 -18 -71 -72 0
-28 -64 -30 -71 -72 0
-47 -65 -66 -71 -73 0
-48 -65 -67 -71 -73 0
-49 -65 -68 -71 -73 0
-50 -65 -69 -71 -73 0
-3 -65 -5 -71 -73 0
-16 -65 -18 -71 -73 0
-28 -65 -30 -71 -73 0
-48 -66 -67 -71 -74 0
-49 -66 -68 -71 -74 0
-50 -66 -69 -71 -74 0
-3 -66 -5 -71 -74 0
-16 -66 -18 -71 -74 0
-28 -66 -30 -71 -74 0
-49 -67 -68 -71 -75 0
-50 -67 -69 -71 -75 0
-3 -67 -5 -71 -75 0
-16 -67 -18 -71 -75 0
-28 -67 -30 -71 -75 0
-50 -68 -69 -71 -76 0
-3 -68 -5 -71 -76 0
-16 -68 -18 -71 -76 0
-28 -68 -30 -71 -76 0
-3 -69 -5 -71 -77 0
-16 -69 -18 -71 -77 0
-28 -69 -30 -71 -77 0
-16 -5 -18 -71 -6 0
-28 -5 -30 -71 -6 0
-28 -18 -30 -71 -19 0
-47 -65 -66 -72 -73 0
-48 -65 -67 -72 -73 0
-49 -65 -68 -72 -73 0
-50 -65 -69 -72 -73 0
-3 -65 -5 -72 -73 0
-16 -65 -18 -72 -73 0
-28 -65 -30 -72 -73 0
-48 -66 -67 -72 -74 0
-49 -66 -68 -72 -74 0
-50 -66 -69 -72 -74 0
-3 -66 -5 -72 -74 0
-16 -66 -18 -72 -74 0
-28 -66 -30 -72 -74 0
-49 -67 -68 -72 -75 0
-50 -67 -69 -72 -75 0
-3 -67 -5 -72 -75 0
-16 -67 -18 -72 -75 0
-28 -67 -30 -72 -75 0
-50 -68 -69 -72 -76 0
-3 -68 -5 -72 -76 0
-16 -68 -18 -72 -76 0
-28 -68 -30 -72 -76 0
-3 -69 -5 -72 -77 0
-16 -69 -18 -72 -77 0
-28 -69 -30 -72 -77 0
-16 -5 -18 -72 -6 0
-28 -5 -30 -72 -6 0
-28 -18 -30 -72 -19 0
-48 -66 -67 -73 -74 0
-49 -66 -68 -73 -74 0
-50 -66 -69 -73 -74 0
-3 -66 -5 -73 -74 0
-16 -66 -18 -73 -74 0
-28 -66 -30 -73 -74 0
-49 -67 -68 -73 -75 0
-50 -67 -69 -73 -75 0
-3 -67 -5 -73 -75 0
-16 -67 -18 -73 -75 0
-28 -67 -30 -73 -75 0
-50 -68 -69 -73 -76 0
-3 -68 -5 -73 -76 0
-16 -68 -18 -73 -76 0
-28 -68 -30 -73 -76 0
-3 -69 -5 -73 -77 0
-16 -69 -18 -73 -77 0
-28 -69 -30 -73 -77 0
-16 -5 -18 -73 -6 0
-28 -5 -30 -73 -6 0
-28 -18 -30 -73 -19 0
-49 -67 -68 -74 -75 0
-50 -67 -69 -74 -75 0
-3 -67 -5 -74 -75 0
-16 -67 -18 -74 -75 0
-28 -67 -30 -74 -75 0
-50 -68 -69 -74 -76 0
-3 -68 -5 -74 -76 0
-16 -68 -18 -74 -76 0
-28 -68 -30 -74 -76 0
-3 -69 -5 -74 -77 0
-16 -69 -18 -74 -77 0
-28 -69 -30 -74 -77 0
-16 -5 -18 -74 -6 0
-28 -5 -30 -74 -6 0
-28 -18 -30 -74 -19 0
-50 -68 -69 -75 -76 0
-3 -68 -5 -75 -76 0
-16 -68 -18 -75 -76 0
-28 -68 -30 -75 -76 0
-3 -69 -5 -75 -77 0
-16 -69 -18 -75 -77 0
-28 -69 -30 -75 -77 0
-16 -5 -18 -75 -6 0
-28 -5 -30 -75 -6 0
-28 -18 -30 -75 -19 0
-3 -69 -5 -76 -77 0
-16 -69 -18 -76 -77 0
-28 -69 -30 -76 -77 0
-16 -5 -18 -76 -6 0
-28 -5 -30 -76 -6 0
-28 -18 -30 -76 -19 0
-16 -5 -18 -77 -6 0
-28 -5 -30 -77 -6 0
-28 -18 -30 -77 -19 0
-28 -18 -30 -6 -19 0
-46 -64 -65 -78 -79 0
-47 -64 -66 -78 -79 0
-48 -64 -67 -78 -79 0
-49 -64 -68 -78 -79 0
-50 -64 -69 -78 -79 0
-3 -64 -5 -78 -79 0
-16 -64 -18 -78 -79 0
-28 -64 -30 -78 -79 0
-47 -65 -66 -78 -80 0
-48 -65 -67 -78 -80 0
-49 -65 -68 -78 -80 0
-50 -65 -69 -78 -80 0
-3 -65 -5 -78 -80 0
-16 -65 -18 -78 -80 0
-28 -65 -30 -78 -80 0
-48 -66 -67 -78 -81 0
-49 -66 -68 -78 -81 0
-50 -66 -69 -78 -81 0
-3 -66 -5 -78 -81 0
-16 -66 -18 -78 -81 0
-28 -66 -30 -78 -81 0
-49 -67 -68 -78 -82 0
-50 -67 -69 -78 -82 0
-3 -67 -5 -78 -82 0
-16 -67 -18 -78 -82 0
-28 -67 -30 -78 -82 0
-50 -68 -69 -78 -83 0
-3 -68 -5 -78 -83 0
-16 -68 -18 -78 -83 0
-28 -68 -30 -78 -83 0
-3 -69 -5 -78 -84 0
-16 -69 -18 -78 -84 0
-28 -69 -30 -78 -84 0
-16 -5 -18 -78 -7 0
-28 -5 -30 -78 -7 0
-28 -18 -30 -78 -20 0
-47 -65 -66 -79 -80 0
-48 -65 -67 -79 -80 0
-49 -65 -68 -79 -80 0
-50 -65 -69 -79 -80 0
-3 -65 -5 -79 -80 0
-16 -65 -18 -79 -80 0
-28 -65 -30 -79 -80 0
-48 -66 -67 -79 -81 0
-49 -66 -68 -79 -81 0
-50 -66 -69 -79 -81 0
-3 -66 -5 -79 -81 0
-16 -66 -18 -79 -81 0
-28 -66 -30 -79 -81 0
-49 -67 -68 -79 -82 0
-50 -67 -69 -79 -82 0
-3 -67 -5 -79 -82 0
-16 -67 -18 -79 -82 0
-28 -67 -30 -79 -82 0
-50 -68 -69 -79 -83 0
-3 -68 -5 -79 -83 0
-16 -68 -18 -79 -83 0
-28 -68 -30 -79 -83 0
-3 -69 -5 -79 -84 0
-16 -69 -18 -79 -84 0
-28 -69 -30 -79 -84 0
-16 -5 -18 -79 -7 0
-28 -5 -30 -79 -7 0
-28 -18 -30 -79 -20 0
-48 -66 -67 -80 -81 0
-49 -66 -68 -80 -81 0
-50 -66 -69 -80 -81 0
-3 -66 -5 -80 -81 0
-16 -66 -18 -80 -81 0
-28 -66 -30 -80 -81 0
-49 -67 -68 -80 -82 0
-50 -67 -69 -80 -82 0
-3 -67 -5 -80 -82 0
-16 -67 -18 -80 -82 0
-28 -67 -30 -80 -82 0
-50 -68 -69 -80 -83 0
-3 -68 -5 -80 -83 0
-16 -68 -18 -80 -83 0
-28 -68 -30 -80 -83 0
-3 -69 -5 -80 -84 0
-16 -69 -18 -80 -84 0
-28 -69 -30 -80 -84 0
-16 -5 -18 -80 -7 0
-28 -5 -30 -80 -7 0
-28 -18 -30 -80 -20 0
-49 -67 -68 -81 -82 0
-50 -67 -69 -81 -82 0
-3 -67 -5 -81 -82 0
-16 -67 -18 -81 -82 0
-28 -67 -30 -81 -82 0
-50 -68 -69 -81 -83 0
-3 -68 -5 -81 -83 0
-16 -68 -18 -81 -83 0
-28 -68 -30 -81 -83 0
-3 -69 -5 -81 -84 0
-16 -69 -18 -81 -84 0
-28 -69 -30 -81 -84 0
-16 -5 -18 -81 -7 0
-28 -5 -30 -81 -7 0
-28 -18 -30 -81 -20 0
-50 -68 -69 -82 -83 0
-3 -68 -5 -82 -83 0
-16 -68 -18 -82 -83 0
-28 -68 -30 -82 -83 0
-3 -69 -5 -82 -84 0
-16 -69 -18 -82 -84 0
-28 -69 -30 -82 -84 0
-16 -5 -18 -82 -7 0
-28 -5 -30 -82 -7 0
-28 -18 -30 -82 -20 0
-3 -69 -5 -83 -84 0
-16 -69 -18 -83 -84 0
-28 -69 -30 -83 -84 0
-16 -5 -18 -83 -7 0
-28 -5 -30 -83 -7 0
-28 -18 -30 -83 -20 0
-16 -5 -18 -84 -7 0
-28 -5 -30 -84 -7 0
-28 -18 -30 -84 -20 0
-28 -18 -30 -7 -20 0
-47 -65 -66 -85 -86 0
-48 -65 -67 -85 -86 0
-49 -65 -68 -85 -86 0
-50 -65 -69 -85 -86 0
-3 -65 -5 -85 -86 0
-16 -65 -18 -85 -86 0
-28 -65 -30 -85 -86 0
-48 -66 -67 -85 -87 0
-49 -66 -68 -85 -87 0
-50 -66 -69 -85 -87 0
-3 -66 -5 -85 -87 0
-16 -66 -18 -85 -87 0
-28 -66 -30 -85 -87 0
-49 -67 -68 -85 -88 0
-50 -67 -69 -85 -88 0
-3 -67 -5 -85 -88 0
-16 -67 -18 -85 -88 0
-28 -67 -30 -85 -88 0
-50 -68 -69 -85 -89 0
-3 -68 -5 -85 -89 0
-16 -68 -18 -85 -89 0
-28 -68 -30 -85 -89 0
-3 -69 -5 -85 -90 0
-16 -69 -18 -85 -90 0
-28 -69 -30 -85 -90 0
-16 -5 -18 -85 -8 0
-28 -5 -30 -85 -8 0
-28 -18 -30 -85 -21 0
-48 -66 -67 -86 -87 0
-49 -66 -68 -86 -87 0
-50 -66 -69 -86 -87 0
-3 -66 -5 -86 -87 0
-16 -66 -18 -86 -87 0
-28 -66 -30 -86 -87 0
-49 -67 -68 -86 -88 0
-50 -67 -69 -86 -88 0
-3 -67 -5 -86 -88 0
-16 -67 -18 -86 -88 0
-28 -67 -30 -86 -88 0
-50 -68 -69 -86 -89 0
-3 -68 -5 -86 -89 0
-16 -68 -18 -86 -89 0
-28 -68 -30 -86 -89 0
-3 -69 -5 -86 -90 0
-16 -69 -18 -86 -90 0
-28 -69 -30 -86 -90 0
-16 -5 -18 -86 -8 0
-28 -5 -30 -86 -8 0
-28 -18 -30 -86 -21 0
-49 -67 -68 -87 -88 0
-50 -67 -69 -87 -88 0
-3 -67 -5 -87 -88 0
-16 -67 -18 -87 -88 0
-28 -67 -30 -87 -88 0
-50 -68 -69 -87 -89 0
-3 -68 -5 -87 -89 0
-16 -68 -18 -87 -89 0
-28 -68 -30 -87 -89 0
-3 -69 -5 -87 -90 0
-16 -69 -18 -87 -90 0
-28 -69 -30 -87 -90 0
-16 -5 -18 -87 -8 0
-28 -5 -30 -87 -8 0
-28 -18 -30 -87 -21 0
-50 -68 -69 -88 -89 0
-3 -68 -5 -88 -89 0
-16 -68 -18 -88 -89 0
-28 -68 -30 -88 -89 0
-3 -69 -5 -88 -90 0
-16 -69 -18 -88 -90 0
-28 -69 -30 -88 -90 0
-16 -5 -18 -88 -8 0
-28 -5 -30 -88 -8 0
-28 -18 -30 -88 -21 0
-3 -69 -5 -89 -90 0
-16 -69 -18 -89 -90 0
-28 -69 -30 -89 -90 0
-16 -5 -18 -89 -8 0
-28 -5 -30 -89 -8 0
-28 -18 -30 -89 -21 0
-16 -5 -18 -90 -8 0
-28 -5 -30 -90 -8 0
-28 -18 -30 -90 -21 0
-28 -18 -30 -8 -21 0
-48 -66 -67 -91 -92 0
-49 -66 -68 -91 -92 0
-50 -66 -69 -91 -92 0
-3 -66 -5 -91 -92 0
-16 -66 -18 -91 -92 0
-28 -66 -30 -91 -92 0
-49 -67 -68 -91 -93 0
-50 -67 -69 -91 -93 0
-3 -67 -5 -91 -93 0
-16 -67 -18 -91 -93 0
-28 -67 -30 -91 -93 0
-50 -68 -69 -91 -94 0
-3 -68 -5 -91 -94 0
-16 -68 -18 -91 -94 0
-28 -68 -30 -91 -94 0
-3 -69 -5 -91 -95 0
-16 -69 -18 -91 -95 0
-28 -69 -30 -91 -95 0
-16 -5 -18 -91 -9 0
-28 -5 -30 -91 -9 0
-28 -18 -30 -91 -22 0
-49 -67 -68 -92 -93 0
-50 -67 -69 -92 -93 0
-3 -67 -5 -92 -93 0
-16 -67 -18 -92 -93 0
-28 -67 -30 -92 -93 0
-50 -68 -69 -92 -94 0
-3 -68 -5 -92 -94 0
-16 -68 -18 -92 -94 0
-28 -68 -30 -92 -94 0
-3 -69 -5 -92 -95 0
-16 -69 -18 -92 -95 0
-28 -69 -30 -92 -95 0
-16 -5 -18 -92 -9 0
-28 -5 -30 -92 -9 0
-28 -18 -30 -92 -22 0
-50 -68 -69 -93 -94 0
-3 -68 -5 -93 -94 0
-16 -68 -18 -93 -94 0
-28 -68 -30 -93 -94 0
-3 -69 -5 -93 -95 0
-16 -69 -18 -93 -95 0
-28 -69 -30 -93 -95 0
-16 -5 -18 -93 -9 0
-28 -5 -30 -93 -9 0
-28 -18 -30 -93 -22 0
-3 -69 -5 -94 -95 0
-16 -69 -18 -94 -95 0
-28 -69 -30 -94 -95 0
-16 -5 -18 -94 -9 0
-28 -5 -30 -94 -9 0
-28 -18 -30 -94 -22 0
-16 -5 -18 -95 -9 0
-28 -5 -30 -95 -9 0
-28 -18 -30 -95 -22 0
-28 -18 -30 -9 -22 0
-49 -67 -68 -96 -97 0
-50 -67 -69 -96 -97 0
-3 -67 -5 -96 -97 0
-16 -67 -18 -96 -97 0
-28 -67 -30 -96 -97 0
-50 -68 -69 -96 -98 0
-3 -68 -5 -96 -98 0
-16 -68 -18 -96 -98 0
-28 -68 -30 -96 -98 0
-3 -69 -5 -96 -99 0
-16 -69 -18 -96 -99 0
-28 -69 -30 -96 -99 0
-16 -5 -18 -96 -10 0
-28 -5 -30 -96 -10 0
-28 -18 -30 -96 -23 0
-50 -68 -69 -97 -98 0
-3 -68 -5 -97 -98 0
-16 -68 -18 -97 -98 0
-28 -68 -30 -97 -98 0
-3 -69 -5 -97 -99 0
-16 -69 -18 -97 -99 0
-28 -69 -30 -97 -99 0
-16 -5 -18 -97 -10 0
-28 -5 -30 -97 -10 0
-28 -18 -30 -97 -23 0
-3 -69 -5 -98 -99 0
-16 -69 -18 -98 -99 0
-28 -69 -30 -98 -99 0
-16 -5 -18 -98 -10 0
-28 -5 -30 -98 -10 0
-28 -18 -30 -98 -23 0
-16 -5 -18 -99 -10 0
-28 -5 -30 -99 -10 0
-28 -18 -30 -99 -23 0
-28 -18 -30 -10 -23 0
-50 -68 -69 -100 -101 0
-3 -68 -5 -100 -101 0
-16 -68 -18 -100 -101 0
-28 -68 -30 -100 -101 0
-3 -69 -5 -100 -102 0
-16 -69 -18 -100 -102 0
-28 -69 -30 -100 -102 0
-16 -5 -18 -100 -11 0
-28 -5 -30 -100 -11 0
-28 -18 -30 -100 -24 0
-3 -69 -5 -101 -102 0
-16 -69 -18 -101 -102 0
-28 -69 -30 -101 -102 0
-16 -5 -18 -101 -11 0
-28 -5 -30 -101 -11 0
-28 -18 -30 -101 -24 0
-16 -5 -18 -102 -11 0
-28 -5 -30 -102 -11 0
-28 -18 -30 -102 -24 0
-28 -18 -30 -11 -24 0
-3 -69 -5 -103 -104 0
-16 -69 -18 -103 -104 0
-28 -69 -30 -103 -104 0
-16 -5 -18 -103 -12 0
-28 -5 -30 -103 -12 0
-28 -18 -30 -103 -25 0
-16 -5 -18 -104 -12 0
-28 -5 -30 -104 -12 0
-28 -18 -30 -104 -25 0
-28 -18 -30 -12 -25 0
-16 -5 -18 -105 -13 0
-28 -5 -30 -105 -13 0
-28 -18 -30 -105 -26 0
-28 -18 -30 -13 -26 0
-28 -18 -30 -14 -27 0
-46 -72 -73 -78 -79 0
-47 -72 -74 -78 -79 0
-48 -72 -75 -78 -79 0
-49 -72 -76 -78 -79 0
-50 -72 -77 -78 -79 0
-3 -72 -6 -78 -79 0
-16 -72 -19 -78 -79 0
-28 -72 -31 -78 -79 0
-47 -73 -74 -78 -80 0
-48 -73 -75 -78 -80 0
-49 -73 -76 -78 -80 0
-50 -73 -77 -78 -80 0
-3 -73 -6 -78 -80 0
-16 -73 -19 -78 -80 0
-28 -73 -31 -78 -80 0
-48 -74 -75 -78 -81 0
-49 -74 -76 -78 -81 0
-50 -74 -77 -78 -81 0
-3 -74 -6 -78 -81 0
-16 -74 -19 -78 -81 0
-28 -74 -31 -78 -81 0
-49 -75 -76 -78 -82 0
-50 -75 -77 -78 -82 0
-3 -75 -6 -78 -82 0
-16 -75 -19 -78 -82 0
-28 -75 -31 -78 -82 0
-50 -76 -77 -78 -83 0
-3 -76 -6 -78 -83 0
-16 -76 -19 -78 -83 0
-28 -76 -31 -78 -83 0
-3 -77 -6 -78 -84 0
-16 -77 -19 -78 -84 0
-28 -77 -31 -78 -84 0
-16 -6 -19 -78 -7 0
-28 -6 -31 -78 -7 0
-28 -19 -31 -78 -20 0
-47 -73 -74 -79 -80 0
-48 -73 -75 -79 -80 0
-49 -73 -76 -79 -80 0
-50 -73 -77 -79 -80 0
-3 -73 -6 -79 -80 0
-16 -73 -19 -79 -80 0
-28 -73 -31 -79 -80 0
-48 -74 -75 -79 -81 0
-49 -74 -76 -79 -81 0
-50 -74 -77 -79 -81 0
-3 -74 -6 -79 -81 0
-16 -74 -19 -79 -81 0
-28 -74 -31 -79 -81 0
-49 -75 -76 -79 -82 0
-50 -75 -77 -79 -82 0
-3 -75 -6 -79 -82 0
-16 -75 -19 -79 -82 0
-28 -75 -31 -79 -82 0
-50 -76 -77 -79 -83 0
-3 -76 -6 -79 -83 0
-16 -76 -19 -79 -83 0
-28 -76 -31 -79 -83 0
-3 -77 -6 -79 -84 0
-16 -77 -19 -79 -84 0
-28 -77 -31 -79 -84 0
-16 -6 -19 -79 -7 0
-28 -6 -31 -79 -7 0
-28 -19 -31 -79 -20 0
-48 -74 -75 -80 -81 0
-49 -74 -76 -80 -81 0
-50 -74 -77 -80 -81 0
-3 -74 -6 -80 -81 0
-16 -74 -19 -80 -81 0
-28 -74 -31 -80 -81 0
-49 -75 -76 -80 -82 0
-50 -75 -77 -80 -82 0
-3 -75 -6 -80 -82 0
-16 -75 -19 -80 -82 0
-28 -75 -31 -80 -82 0
-50 -76 -77 -80 -83 0
-3 -76 -6 -80 -83 0
-16 -76 -19 -80 -83 0
-28 -76 -31 -80 -83 0
-3 -77 -6 -80 -84 0
-16 -77 -19 -80 -84 0
-28 -77 -31 -80 -84 0
-16 -6 -19 -80 -7 0
-28 -6 -31 -80 -7 0
-28 -19 -31 -80 -20 0
-49 -75 -76 -81 -82 0
-50 -75 -77 -81 -82 0
-3 -75 -6 -81 -82 0
-16 -75 -19 -81 -82 0
-28 -75 -31 -81 -82 0
-50 -76 -77 -81 -83 0
-3 -76 -6 -81 -83 0
-16 -76 -19 -81 -83 0
-28 -76 -31 -81 -83 0
-3 -77 -6 -81 -84 0
-16 -77 -19 -81 -84 0
-28 -77 -31 -81 -84 0
-16 -6 -19 -81 -7 0
-28 -6 -31 -81 -7 0
-28 -19 -31 -81 -20 0
-50 -76 -77 -82 -83 0
-3 -76 -6 -82 -83 0
-16 -76 -19 -82 -83 0
-28 -76 -31 -82 -83 0
-3 -77 -6 -82 -84 0
-16 -77 -19 -82 -84 0
-28 -77 -31 -82 -84 0
-16 -6 -19 -82 -7 0
-28 -6 -31 -82 -7 0
-28 -19 -31 -82 -20 0
-3 -77 -6 -83 -84 0
-16 -77 -19 -83 -84 0
-28 -77 -31 -83 -84 0
-16 -6 -19 -83 -7 0
-28 -6 -31 -83 -7 0
-28 -19 -31 -83 -20 0
-16 -6 -19 -84 -7 0
-28 -6 -31 -84 -7 0
-28 -19 -31 -84 -20 0
-28 -19 -31 -7 -20 0
-47 -73 -74 -85 -86 0
-48 -73 -75 -85 -86 0
-49 -73 -76 -85 -86 0
-50 -73 -77 -85 -86 0
-3 -73 -6 -85 -86 0
-16 -73 -19 -85 -86 0
-28 -73 -31 -85 -86 0
-48 -74 -75 -85 -87 0
-49 -74 -76 -85 -87 0
-50 -74 -77 -85 -87 0
-3 -74 -6 -85 -87 0
-16 -74 -19 -85 -87 0
-28 -74 -31 -85 -87 0
-49 -75 -76 -85 -88 0
-50 -75 -77 -85 -88 0
-3 -75 -6 -85 -88 0
-16 -75 -19 -85 -88 0
-28 -75 -31 -85 -88 0
-50 -76 -77 -85 -89 0
-3 -76 -6 -85 -89 0
-16 -76 -19 -85 -89 0
-28 -76 -31 -85 -89 0
-3 -77 -6 -85 -90 0
-16 -77 -19 -85 -90 0
-28 -77 -31 -85 -90 0
-16 -6 -19 -85 -8 0
-28 -6 -31 -85 -8 0
-28 -19 -31 -85 -21 0
-48 -74 -75 -86 -87 0
-49 -74 -76 -86 -87 0
-50 -74 -77 -86 -87 0
-3 -74 -6 -86 -87 0
-16 -74 -19 -86 -87 0
-28 -74 -31 -86 -87 0
-49 -75 -76 -86 -88 0
-50 -75 -77 -86 -88 0
-3 -75 -6 -86 -88 0
-16 -75 -19 -86 -88 0
-28 -75 -31 -86 -88 0
-50 -76 -77 -86 -89 0
-3 -76 -6 -86 -89 0
-16 -76 -19 -86 -89 0
-28 -76 -31 -86 -89 0
-3 -77 -6 -86 -90 0
-16 -77 -19 -86 -90 0
-28 -77 -31 -86 -90 0
-16 -6 -19 -86 -8 0
-28 -6 -31 -86 -8 0
-28 -19 -31 -86 -21 0
-49 -75 -76 -87 -88 0
-50 -75 -77 -87 -88 0
-3 -75 -6 -87 -88 0
-16 -75 -19 -87 -88 0
-28 -75 -31 -87 -88 0
-50 -76 -77 -87 -89 0
-3 -76 -6 -87 -89 0
-16 -76 -19 -87 -89 0
-28 -76 -31 -87 -89 0
-3 -77 -6 -87 -90 0
-16 -77 -19 -87 -90 0
-28 -77 -31 -87 -90 0
-16 -6 -19 -87 -8 0
-28 -6 -31 -87 -8 0
-28 -19 -31 -87 -21 0
-50 -76 -77 -88 -89 0
-3 -76 -6 -88 -89 0
-16 -76 -19 -88 -89 0
-28 -76 -31 -88 -89 0
-3 -77 -6 -88 -90 0
-16 -77 -19 -88 -90 0
-28 -77 -31 -88 -90 0
-16 -6 -19 -88 -8 0
-28 -6 -31 -88 -8 0
-28 -19 -31 -88 -21 0
-3 -77 -6 -89 -90 0
-16 -77 -19 -89 -90 0
-28 -77 -31 -89 -90 0
-16 -6 -19 -89 -8 0
-28 -6 -31 -89 -8 0
-28 -19 -31 -89 -21 0
-16 -6 -19 -90 -8 0
-28 -6 -31 -90 -8 0
-28 -19 -31 -90 -21 0
-28 -19 -31 -8 -21 0
-48 -74 -75 -91 -92 0
-49 -74 -76 -91 -92 0
-50 -74 -77 -91 -92 0
-3 -74 -6 -91 -92 0
-16 -74 -19 -91 -92 0
-28 -74 -31 -91 -92 0
-49 -75 -76 -91 -93 0
-50 -75 -77 -91 -93 0
-3 -75 -6 -91 -93 0
-16 -75 -19 -91 -93 0
-28 -75 -31 -91 -93 0
-50 -76 -77 -91 -94 0
-3 -76 -6 -91 -94 0
-16 -76 -19 -91 -94 0
-28 -76 -31 -91 -94 0
-3 -77 -6 -91 -95 0
-16 -77 -19 -91 -95 0
-28 -77 -31 -91 -95 0
-16 -6 -19 -91 -9 0
-28 -6 -31 -91 -9 0
-28 -19 -31 -91 -22 0
-49 -75 -76 -92 -93 0
-50 -75 -77 -92 -93 0
-3 -75 -6 -92 -93 0
-16 -75 -19 -92 -93 0
-28 -75 -31 -92 -93 0
-50 -76 -77 -92 -94 0
-3 -76 -6 -92 -94 0
-16 -76 -19 -92 -94 0
-28 -76 -31 -92 -94 0
-3 -77 -6 -92 -95 0
-16 -77 -19 -92 -95 0
-28 -77 -31 -92 -95 0
-16 -6 -19 -92 -9 0
-28 -6 -31 -92 -9 0
-28 -19 -31 -92 -22 0
-50 -76 -77 -93 -94 0
-3 -76 -6 -93 -94 0
-16 -76 -19 -93 -94 0
-28 -76 -31 -93 -94 0
-3 -77 -6 -93 -95 0
-16 -77 -19 -93 -95 0
-28 -77 -31 -93 -95 0
-16 -6 -19 -93 -9 0
-28 -6 -31 -93 -9 0
-28 -19 -31 -93 -22 0
-3 -77 -6 -94 -95 0
-16 -77 -19 -94 -95 0
-28 -77 -31 -94 -95 0
-16 -6 -19 -94 -9 0
-28 -6 -31 -94 -9 0
-28 -19 -31 -94 -22 0
-16 -6 -19 -95 -9 0
-28 -6 -31 -95 -9 0
-28 -19 -31 -95 -22 0
-28 -19 -31 -9 -22 0
-49 -75 -76 -96 -97 0
-50 -75 -77 -96 -97 0
-3 -75 -6 -96 -97 0
-16 -75 -19 -96 -97 0
-28 -75 -31 -96 -97 0
-50 -76 -77 -96 -98 0
-3 -76 -6 -96 -98 0
-16 -76 -19 -96 -98 0
-28 -76 -31 -96 -98 0
-3 -77 -6 -96 -99 0
-16 -77 -19 -96 -99 0
-28 -77 -31 -96 -99 0
-16 -6 -19 -96 -10 0
-28 -6 -31 -96 -10 0
-28 -19 -31 -96 -23 0
-50 -76 -77 -97 -98 0
-3 -76 -6 -97 -98 0
-16 -76 -19 -97 -98 0
-28 -76 -31 -97 -98 0
-3 -77 -6 -97 -99 0
-16 -77 -19 -97 -99 0
-28 -77 -31 -97 -99 0
-16 -6 -19 -97 -10 0
-28 -6 -31 -97 -10 0
-28 -19 -31 -97 -23 0
-3 -77 -6 -98 -99 0
-16 -77 -19 -98 -99 0
-28 -77 -31 -98 -99 0
-16 -6 -19 -98 -10 0
-28 -6 -31 -98 -10 0
-28 -19 -31 -98 -23 0
-16 -6 -19 -99 -10 0
-28 -6 -31 -99 -10 0
-28 -19 -31 -99 -23 0
-28 -19 -31 -10 -23 0
-50 -76 -77 -100 -101 0
-3 -76 -6 -100 -101 0
-16 -76 -19 -100 -101 0
-28 -76 -31 -100 -101 0
-3 -77 -6 -100 -102 0
-16 -77 -19 -100 -102 0
-28 -77 -31 -100 -102 0
-16 -6 -19 -100 -11 0
-28 -6 -31 -100 -11 0
-28 -19 -31 -100 -24 0
-3 -77 -6 -101 -102 0
-16 -77 -19 -101 -102 0
-28 -77 -31 -101 -102 0
-16 -6 -19 -101 -11 0
-28 -6 -31 -101 -11 0
-28 -19 -31 -101 -24 0
-16 -6 -19 -102 -11 0
-28 -6 -31 -102 -11 0
-28 -19 -31 -102 -24 0
-28 -19 -31 -11 -24 0
-3 -77 -6 -103 -104 0
-16 -77 -19 -103 -104 0
-28 -77 -31 -103 -104 0
-16 -6 -19 -103 -12 0
-28 -6 -31 -103 -12 0
-28 -19 -31 -103 -25 0
-16 -6 -19 -104 -12 0
-28 -6 -31 -104 -12 0
-28 -19 -31 -104 -25 0
-28 -19 -31 -12 -25 0
-16 -6 -19 -105 -13 0
-28 -6 -31 -105 -13 0
-28 -19 -31 -105 -26 0
-28 -19 -31 -13 -26 0
-28 -19 -31 -14 -27 0
-47 -80 -81 -85 -86 0
-48 -80 -82 -85 -86 0
-49 -80 -83 -85 -86 0
-50 -80 -84 -85 -86 0
-3 -80 -7 -85 -86 0
-16 -80 -20 -85 -86 0
-28 -80 -32 -85 -86 0
-48 -81 -82 -85 -87 0
-49 -81 -83 -85 -87 0
-50 -81 -84 -85 -87 0
-3 -81 -7 -85 -87 0
-16 -81 -20 -85 -87 0
-28 -81 -32 -85 -87 0
-49 -82 -83 -85 -88 0
-50 -82 -84 -85 -88 0
-3 -82 -7 -85 -88 0
-16 -82 -20 -85 -88 0
-28 -82 -32 -85 -88 0
-50 -83 -84 -85 -89 0
-3 -83 -7 -85 -89 0
-16 -83 -20 -85 -89 0
-28 -83 -32 -85 -89 0
-3 -84 -7 -85 -90 0
-16 -84 -20 -85 -90 0
-28 -84 -32 -85 -90 0
-16 -7 -20 -85 -8 0
-28 -7 -32 -85 -8 0
-28 -20 -32 -85 -21 0
-48 -81 -82 -86 -87 0
-49 -81 -83 -86 -87 0
-50 -81 -84 -86 -87 0
-3 -81 -7 -86 -87 0
-16 -81 -20 -86 -87 0
-28 -81 -32 -86 -87 0
-49 -82 -83 -86 -88 0
-50 -82 -84 -86 -88 0
-3 -82 -7 -86 -88 0
-16 -82 -20 -86 -88 0
-28 -82 -32 -86 -88 0
-50 -83 -84 -86 -89 0
-3 -83 -7 -86 -89 0
-16 -83 -20 -86 -89 0
-28 -83 -32 -86 -89 0
-3 -84 -7 -86 -90 0
-16 -84 -20 -86 -90 0
-28 -84 -32 -86 -90 0
-16 -7 -20 -86 -8 0
-28 -7 -32 -86 -8 0
-28 -20 -32 -86 -21 0
-49 -82 -83 -87 -88 0
-50 -82 -84 -87 -88 0
-3 -82 -7 -87 -88 0
-16 -82 -20 -87 -88 0
-28 -82 -32 -87 -88 0
-50 -83 -84 -87 -89 0
-3 -83 -7 -87 -89 0
-16 -83 -20 -87 -89 0
-28 -83 -32 -87 -89 0
-3 -84 -7 -87 -90 0
-16 -84 -20 -87 -90 0
-28 -84 -32 -87 -90 0
-16 -7 -20 -87 -8 0
-28 -7 -32 -87 -8 0
-28 -20 -32 -87 -21 0
-50 -83 -84 -88 -89 0
-3 -83 -7 -88 -89 0
-16 -83 -20 -88 -89 0
-28 -83 -32 -88 -89 0
-3 -84 -7 -88 -90 0
-16 -84 -20 -88 -90 0
-28 -84 -32 -88 -90 0
-16 -7 -20 -88 -8 0
-28 -7 -32 -88 -8 0
-28 -20 -32 -88 -21 0
-3 -84 -7 -89 -90 0
-16 -84 -20 -89 -90 0
-28 -84 -32 -89 -90 0
-16 -7 -20 -89 -8 0
-28 -7 -32 -89 -8 0
-28 -20 -32 -89 -21 0
-16 -7 -20 -90 -8 0
-28 -7 -32 -90 -8 0
-28 -20 -32 -90 -21 0
-28 -20 -32 -8 -21 0
-48 -81 -82 -91 -92 0
-49 -81 -83 -91 -92 0
-50 -81 -84 -91 -92 0
-3 -81 -7 -91 -92 0
-16 -81 -20 -91 -92 0
-28 -81 -32 -91 -92 0
-49 -82 -83 -91 -93 0
-50 -82 -84 -91 -93 0
-3 -82 -7 -91 -93 0
-16 -82 -20 -91 -93 0
-28 -82 -32 -91 -93 0
-50 -83 -84 -91 -94 0
-3 -83 -7 -91 -94 0
-16 -83 -20 -91 -94 0
-28 -83 -32 -91 -94 0
-3 -84 -7 -91 -95 0
-16 -84 -20 -91 -95 0
-28 -84 -32 -91 -95 0
-16 -7 -20 -91 -9 0
-28 -7 -32 -91 -9 0
-28 -20 -32 -91 -22 0
-49 -82 -83 -92 -93 0
-50 -82 -84 -92 -93 0
-3 -82 -7 -92 -93 0
-16 -82 -20 -92 -93 0
-28 -82 -32 -92 -93 0
-50 -83 -84 -92 -94 0
-3 -83 -7 -92 -94 0
-16 -83 -20 -92 -94 0
-28 -83 -32 -92 -94 0
-3 -84 -7 -92 -95 0
-16 -84 -20 -92 -95 0
-28 -84 -32 -92 -95 0
-16 -7 -20 -92 -9 0
-28 -7 -32 -92 -9 0
-28 -20 -32 -92 -22 0
-50 -83 -84 -93 -94 0
-3 -83 -7 -93 -94 0
-16 -83 -20 -93 -94 0
-28 -83 -32 -93 -94 0
-3 -84 -7 -93 -95 0
-16 -84 -20 -93 -95 0
-28 -84 -32 -93 -95 0
-16 -7 -20 -93 -9 0
-28 -7 -32 -93 -9 0
-28 -20 -32 -93 -22 0
-3 -84 -7 -94 -95 0
-16 -84 -20 -94 -95 0
-28 -84 -32 -94 -95 0
-16 -7 -20 -94 -9 0
-28 -7 -32 -94 -9 0
-28 -20 -32 -94 -22 0
-16 -7 -20 -95 -9 0
-28 -7 -32 -95 -9 0
-28 -20 -32 -95 -22 0
-28 -20 -32 -9 -22 0
-49 -82 -83 -96 -97 0
-50 -82 -84 -96 -97 0
-3 -82 -7 -96 -97 0
-16 -82 -20 -96 -97 0
-28 -82 -32 -96 -97 0
-50 -83 -84 -96 -98 0
-3 -83 -7 -96 -98 0
-16 -83 -20 -96 -98 0
-28 -83 -32 -96 -98 0
-3 -84 -7 -96 -99 0
-16 -84 -20 -96 -99 0
-28 -84 -32 -96 -99 0
-16 -7 -20 -96 -10 0
-28 -7 -32 -96 -10 0
-28 -20 -32 -96 -23 0
-50 -83 -84 -97 -98 0
-3 -83 -7 -97 -98 0
-16 -83 -20 -97 -98 0
-28 -83 -32 -97 -98 0
-3 -84 -7 -97 -99 0
-16 -84 -20 -97 -99 0
-28 -84 -32 -97 -99 0
-16 -7 -20 -97 -10 0
-28 -7 -32 -97 -10 0
-28 -20 -32 -97 -23 0
-3 -84 -7 -98 -99 0
-16 -84 -20 -98 -99 0
-28 -84 -32 -98 -99 0
-16 -7 -20 -98 -10 0
-28 -7 -32 -98 -10 0
-28 -20 -32 -98 -23 0
-16 -7 -20 -99 -10 0
-28 -7 -32 -99 -10 0
-28 -20 -32 -99 -23 0
-28 -20 -32 -10 -23 0
-50 -83 -84 -100 -101 0
-3 -83 -7 -100 -101 0
-16 -83 -20 -100 -101 0
-28 -83 -32 -100 -101 0
-3 -84 -7 -100 -102 0
-16 -84 -20 -100 -102 0
-28 -84 -32 -100 -102 0
-16 -7 -20 -100 -11 0
-28 -7 -32 -100 -11 0
-28 -20 -32 -100 -24 0
-3 -84 -7 -101 -102 0
-16 -84 -20 -101 -102 0
-28 -84 -32 -101 -102 0
-16 -7 -20 -101 -11 0
-28 -7 -32 -101 -11 0
-28 -20 -32 -101 -24 0
-16 -7 -20 -102 -11 0
-28 -7 -32 -102 -11 0
-28 -20 -32 -102 -24 0
-28 -20 -32 -11 -24 0
-3 -84 -7 -103 -104 0
-16 -84 -20 -103 -104 0
-28 -84 -32 -103 -104 0
-16 -7 -20 -103 -12 0
-28 -7 -32 -103 -12 0
-28 -20 -32 -103 -25 0
-16 -7 -20 -104 -12 0
-28 -7 -32 -104 -12 0
-28 -20 -32 -104 -25 0
-28 -20 -32 -12 -25 0
-16 -7 -20 -105 -13 0
-28 -7 -32 -105 -13 0
-28 -20 -32 -105 -26 0
-28 -20 -32 -13 -26 0
-28 -20 -32 -14 -27 0
-48 -87 -88 -91 -92 0
-49 -87 -89 -91 -92 0
-50 -87 -90 -91 -92 0
-3 -87 -8 -91 -92 0
-16 -87 -21 -91 -92 0
-28 -87 -33 -91 -92 0
-49 -88 -89 -91 -93 0
-50 -88 -90 -91 -93 0
-3 -88 -8 -91 -93 0
-16 -88 -21 -91 -93 0
-28 -88 -33 -91 -93 0
-50 -89 -90 -91 -94 0
-3 -89 -8 -91 -94 0
-16 -89 -21 -91 -94 0
-28 -89 -33 -91 -94 0
-3 -90 -8 -91 -95 0
-16 -90 -21 -91 -95 0
-28 -90 -33 -91 -95 0
-16 -8 -21 -91 -9 0
-28 -8 -33 -91 -9 0
-28 -21 -33 -91 -22 0
-49 -88 -89 -92 -93 0
-50 -88 -90 -92 -93 0
-3 -88 -8 -92 -93 0
-16 -88 -21 -92 -93 0
-28 -88 -33 -92 -93 0
-50 -89 -90 -92 -94 0
-3 -89 -8 -92 -94 0
-16 -89 -21 -92 -94 0
-28 -89 -33 -92 -94 0
-3 -90 -8 -92 -95 0
-16 -90 -21 -92 -95 0
-28 -90 -33 -92 -95 0
-16 -8 -21 -92 -9 0
-28 -8 -33 -92 -9 0
-28 -21 -33 -92 -22 0
-50 -89 -90 -93 -94 0
-3 -89 -8 -93 -94 0
-16 -89 -21 -93 -94 0
-28 -89 -33 -93 -94 0
-3 -90 -8 -93 -95 0
-16 -90 -21 -93 -95 0
-28 -90 -33 -93 -95 0
-16 -8 -21 -93 -9 0
-28 -8 -33 -93 -9 0
-28 -21 -33 -93 -22 0
-3 -90 -8 -94 -95 0
-16 -90 -21 -94 -95 0
-28 -90 -33 -94 -95 0
-16 -8 -21 -94 -9 0
-28 -8 -33 -94 -9 0
-28 -21 -33 -94 -22 0
-16 -8 -21 -95 -9 0
-28 -8 -33 -95 -9 0
-28 -21 -33 -95 -22 0
-28 -21 -33 -9 -22 0
-49 -88 -89 -96 -97 0
-50 -88 -90 -96 -97 0
-3 -88 -8 -96 -97 0
-16 -88 -21 -96 -97 0
-28 -88 -33 -96 -97 0
-50 -89 -90 -96 -98 0
-3 -89 -8 -96 -98 0
-16 -89 -21 -96 -98 0
-28 -89 -33 -96 -98 0
-3 -90 -8 -96 -99 0
-16 -90 -21 -96 -99 0
-28 -90 -33 -96 -99 0
-16 -8 -21 -96 -10 0
-28 -8 -33 -96 -10 0
-28 -21 -33 -96 -23 0
-50 -89 -90 -97 -98 0
-3 -89 -8 -97 -98 0
-16 -89 -21 -97 -98 0
-28 -89 -33 -97 -98 0
-3 -90 -8 -97 -99 0
-16 -90 -21 -97 -99 0
-28 -90 -33 -97 -99 0
-16 -8 -21 -97 -10 0
-28 -8 -33 -97 -10 0
-28 -21 -33 -97 -23 0
-3 -90 -8 -98 -99 0
-16 -90 -21 -98 -99 0
-28 -90 -33 -98 -99 0
-16 -8 -21 -98 -10 0
-28 -8 -33 -98 -10 0
-28 -21 -33 -98 -23 0
-16 -8 -21 -99 -10 0
-28 -8 -33 -99 -10 0
-28 -21 -33 -99 -23 0
-28 -21 -33 -10 -23 0
-50 -89 -90 -100 -101 0
-3 -89 -8 -100 -101 0
-16 -89 -21 -100 -101 0
-28 -89 -33 -100 -101 0
-3 -90 -8 -100 -102 0
-16 -90 -21 -100 -102 0
-28 -90 -33 -100 -102 0
-16 -8 -21 -100 -11 0
-28 -8 -33 -100 -11 0
-28 -21 -33 -100 -24 0
-3 -90 -8 -101 -102 0
-16 -90 -21 -101 -102 0
-28 -90 -33 -101 -102 0
-16 -8 -21 -101 -11 0
-28 -8 -33 -101 -11 0
-28 -21 -33 -101 -24 0
-16 -8 -21 -102 -11 0
-28 -8 -33 -102 -11 0
-28 -21 -33 -102 -24 0
-28 -21 -33 -11 -24 0
-3 -90 -8 -103 -104 0
-16 -90 -21 -103 -104 0
-28 -90 -33 -103 -104 0
-16 -8 -21 -103 -12 0
-28 -8 -33 -103 -12 0
-28 -21 -33 -103 -25 0
-16 -8 -21 -104 -12 0
-28 -8 -33 -104 -12 0
-28 -21 -33 -104 -25 0
-28 -21 -33 -12 -25 0
-16 -8 -21 -105 -13 0
-28 -8 -33 -105 -13 0
-28 -21 -33 -105 -26 0
-28 -21 -33 -13 -26 0
-28 -21 -33 -14 -27 0
-49 -93 -94 -96 -97 0
-50 -93 -95 -96 -97 0
-3 -93 -9 -96 -97 0
-16 -93 -22 -96 -97 0
-28 -93 -34 -96 -97 0
-50 -94 -95 -96 -98 0
-3 -94 -9 -96 -98 0
-16 -94 -22 -96 -98 0
-28 -94 -34 -96 -98 0
-3 -95 -9 -96 -99 0
-16 -95 -22 -96 -99 0
-28 -95 -34 -96 -99 0
-16 -9 -22 -96 -10 0
-28 -9 -34 -96 -10 0
-28 -22 -34 -96 -23 0
-50 -94 -95 -97 -98 0
-3 -94 -9 -97 -98 0
-16 -94 -22 -97 -98 0
-28 -94 -34 -97 -98 0
-3 -95 -9 -97 -99 0
-16 -95 -22 -97 -99 0
-28 -95 -34 -97 -99 0
-16 -9 -22 -97 -10 0
-28 -9 -34 -97 -10 0
-28 -22 -34 -97 -23 0
-3 -95 -9 -98 -99 0
-16 -95 -22 -98 -99 0
-28 -95 -34 -98 -99 0
-16 -9 -22 -98 -10 0
-28 -9 -34 -98 -10 0
-28 -22 -34 -98 -23 0
-16 -9 -22 -99 -10 0
-28 -9 -34 -99 -10 0
-28 -22 -34 -99 -23 0
-28 -22 -34 -10 -23 0
-50 -94 -95 -100 -101 0
-3 -94 -9 -100 -101 0
-16 -94 -22 -100 -101 0
-28 -94 -34 -100 -101 0
-3 -95 -9 -100 -102 0
-16 -95 -22 -100 -102 0
-28 -95 -34 -100 -102 0
-16 -9 -22 -100 -11 0
-28 -9 -34 -100 -11 0
-28 -22 -34 -100 -24 0
-3 -95 -9 -101 -102 0
-16 -95 -22 -101 -102 0
-28 -95 -34 -101 -102 0
-16 -9 -22 -101 -11 0
-28 -9 -34 -101 -11 0
-28 -22 -34 -101 -24 0
-16 -9 -22 -102 -11 0
-28 -9 -34 -102 -11 0
-28 -22 -34 -102 -24 0
-28 -22 -34 -11 -24 0
-3 -95 -9 -103 -104 0
-16 -95 -22 -103 -104 0
-28 -95 -34 -103 -104 0
-16 -9 -22 -103 -12 0
-28 -9 -34 -103 -12 0
-28 -22 -34 -103 -25 0
-16 -9 -22 -104 -12 0
-28 -9 -34 -104 -12 0
-28 -22 -34 -104 -25 0
-28 -22 -34 -12 -25 0
-16 -9 -22 -105 -13 0
-28 -9 -34 -105 -13 0
-28 -22 -34 -105 -26 0
-28 -22 -34 -13 -26 0
-28 -22 -34 -14 -27 0
-50 -98 -99 -100 -101 0
-3 -98 -10 -100 -101 0
-16 -98 -23 -100 -101 0
-28 -98 -35 -100 -101 0
-3 -99 -10 -100 -102 0
-16 -99 -23 -100 -102 0
-28 -99 -35 -100 -102 0
-16 -10 -23 -100 -11 0
-28 -10 -35 -100 -11 0
-28 -23 -35 -100 -24 0
-3 -99 -10 -101 -102 0
-16 -99 -23 -101 -102 0
-28 -99 -35 -101 -102 0
-16 -10 -23 -101 -11 0
-28 -10 -35 -101 -11 0
-28 -23 -35 -101 -24 0
-16 -10 -23 -102 -11 0
-28 -10 -35 -102 -11 0
-28 -23 -35 -102 -24 0
-28 -23 -35 -11 -24 0
-3 -99 -10 -103 -104 0
-16 -99 -23 -103 -104 0
-28 -99 -35 -103 -104 0
-16 -10 -23 -103 -12 0
-28 -10 -35 -103 -12 0
-28 -23 -35 -103 -25 0
-16 -10 -23 -104 -12 0
-28 -10 -35 -104 -12 0
-28 -23 -35 -104 -25 0
-28 -23 -35 -12 -25 0
-16 -10 -23 -105 -13 0
-28 -10 -35 -105 -13 0
-28 -23 -35 -105 -26 0
-28 -23 -35 -13 -26 0
-28 -23 -35 -14 -27 0
-3 -102 -11 -103 -104 0
-16 -102 -24 -103 -104 0
-28 -102 -36 -103 -104 0
-16 -11 -24 -103 -12 0
-28 -11 -36 -103 -12 0
-28 -24 -36 -103 -25 0
-16 -11 -24 -104 -12 0
-28 -11 -36 -104 -12 0
-28 -24 -36 -104 -25 0
-28 -24 -36 -12 -25 0
-16 -11 -24 -105 -13 0
-28 -11 -36 -105 -13 0
-28 -24 -36 -105 -26 0
-28 -24 -36 -13 -26 0
-28 -24 -36 -14 -27 0
-16 -12 -25 -105 -13 0
-28 -12 -37 -105 -13 0
-28 -25 -37 -105 -26 0
-28 -25 -37 -13 -26 0
-28 -25 -37 -14 -27 0
-28 -26 -38 -14 -27 0
-55 -63 -64 -70 -71 0
-56 -63 -65 -70 -71 0
-57 -63 -66 -70 -71 0
-58 -63 -67 -70 -71 0
-59 -63 -68 -70 -71 0
-60 -63 -69 -70 -71 0
-4 -63 -5 -70 -71 0
-17 -63 -18 -70 -71 0
-29 -63 -30 -70 -71 0
-40 -63 -41 -70 -71 0
-56 -64 -65 -70 -72 0
-57 -64 -66 -70 -72 0
-58 -64 -67 -70 -72 0
-59 -64 -68 -70 -72 0
-60 -64 -69 -70 -72 0
-4 -64 -5 -70 -72 0
-17 -64 -18 -70 -72 0
-29 -64 -30 -70 -72 0
-40 -64 -41 -70 -72 0
-57 -65 -66 -70 -73 0
-58 -65 -67 -70 -73 0
-59 -65 -68 -70 -73 0
-60 -65 -69 -70 -73 0
-4 -65 -5 -70 -73 0
-17 -65 -18 -70 -73 0
-29 -65 -30 -70 -73 0
-40 -65 -41 -70 -73 0
-58 -66 -67 -70 -74 0
-59 -66 -68 -70 -74 0
-60 -66 -69 -70 -74 0
-4 -66 -5 -70 -74 0
-17 -66 -18 -70 -74 0
-29 -66 -30 -70 -74 0
-40 -66 -41 -70 -74 0
-59 -67 -68 -70 -75 0
-60 -67 -69 -70 -75 0
-4 -67 -5 -70 -75 0
-17 -67 -18 -70 -75 0
-29 -67 -30 -70 -75 0
-40 -67 -41 -70 -75 0
-60 -68 -69 -70 -76 0
-4 -68 -5 -70 -76 0
-17 -68 -18 -70 -76 0
-29 -68 -30 -70 -76 0
-40 -68 -41 -70 -76 0
-4 -69 -5 -70 -77 0
-17 -69 -18 -70 -77 0
-29 -69 -30 -70 -77 0
-40 -69 -41 -70 -77 0
-17 -5 -18 -70 -6 0
-29 -5 -30 -70 -6 0
-40 -5 -41 -70 -6 0
-29 -18 -30 -70 -19 0
-40 -18 -41 -70 -19 0
-40 -30 -41 -70 -31 0
-56 -64 -65 -71 -72 0
-57 -64 -66 -71 -72 0
-58 -64 -67 -71 -72 0
-59 -64 -68 -71 -72 0
-60 -64 -69 -71 -72 0
-4 -64 -5 -71 -72 0
-17 -64 -18 -71 -72 0
-29 -64 -30 -71 -72 0
-40 -64 -41 -71 -72 0
-57 -65 -66 -71 -73 0
-58 -65 -67 -71 -73 0
-59 -65 -68 -71 -73 0
-60 -65 -69 -71 -73 0
-4 -65 -5 -71 -73 0
-17 -65 -18 -71 -73 0
-29 -65 -30 -71 -73 0
-40 -65 -41 -71 -73 0
-58 -66 -67 -71 -74 0
-59 -66 -68 -71 -74 0
-60 -66 -69 -71 -74 0
-4 -66 -5 -71 -74 0
-17 -66 -18 -71 -74 0
-29 -66 -30 -71 -74 0
-40 -66 -41 -71 -74 0
-59 -67 -68 -71 -75 0
-60 -67 -69 -71 -75 0
-4 -67 -5 -71 -75 0
-17 -67 -18 -71 -75 0
-29 -67 -30 -71 -75 0
-40 -67 -41 -71 -75 0
-60 -68 -69 -71 -76 0
-4 -68 -5 -71 -76 0
-17 -68 -18 -71 -76 0
-29 -68 -30 -71 -76 0
-40 -68 -41 -71 -76 0
-4 -69 -5 -71 -77 0
-17 -69 -18 -71 -77 0
-29 -69 -30 -71 -77 0
-40 -69 -41 -71 -77 0
-17 -5 -18 -71 -6 0
-29 -5 -30 -71 -6 0
-40 -5 -41 -71 -6 0
-29 -18 -30 -71 -19 0
-40 -18 -41 -71 -19 0
-40 -30 -41 -71 -31 0
-57 -65 -66 -72 -73 0
-58 -65 -67 -72 -73 0
-59 -65 -68 -72 -73 0
-60 -65 -69 -72 -73 0
-4 -65 -5 -72 -73 0
-17 -65 -18 -72 -73 0
-29 -65 -30 -72 -73 0
-40 -65 -41 -72 -73 0
-58 -66 -67 -72 -74 0
-59 -66 -68 -72 -74 0
-60 -66 -69 -72 -74 0
-4 -66 -5 -72 -74 0
-17 -66 -18 -72 -74 0
-29 -66 -30 -72 -74 0
-40 -66 -41 -72 -74 0
-59 -67 -68 -72 -75 0
-60 -67 -69 -72 -75 0
-4 -67 -5 -72 -75 0
-17 -67 -18 -72 -75 0
-29 -67 -30 -72 -75 0
-40 -67 -41 -72 -75 0
-60 -68 -69 -72 -76 0
-4 -68 -5 -72 -76 0
-17 -68 -18 -72 -76 0
-29 -68 -30 -72 -76 0
-40 -68 -41 -72 -76 0
-4 -69 -5 -72 -77 0
-17 -69 -18 -72 -77 0
-29 -69 -30 -72 -77 0
-40 -69 -41 -72 -77 0
-17 -5 -18 -72 -6 0
-29 -5 -30 -72 -6 0
-40 -5 -41 -72 -6 0
-29 -18 -30 -72 -19 0
-40 -18 -41 -72 -19 0
-40 -30 -41 -72 -31 0
-58 -66 -67 -73 -74 0
-59 -66 -68 -73 -74 0
-60 -66 -69 -73 -74 0
-4 -66 -5 -73 -74 0
-17 -66 -18 -73 -74 0
-29 -66 -30 -73 -74 0
-40 -66 -41 -73 -74 0
-59 -67 -68 -73 -75 0
-60 -67 -69 -73 -75 0
-4 -67 -5 -73 -75 0
-17 -67 -18 -73 -75 0
-29 -67 -30 -73 -75 0
-40 -67 -41 -73 -75 0
-60 -68 -69 -73 -76 0
-4 -68 -5 -73 -76 0
-17 -68 -18 -73 -76 0
-29 -68 -30 -73 -76 0
-40 -68 -41 -73 -76 0
-4 -69 -5 -73 -77 0
-17 -69 -18 -73 -77 0
-29 -69 -30 -73 -77 0
-40 -69 -41 -73 -77 0
-17 -5 -18 -73 -6 0
-29 -5 -30 -73 -6 0
-40 -5 -41 -73 -6 0
-29 -18 -30 -73 -19 0
-40 -18 -41 -73 -19 0
-40 -30 -41 -73 -31 0
-59 -67 -68 -74 -75 0
-60 -67 -69 -74 -75 0
-4 -67 -5 -74 -75 0
-17 -67 -18 -74 -75 0
-29 -67 -30 -74 -75 0
-40 -67 -41 -74 -75 0
-60 -68 -69 -74 -76 0
-4 -68 -5 -74 -76 0
-17 -68 -18 -74 -76 0
-29 -68 -30 -74 -76 0
-40 -68 -41 -74 -76 0
-4 -69 -5 -74 -77 0
-17 -69 -18 -74 -77 0
-29 -69 -30 -74 -77 0
-40 -69 -41 -74 -77 0
-17 -5 -18 -74 -6 0
-29 -5 -30 -74 -6 0
-40 -5 -41 -74 -6 0
-29 -18 -30 -74 -19 0
-40 -18 -41 -74 -19 0
-40 -30 -41 -74 -31 0
-60 -68 -69 -75 -76 0
-4 -68 -5 -75 -76 0
-17 -68 -18 -75 -76 0
-29 -68 -30 -75 -76 0
-40 -68 -41 -75 -76 0
-4 -69 -5 -75 -77 0
-17 -69 -18 -75 -77 0
-29 -69 -30 -75 -77 0
-40 -69 -41 -75 -77 0
-17 -5 -18 -75 -6 0
-29 -5 -30 -75 -6 0
-40 -5 -41 -75 -6 0
-29 -18 -30 -75 -19 0
-40 -18 -41 -75 -19 0
-40 -30 -41 -75 -31 0
-4 -69 -5 -76 -77 0
-17 -69 -18 -76 -77 0
-29 -69 -30 -76 -77 0
-40 -69 -41 -76 -77 0
-17 -5 -18 -76 -6 0
-29 -5 -30 -76 -6 0
-40 -5 -41 -76 -6 0
-29 -18 -30 -76 -19 0
-40 -18 -41 -76 -19 0
-40 -30 -41 -76 -31 0
-17 -5 -18 -77 -6 0
-29 -5 -30 -77 -6 0
-40 -5 -41 -77 -6 0
-29 -18 -30 -77 -19 0
-40 -18 -41 -77 -19 0
-40 -30 -41 -77 -31 0
-29 -18 -30 -6 -19 0
-40 -18 -41 -6 -19 0
-40 -30 -41 -6 -31 0
-40 -30 -41 -19 -31 0
-56 -64 -65 -78 -79 0
-57 -64 -66 -78 -79 0
-58 -64 -67 -78 -79 0
-59 -64 -68 -78 -79 0
-60 -64 -69 -78 -79 0
-4 -64 -5 -78 -79 0
-17 -64 -18 -78 -79 0
-29 -64 -30 -78 -79 0
-40 -64 -41 -78 -79 0
-57 -65 -66 -78 -80 0
-58 -65 -67 -78 -80 0
-59 -65 -68 -78 -80 0
-60 -65 -69 -78 -80 0
-4 -65 -5 -78 -80 0
-17 -65 -18 -78 -80 0
-29 -65 -30 -78 -80 0
-40 -65 -41 -78 -80 0
-58 -66 -67 -78 -81 0
-59 -66 -68 -78 -81 0
-60 -66 -69 -78 -81 0
-4 -66 -5 -78 -81 0
-17 -66 -18 -78 -81 0
-29 -66 -30 -78 -81 0
-40 -66 -41 -78 -81 0
-59 -67 -68 -78 -82 0
-60 -67 -69 -78 -82 0
-4 -67 -5 -78 -82 0
-17 -67 -18 -78 -82 0
-29 -67 -30 -78 -82 0
-40 -67 -41 -78 -82 0
-60 -68 -69 -78 -83 0
-4 -68 -5 -78 -83 0
-17 -68 -18 -78 -83 0
-29 -68 -30 -78 -83 0
-40 -68 -41 -78 -83 0
-4 -69 -5 -78 -84 0
-17 -69 -18 -78 -84 0
-29 -69 -30 -78 -84 0
-40 -69 -41 -78 -84 0
-17 -5 -18 -78 -7 0
-29 -5 -30 -78 -7 0
-40 -5 -41 -78 -7 0
-29 -18 -30 -78 -20 0
-40 -18 -41 -78 -20 0
-40 -30 -41 -78 -32 0
-57 -65 -66 -79 -80 0
-58 -65 -67 -79 -80 0
-59 -65 -68 -79 -80 0
-60 -65 -69 -79 -80 0
-4 -65 -5 -79 -80 0
-17 -65 -18 -79 -80 0
-29 -65 -30 -79 -80 0
-40 -65 -41 -79 -80 0
-58 -66 -67 -79 -81 0
-59 -66 -68 -79 -81 0
-60 -66 -69 -79 -81 0
-4 -66 -5 -79 -81 0
-17 -66 -18 -79 -81 0
-29 -66 -30 -79 -81 0
-40 -66 -41 -79 -81 0
-59 -67 -68 -79 -82 0
-60 -67 -69 -79 -82 0
-4 -67 -5 -79 -82 0
-17 -67 -18 -79 -82 0
-29 -67 -30 -79 -82 0
-40 -67 -41 -79 -82 0
-60 -68 -69 -79 -83 0
-4 -68 -5 -79 -83 0
-17 -68 -18 -79 -83 0
-29 -68 -30 -79 -83 0
-40 -68 -41 -79 -83 0
-4 -69 -5 -79 -84 0
-17 -69 -18 -79 -84 0
-29 -69 -30 -79 -84 0
-40 -69 -41 -79 -84 0
-17 -5 -18 -79 -7 0
-29 -5 -30 -79 -7 0
-40 -5 -41 -79 -7 0
-29 -18 -30 -79 -20 0
-40 -18 -41 -79 -20 0
-40 -30 -41 -79 -32 0
-58 -66 -67 -80 -81 0
-59 -66 -68 -80 -81 0
-60 -66 -69 -80 -81 0
-4 -66 -5 -80 -81 0
-17 -66 -18 -80 -81 0
-29 -66 -30 -80 -81 0
-40 -66 -41 -80 -81 0
-59 -67 -68 -80 -82 0
-60 -67 -69 -80 -82 0
-4 -67 -5 -80 -82 0
-17 -67 -18 -80 -82 0
-29 -67 -30 -80 -82 0
-40 -67 -41 -80 -82 0
-60 -68 -69 -80 -83 0
-4 -68 -5 -80 -83 0
-17 -68 -18 -80 -83 0
-29 -68 -30 -80 -83 0
-40 -68 -41 -80 -83 0
-4 -69 -5 -80 -84 0
-17 -69 -18 -80 -84 0
-29 -69 -30 -80 -84 0
-40 -69 -41 -80 -84 0
-17 -5 -18 -80 -7 0
-29 -5 -30 -80 -7 0
-40 -5 -41 -80 -7 0
-29 -18 -30 -80 -20 0
-40 -18 -41 -80 -20 0
-40 -30 -41 -80 -32 0
-59 -67 -68 -81 -82 0
-60 -67 -69 -81 -82 0
-4 -67 -5 -81 -82 0
-17 -67 -18 -81 -82 0
-29 -67 -30 -81 -82 0
-40 -67 -41 -81 -82 0
-60 -68 -69 -81 -83 0
-4 -68 -5 -81 -83 0
-17 -68 -18 -81 -83 0
-29 -68 -30 -81 -83 0
-40 -68 -41 -81 -83 0
-4 -69 -5 -81 -84 0
-17 -69 -18 -81 -84 0
-29 -69 -30 -81 -84 0
-40 -69 -41 -81 -84 0
-17 -5 -18 -81 -7 0
-29 -5 -30 -81 -7 0
-40 -5 -41 -81 -7 0
-29 -18 -30 -81 -20 0
-40 -18 -41 -81 -20 0
-40 -30 -41 -81 -32 0
-60 -68 -69 -82 -83 0
-4 -68 -5 -82 -83 0
-17 -68 -18 -82 -83 0
-29 -68 -30 -82 -83 0
-40 -68 -41 -82 -83 0
-4 -69 -5 -82 -84 0
-17 -69 -18 -82 -84 0
-29 -69 -30 -82 -84 0
-40 -69 -41 -82 -84 0
-17 -5 -18 -82 -7 0
-29 -5 -30 -82 -7 0
-40 -5 -41 -82 -7 0
-29 -18 -30 -82 -20 0
-40 -18 -41 -82 -20 0
-40 -30 -41 -82 -32 0
-4 -69 -5 -83 -84 0
-17 -69 -18 -83 -84 0
-29 -69 -30 -83 -84 0
-40 -69 -41 -83 -84 0
-17 -5 -18 -83 -7 0
-29 -5 -30 -83 -7 0
-40 -5 -41 -83 -7 0
-29 -18 -30 -83 -20 0
-40 -18 -41 -83 -20 0
-40 -30 -41 -83 -32 0
-17 -5 -18 -84 -7 0
-29 -5 -30 -84 -7 0
-40 -5 -41 -84 -7 0
-29 -18 -30 -84 -20 0
-40 -18 -41 -84 -20 0
-40 -30 -41 -84 -32 0
-29 -18 -30 -7 -20 0
-40 -18 -41 -7 -20 0
-40 -30 -41 -7 -32 0
-40 -30 -41 -20 -32 0
-57 -65 -66 -85 -86 0
-58 -65 -67 -85 -86 0
-59 -65 -68 -85 -86 0
-60 -65 -69 -85 -86 0
-4 -65 -5 -85 -86 0
-17 -65 -18 -85 -86 0
-29 -65 -30 -85 -86 0
-40 -65 -41 -85 -86 0
-58 -66 -67 -85 -87 0
-59 -66 -68 -85 -87 0
-60 -66 -69 -85 -87 0
-4 -66 -5 -85 -87 0
-17 -66 -18 -85 -87 0
-29 -66 -30 -85 -87 0
-40 -66 -41 -85 -87 0
-59 -67 -68 -85 -88 0
-60 -67 -69 -85 -88 0
-4 -67 -5 -85 -88 0
-17 -67 -18 -85 -88 0
-29 -67 -30 -85 -88 0
-40 -67 -41 -85 -88 0
-60 -68 -69 -85 -89 0
-4 -68 -5 -85 -89 0
-17 -68 -18 -85 -89 0
-29 -68 -30 -85 -89 0
-40 -68 -41 -85 -89 0
-4 -69 -5 -85 -90 0
-17 -69 -18 -85 -90 0
-29 -69 -30 -85 -90 0
-40 -69 -41 -85 -90 0
-17 -5 -18 -85 -8 0
-29 -5 -30 -85 -8 0
-40 -5 -41 -85 -8 0
-29 -18 -30 -85 -21 0
-40 -18 -41 -85 -21 0
-40 -30 -41 -85 -33 0
-58 -66 -67 -86 -87 0
-59 -66 -68 -86 -87 0
-60 -66 -69 -86 -87 0
-4 -66 -5 -86 -87 0
-17 -66 -18 -86 -87 0
-29 -66 -30 -86 -87 0
-40 -66 -41 -86 -87 0
-59 -67 -68 -86 -88 0
-60 -67 -69 -86 -88 0
-4 -67 -5 -86 -88 0
-17 -67 -18 -86 -88 0
-29 -67 -30 -86 -88 0
-40 -67 -41 -86 -88 0
-60 -68 -69 -86 -89 0
-4 -68 -5 -86 -89 0
-17 -68 -18 -86 -89 0
-29 -68 -30 -86 -89 0
-40 -68 -41 -86 -89 0
-4 -69 -5 -86 -90 0
-17 -69 -18 -86 -90 0
-29 -69 -30 -86 -90 0
-40 -69 -41 -86 -90 0
-17 -5 -18 -86 -8 0
-29 -5 -30 -86 -8 0
-40 -5 -41 -86 -8 0
-29 -18 -30 -86 -21 0
-40 -18 -41 -86 -21 0
-40 -30 -41 -86 -33 0
-59 -67 -68 -87 -88 0
-60 -67 -69 -87 -88 0
-4 -67 -5 -87 -88 0
-17 -67 -18 -87 -88 0
-29 -67 -30 -87 -88 0
-40 -67 -41 -87 -88 0
-60 -68 -69 -87 -89 0
-4 -68 -5 -87 -89 0
-17 -68 -18 -87 -89 0
-29 -68 -30 -87 -89 0
-40 -68 -41 -87 -89 0
-4 -69 -5 -87 -90 0
-17 -69 -18 -87 -90 0
-29 -69 -30 -87 -90 0
-40 -69 -41 -87 -90 0
-17 -5 -18 -87 -8 0
-29 -5 -30 -87 -8 0
-40 -5 -41 -87 -8 0
-29 -18 -30 -87 -21 0
-40 -18 -41 -87 -21 0
-40 -30 -41 -87 -33 0
-60 -68 -69 -88 -89 0
-4 -68 -5 -88 -89 0
-17 -68 -18 -88 -89 0
-29 -68 -30 -88 -89 0
-40 -68 -41 -88 -89 0
-4 -69 -5 -88 -90 0
-17 -69 -18 -88 -90 0
-29 -69 -30 -88 -90 0
-40 -69 -41 -88 -90 0
-17 -5 -18 -88 -8 0
-29 -5 -30 -88 -8 0
-40 -5 -41 -88 -8 0
-29 -18 -30 -88 -21 0
-40 -18 -41 -88 -21 0
-40 -30 -41 -88 -33 0
-4 -69 -5 -89 -90 0
-17 -69 -18 -89 -90 0
-29 -69 -30 -89 -90 0
-40 -69 -41 -89 -90 0
-17 -5 -18 -89 -8 0
-29 -5 -30 -89 -8 0
-40 -5 -41 -89 -8 0
-29 -18 -30 -89 -21 0
-40 -18 -41 -89 -21 0
-40 -30 -41 -89 -33 0
-17 -5 -18 -90 -8 0
-29 -5 -30 -90 -8 0
-40 -5 -41 -90 -8 0
-29 -18 -30 -90 -21 0
-40 -18 -41 -90 -21 0
-40 -30 -41 -90 -33 0
-29 -18 -30 -8 -21 0
-40 -18 -41 -8 -21 0
-40 -30 -41 -8 -33 0
-40 -30 -41 -21 -33 0
-58 -66 -67 -91 -92 0
-59 -66 -68 -91 -92 0
-60 -66 -69 -91 -92 0
-4 -66 -5 -91 -92 0
-17 -66 -18 -91 -92 0
-29 -66 -30 -91 -92 0
-40 -66 -41 -91 -92 0
-59 -67 -68 -91 -93 0
-60 -67 -69 -91 -93 0
-4 -67 -5 -91 -93 0
-17 -67 -18 -91 -93 0
-29 -67 -30 -91 -93 0
-40 -67 -41 -91 -93 0
-60 -68 -69 -91 -94 0
-4 -68 -5 -91 -94 0
-17 -68 -18 -91 -94 0
-29 -68 -30 -91 -94 0
-40 -68 -41 -91 -94 0
-4 -69 -5 -91 -95 0
-17 -69 -18 -91 -95 0
-29 -69 -30 -91 -95 0
-40 -69 -41 -91 -95 0
-17 -5 -18 -91 -9 0
-29 -5 -30 -91 -9 0
-40 -5 -41 -91 -9 0
-29 -18 -30 -91 -22 0
-40 -18 -41 -91 -22 0
-40 -30 -41 -91 -34 0
-59 -67 -68 -92 -93 0
-60 -67 -69 -92 -93 0
-4 -67 -5 -92 -93 0
-17 -67 -18 -92 -93 0
-29 -67 -30 -92 -93 0
-40 -67 -41 -92 -93 0
-60 -68 -69 -92 -94 0
-4 -68 -5 -92 -94 0
-17 -68 -18 -92 -94 0
-29 -68 -30 -92 -94 0
-40 -68 -41 -92 -94 0
-4 -69 -5 -92 -95 0
-17 -69 -18 -92 -95 0
-29 -69 -30 -92 -95 0
-40 -69 -41 -92 -95 0
-17 -5 -18 -92 -9 0
-29 -5 -30 -92 -9 0
-40 -5 -41 -92 -9 0
-29 -18 -30 -92 -22 0
-40 -18 -41 -92 -22 0
-40 -30 -41 -92 -34 0
-60 -68 -69 -93 -94 0
-4 -68 -5 -93 -94 0
-17 -68 -18 -93 -94 0
-29 -68 -30 -93 -94 0
-40 -68 -41 -93 -94 0
-4 -69 -5 -93 -95 0
-17 -69 -18 -93 -95 0
-29 -69 -30 -93 -95 0
-40 -69 -41 -93 -95 0
-17 -5 -18 -93 -9 0
-29 -5 -30 -93 -9 0
-40 -5 -41 -93 -9 0
-29 -18 -30 -93 -22 0
-40 -18 -41 -93 -22 0
-40 -30 -41 -93 -34 0
-4 -69 -5 -94 -95 0
-17 -69 -18 -94 -95 0
-29 -69 -30 -94 -95 0
-40 -69 -41 -94 -95 0
-17 -5 -18 -94 -9 0
-29 -5 -30 -94 -9 0
-40 -5 -41 -94 -9 0
-29 -18 -30 -94 -22 0
-40 -18 -41 -94 -22 0
-40 -30 -41 -94 -34 0
-17 -5 -18 -95 -9 0
-29 -5 -30 -95 -9 0
-40 -5 -41 -95 -9 0
-29 -18 -30 -95 -22 0
-40 -18 -41 -95 -22 0
-40 -30 -41 -95 -34 0
-29 -18 -30 -9 -22 0
-40 -18 -41 -9 -22 0
-40 -30 -41 -9 -34 0
-40 -30 -41 -22 -34 0
-59 -67 -68 -96 -97 0
-60 -67 -69 -96 -97 0
-4 -67 -5 -96 -97 0
-17 -67 -18 -96 -97 0
-29 -67 -30 -96 -97 0
-40 -67 -41 -96 -97 0
-60 -68 -69 -96 -98 0
-4 -68 -5 -96 -98 0
-17 -68 -18 -96 -98 0
-29 -68 -30 -96 -98 0
-40 -68 -41 -96 -98 0
-4 -69 -5 -96 -99 0
-17 -69 -18 -96 -99 0
-29 -69 -30 -96 -99 0
-40 -69 -41 -96 -99 0
-17 -5 -18 -96 -10 0
-29 -5 -30 -96 -10 0
-40 -5 -41 -96 -10 0
-29 -18 -30 -96 -23 0
-40 -18 -41 -96 -23 0
-40 -30 -41 -96 -35 0
-60 -68 -69 -97 -98 0
-4 -68 -5 -97 -98 0
-17 -68 -18 -97 -98 0
-29 -68 -30 -97 -98 0
-40 -68 -41 -97 -98 0
-4 -69 -5 -97 -99 0
-17 -69 -18 -97 -99 0
-29 -69 -30 -97 -99 0
-40 -69 -41 -97 -99 0
-17 -5 -18 -97 -10 0
-29 -5 -30 -97 -10 0
-40 -5 -41 -97 -10 0
-29 -18 -30 -97 -23 0
-40 -18 -41 -97 -23 0
-40 -30 -41 -97 -35 0
-4 -69 -5 -98 -99 0
-17 -69 -18 -98 -99 0
-29 -69 -30 -98 -99 0
-40 -69 -41 -98 -99 0
-17 -5 -18 -98 -10 0
-29 -5 -30 -98 -10 0
-40 -5 -41 -98 -10 0
-29 -18 -30 -98 -23 0
-40 -18 -41 -98 -23 0
-40 -30 -41 -98 -35 0
-17 -5 -18 -99 -10 0
-29 -5 -30 -99 -10 0
-40 -5 -41 -99 -10 0
-29 -18 -30 -99 -23 0
-40 -18 -41 -99 -23 0
-40 -30 -41 -99 -35 0
-29 -18 -30 -10 -23 0
-40 -18 -41 -10 -23 0
-40 -30 -41 -10 -35 0
-40 -30 -41 -23 -35 0
-60 -68 -69 -100 -101 0
-4 -68 -5 -100 -101 0
-17 -68 -18 -100 -101 0
-29 -68 -30 -100 -101 0
-40 -68 -41 -100 -101 0
-4 -69 -5 -100 -102 0
-17 -69 -18 -100 -102 0
-29 -69 -30 -100 -102 0
-40 -69 -41 -100 -102 0
-17 -5 -18 -100 -11 0
-29 -5 -30 -100 -11 0
-40 -5 -41 -100 -11 0
-29 -18 -30 -100 -24 0
-40 -18 -41 -100 -24 0
-40 -30 -41 -100 -36 0
-4 -69 -5 -101 -102 0
-17 -69 -18 -101 -102 0
-29 -69 -30 -101 -102 0
-40 -69 -41 -101 -102 0
-17 -5 -18 -101 -11 0
-29 -5 -30 -101 -11 0
-40 -5 -41 -101 -11 0
-29 -18 -30 -101 -24 0
-40 -18 -41 -101 -24 0
-40 -30 -41 -101 -36 0
-17 -5 -18 -102 -11 0
-29 -5 -30 -102 -11 0
-40 -5 -41 -102 -11 0
-29 -18 -30 -102 -24 0
-40 -18 -41 -102 -24 0
-40 -30 -41 -102 -36 0
-29 -18 -30 -11 -24 0
-40 -18 -41 -11 -24 0
-40 -30 -41 -11 -36 0
-40 -30 -41 -24 -36 0
-4 -69 -5 -103 -104 0
-17 -69 -18 -103 -104 0
-29 -69 -30 -103 -104 0
-40 -69 -41 -103 -104 0
-17 -5 -18 -103 -12 0
-29 -5 -30 -103 -12 0
-40 -5 -41 -103 -12 0
-29 -18 -30 -103 -25 0
-40 -18 -41 -103 -25 0
-40 -30 -41 -103 -37 0
-17 -5 -18 -104 -12 0
-29 -5 -30 -104 -12 0
-40 -5 -41 -104 -12 0
-29 -18 -30 -104 -25 0
-40 -18 -41 -104 -25 0
-40 -30 -41 -104 -37 0
-29 -18 -30 -12 -25 0
-40 -18 -41 -12 -25 0
-40 -30 -41 -12 -37 0
-40 -30 -41 -25 -37 0
-17 -5 -18 -105 -13 0
-29 -5 -30 -105 -13 0
-40 -5 -41 -105 -13 0
-29 -18 -30 -105 -26 0
-40 -18 -41 -105 -26 0
-40 -30 -41 -105 -38 0
-29 -18 -30 -13 -26 0
-40 -18 -41 -13 -26 0
-40 -30 -41 -13 -38 0
-40 -30 -41 -26 -38 0
-29 -18 -30 -14 -27 0
-40 -18 -41 -14 -27 0
-40 -30 -41 -14 -39 0
-40 -30 -41 -27 -39 0
-40 -30 -41 -1 -2 0
-56 -72 -73 -78 -79 0
-57 -72 -74 -78 -79 0
-58 -72 -75 -78 -79 0
-59 -72 -76 -78 -79 0
-60 -72 -77 -78 -79 0
-4 -72 -6 -78 -79 0
-17 -72 -19 -78 -79 0
-29 -72 -31 -78 -79 0
-40 -72 -42 -78 -79 0
-57 -73 -74 -78 -80 0
-58 -73 -75 -78 -80 0
-59 -73 -76 -78 -80 0
-60 -73 -77 -78 -80 0
-4 -73 -6 -78 -80 0
-17 -73 -19 -78 -80 0
-29 -73 -31 -78 -80 0
-40 -73 -42 -78 -80 0
-58 -74 -75 -78 -81 0
-59 -74 -76 -78 -81 0
-60 -74 -77 -78 -81 0
-4 -74 -6 -78 -81 0
-17 -74 -19 -78 -81 0
-29 -74 -31 -78 -81 0
-40 -74 -42 -78 -81 0
-59 -75 -76 -78 -82 0
-60 -75 -77 -78 -82 0
-4 -75 -6 -78 -82 0
-17 -75 -19 -78 -82 0
-29 -75 -31 -78 -82 0
-40 -75 -42 -78 -82 0
-60 -76 -77 -78 -83 0
-4 -76 -6 -78 -83 0
-17 -76 -19 -78 -83 0
-29 -76 -31 -78 -83 0
-40 -76 -42 -78 -83 0
-4 -77 -6 -78 -84 0
-17 -77 -19 -78 -84 0
-29 -77 -31 -78 -84 0
-40 -77 -42 -78 -84 0
-17 -6 -19 -78 -7 0
-29 -6 -31 -78 -7 0
-40 -6 -42 -78 -7 0
-29 -19 -31 -78 -20 0
-40 -19 -42 -78 -20 0
-40 -31 -42 -78 -32 0
-57 -73 -74 -79 -80 0
-58 -73 -75 -79 -80 0
-59 -73 -76 -79 -80 0
-60 -73 -77 -79 -80 0
-4 -73 -6 -79 -80 0
-17 -73 -19 -79 -80 0
-29 -73 -31 -79 -80 0
-40 -73 -42 -79 -80 0
-58 -74 -75 -79 -81 0
-59 -74 -76 -79 -81 0
-60 -74 -77 -79 -81 0
-4 -74 -6 -79 -81 0
-17 -74 -19 -79 -81 0
-29 -74 -31 -79 -81 0
-40 -74 -42 -79 -81 0
-59 -75 -76 -79 -82 0
-60 -75 -77 -79 -82 0
-4 -75 -6 -79 -82 0
-17 -75 -19 -79 -82 0
-29 -75 -31 -79 -82 0
-40 -75 -42 -79 -82 0
-60 -76 -77 -79 -83 0
-4 -76 -6 -79 -83 0
-17 -76 -19 -79 -83 0
-29 -76 -31 -79 -83 0
-40 -76 -42 -79 -83 0
-4 -77 -6 -79 -84 0
-17 -77 -19 -79 -84 0
-29 -77 -31 -79 -84 0
-40 -77 -42 -79 -84 0
-17 -6 -19 -79 -7 0
-29 -6 -31 -79 -7 0
-40 -6 -42 -79 -7 0
-29 -19 -31 -79 -20 0
-40 -19 -42 -79 -20 0
-40 -31 -42 -79 -32 0
-58 -74 -75 -80 -81 0
-59 -74 -76 -80 -81 0
-60 -74 -77 -80 -81 0
-4 -74 -6 -80 -81 0
-17 -74 -19 -80 -81 0
-29 -74 -31 -80 -81 0
-40 -74 -42 -80 -81 0
-59 -75 -76 -80 -82 0
-60 -75 -77 -80 -82 0
-4 -75 -6 -80 -82 0
-17 -75 -19 -80 -82 0
-29 -75 -31 -80 -82 0
-40 -75 -42 -80 -82 0
-60 -76 -77 -80 -83 0
-4 -76 -6 -80 -83 0
-17 -76 -19 -80 -83 0
-29 -76 -31 -80 -83 0
-40 -76 -42 -80 -83 0
-4 -77 -6 -80 -84 0
-17 -77 -19 -80 -84 0
-29 -77 -31 -80 -84 0
-40 -77 -42 -80 -84 0
-17 -6 -19 -80 -7 0
-29 -6 -31 -80 -7 0
-40 -6 -42 -80 -7 0
-29 -19 -31 -80 -20 0
-40 -19 -42 -80 -20 0
-40 -31 -42 -80 -32 0
-59 -75 -76 -81 -82 0
-60 -75 -77 -81 -82 0
-4 -75 -6 -81 -82 0
-17 -75 -19 -81 -82 0
-29 -75 -31 -81 -82 0
-40 -75 -42 -81 -82 0
-60 -76 -77 -81 -83 0
-4 -76 -6 -81 -83 0
-17 -76 -19 -81 -83 0
-29 -76 -31 -81 -83 0
-40 -76 -42 -81 -83 0
-4 -77 -6 -81 -84 0
-17 -77 -19 -81 -84 0
-29 -77 -31 -81 -84 0
-40 -77 -42 -81 -84 0
-17 -6 -19 -81 -7 0
-29 -6 -31 -81 -7 0
-40 -6 -42 -81 -7 0
-29 -19 -31 -81 -20 0
-40 -19 -42 -81 -20 0
-40 -31 -42 -81 -32 0
-60 -76 -77 -82 -83 0
-4 -76 -6 -82 -83 0
-17 -76 -19 -82 -83 0
-29 -76 -31 -82 -83 0
-40 -76 -42 -82 -83 0
-4 -77 -6 -82 -84 0
-17 -77 -19 -82 -84 0
-29 -77 -31 -82 -84 0
-40 -77 -42 -82 -84 0
-17 -6 -19 -82 -7 0
-29 -6 -31 -82 -7 0
-40 -6 -42 -82 -7 0
-29 -19 -31 -82 -20 0
-40 -19 -42 -82 -20 0
-40 -31 -42 -82 -32 0
-4 -77 -6 -83 -84 0
-17 -77 -19 -83 -84 0
-29 -77 -31 -83 -84 0
-40 -77 -42 -83 -84 0
-17 -6 -19 -83 -7 0
-29 -6 -31 -83 -7 0
-40 -6 -42 -83 -7 0
-29 -19 -31 -83 -20 0
-40 -19 -42 -83 -20 0
-40 -31 -42 -83 -32 0
-17 -6 -19 -84 -7 0
-29 -6 -31 -84 -7 0
-40 -6 -42 -84 -7 0
-29 -19 -31 -84 -20 0
-40 -19 -42 -84 -20 0
-40 -31 -42 -84 -32 0
-29 -19 -31 -7 -20 0
-40 -19 -42 -7 -20 0
-40 -31 -42 -7 -32 0
-40 -31 -42 -20 -32 0
-57 -73 -74 -85 -86 0
-58 -73 -75 -85 -86 0
-59 -73 -76 -85 -86 0
-60 -73 -77 -85 -86 0
-4 -73 -6 -85 -86 0
-17 -73 -19 -85 -86 0
-29 -73 -31 -85 -86 0
-40 -73 -42 -85 -86 0
-58 -74 -75 -85 -87 0
-59 -74 -76 -85 -87 0
-60 -74 -77 -85 -87 0
-4 -74 -6 -85 -87 0
-17 -74 -19 -85 -87 0
-29 -74 -31 -85 -87 0
-40 -74 -42 -85 -87 0
-59 -75 -76 -85 -88 0
-60 -75 -77 -85 -88 0
-4 -75 -6 -85 -88 0
-17 -75 -19 -85 -88 0
-29 -75 -31 -85 -88 0
-40 -75 -42 -85 -88 0
-60 -76 -77 -85 -89 0
-4 -76 -6 -85 -89 0
-17 -76 -19 -85 -89 0
-29 -76 -31 -85 -89 0
-40 -76 -42 -85 -89 0
-4 -77 -6 -85 -90 0
-17 -77 -19 -85 -90 0
-29 -77 -31 -85 -90 0
-40 -77 -42 -85 -90 0
-17 -6 -19 -85 -8 0
-29 -6 -31 -85 -8 0
-40 -6 -42 -85 -8 0
-29 -19 -31 -85 -21 0
-40 -19 -42 -85 -21 0
-40 -31 -42 -85 -33 0
-58 -74 -75 -86 -87 0
-59 -74 -76 -86 -87 0
-60 -74 -77 -86 -87 0
-4 -74 -6 -86 -87 0
-17 -74 -19 -86 -87 0
-29 -74 -31 -86 -87 0
-40 -74 -42 -86 -87 0
-59 -75 -76 -86 -88 0
-60 -75 -77 -86 -88 0
-4 -75 -6 -86 -88 0
-17 -75 -19 -86 -88 0
-29 -75 -31 -86 -88 0
-40 -75 -42 -86 -88 0
-60 -76 -77 -86 -89 0
-4 -76 -6 -86 -89 0
-17 -76 -19 -86 -89 0
-29 -76 -31 -86 -89 0
-40 -76 -42 -86 -89 0
-4 -77 -6 -86 -90 0
-17 -77 -19 -86 -90 0
-29 -77 -31 -86 -90 0
-40 -77 -42 -86 -90 0
-17 -6 -19 -86 -8 0
-29 -6 -31 -86 -8 0
-40 -6 -42 -86 -8 0
-29 -19 -31 -86 -21 0
-40 -19 -42 -86 -21 0
-40 -31 -42 -86 -33 0
-59 -75 -76 -87 -88 0
-60 -75 -77 -87 -88 0
-4 -75 -6 -87 -88 0
-17 -75 -19 -87 -88 0
-29 -75 -31 -87 -88 0
-40 -75 -42 -87 -88 0
-60 -76 -77 -87 -89 0
-4 -76 -6 -87 -89 0
-17 -76 -19 -87 -89 0
-29 -76 -31 -87 -89 0
-40 -76 -42 -87 -89 0
-4 -77 -6 -87 -90 0
-17 -77 -19 -87 -90 0
-29 -77 -31 -87 -90 0
-40 -77 -42 -87 -90 0
-17 -6 -19 -87 -8 0
-29 -6 -31 -87 -8 0
-40 -6 -42 -87 -8 0
-29 -19 -31 -87 -21 0
-40 -19 -42 -87 -21 0
-40 -31 -42 -87 -33 0
-60 -76 -77 -88 -89 0
-4 -76 -6 -88 -89 0
-17 -76 -19 -88 -89 0
-29 -76 -31 -88 -89 0
-40 -76 -42 -88 -89 0
-4 -77 -6 -88 -90 0
-17 -77 -19 -88 -90 0
-29 -77 -31 -88 -90 0
-40 -77 -42 -88 -90 0
-17 -6 -19 -88 -8 0
-29 -6 -31 -88 -8 0
-40 -6 -42 -88 -8 0
-29 -19 -31 -88 -21 0
-40 -19 -42 -88 -21 0
-40 -31 -42 -88 -33 0
-4 -77 -6 -89 -90 0
-17 -77 -19 -89 -90 0
-29 -77 -31 -89 -90 0
-40 -77 -42 -89 -90 0
-17 -6 -19 -89 -8 0
-29 -6 -31 -89 -8 0
-40 -6 -42 -89 -8 0
-29 -19 -31 -89 -21 0
-40 -19 -42 -89 -21 0
-40 -31 -42 -89 -33 0
-17 -6 -19 -90 -8 0
-29 -6 -31 -90 -8 0
-40 -6 -42 -90 -8 0
-29 -19 -31 -90 -21 0
-40 -19 -42 -90 -21 0
-40 -31 -42 -90 -33 0
-29 -19 -31 -8 -21 0
-40 -19 -42 -8 -21 0
-40 -31 -42 -8 -33 0
-40 -31 -42 -21 -33 0
-58 -74 -75 -91 -92 0
-59 -74 -76 -91 -92 0
-60 -74 -77 -91 -92 0
-4 -74 -6 -91 -92 0
-17 -74 -19 -91 -92 0
-29 -74 -31 -91 -92 0
-40 -74 -42 -91 -92 0
-59 -75 -76 -91 -93 0
-60 -75 -77 -91 -93 0
-4 -75 -6 -91 -93 0
-17 -75 -19 -91 -93 0
-29 -75 -31 -91 -93 0
-40 -75 -42 -91 -93 0
-60 -76 -77 -91 -94 0
-4 -76 -6 -91 -94 0
-17 -76 -19 -91 -94 0
-29 -76 -31 -91 -94 0
-40 -76 -42 -91 -94 0
-4 -77 -6 -91 -95 0
-17 -77 -19 -91 -95 0
-29 -77 -31 -91 -95 0
-40 -77 -42 -91 -95 0
-17 -6 -19 -91 -9 0
-29 -6 -31 -91 -9 0
-40 -6 -42 -91 -9 0
-29 -19 -31 -91 -22 0
-40 -19 -42 -91 -22 0
-40 -31 -42 -91 -34 0
-59 -75 -76 -92 -93 0
-60 -75 -77 -92 -93 0
-4 -75 -6 -92 -93 0
-17 -75 -19 -92 -93 0
-29 -75 -31 -92 -93 0
-40 -75 -42 -92 -93 0
-60 -76 -77 -92 -94 0
-4 -76 -6 -92 -94 0
-17 -76 -19 -92 -94 0
-29 -76 -31 -92 -94 0
-40 -76 -42 -92 -94 0
-4 -77 -6 -92 -95 0
-17 -77 -19 -92 -95 0
-29 -77 -31 -92 -95 0
-40 -77 -42 -92 -95 0
-17 -6 -19 -92 -9 0
-29 -6 -31 -92 -9 0
-40 -6 -42 -92 -9 0
-29 -19 -31 -92 -22 0
-40 -19 -42 -92 -22 0
-40 -31 -42 -92 -34 0
-60 -76 -77 -93 -94 0
-4 -76 -6 -93 -94 0
-17 -76 -19 -93 -94 0
-29 -76 -31 -93 -94 0
-40 -76 -42 -93 -94 0
-4 -77 -6 -93 -95 0
-17 -77 -19 -93 -95 0
-29 -77 -31 -93 -95 0
-40 -77 -42 -93 -95 0
-17 -6 -19 -93 -9 0
-29 -6 -31 -93 -9 0
-40 -6 -42 -93 -9 0
-29 -19 -31 -93 -22 0
-40 -19 -42 -93 -22 0
-40 -31 -42 -93 -34 0
-4 -77 -6 -94 -95 0
-17 -77 -19 -94 -95 0
-29 -77 -31 -94 -95 0
-40 -77 -42 -94 -95 0
-17 -6 -19 -94 -9 0
-29 -6 -31 -94 -9 0
-40 -6 -42 -94 -9 0
-29 -19 -31 -94 -22 0
-40 -19 -42 -94 -22 0
-40 -31 -42 -94 -34 0
-17 -6 -19 -95 -9 0
-29 -6 -31 -95 -9 0
-40 -6 -42 -95 -9 0
-29 -19 -31 -95 -22 0
-40 -19 -42 -95 -22 0
-40 -31 -42 -95 -34 0
-29 -19 -31 -9 -22 0
-40 -19 -42 -9 -22 0
-40 -31 -42 -9 -34 0
-40 -31 -42 -22 -34 0
-59 -75 -76 -96 -97 0
-60 -75 -77 -96 -97 0
-4 -75 -6 -96 -97 0
-17 -75 -19 -96 -97 0
-29 -75 -31 -96 -97 0
-40 -75 -42 -96 -97 0
-60 -76 -77 -96 -98 0
-4 -76 -6 -96 -98 0
-17 -76 -19 -96 -98 0
-29 -76 -31 -96 -98 0
-40 -76 -42 -96 -98 0
-4 -77 -6 -96 -99 0
-17 -77 -19 -96 -99 0
-29 -77 -31 -96 -99 0
-40 -77 -42 -96 -99 0
-17 -6 -19 -96 -10 0
-29 -6 -31 -96 -10 0
-40 -6 -42 -96 -10 0
-29 -19 -31 -96 -23 0
-40 -19 -42 -96 -23 0
-40 -31 -42 -96 -35 0
-60 -76 -77 -97 -98 0
-4 -76 -6 -97 -98 0
-17 -76 -19 -97 -98 0
-29 -76 -31 -97 -98 0
-40 -76 -42 -97 -98 0
-4 -77 -6 -97 -99 0
-17 -77 -19 -97 -99 0
-29 -77 -31 -97 -99 0
-40 -77 -42 -97 -99 0
-17 -6 -19 -97 -10 0
-29 -6 -31 -97 -10 0
-40 -6 -42 -97 -10 0
-29 -19 -31 -97 -23 0
-40 -19 -42 -97 -23 0
-40 -31 -42 -97 -35 0
-4 -77 -6 -98 -99 0
-17 -77 -19 -98 -99 0
-29 -77 -31 -98 -99 0
-40 -77 -42 -98 -99 0
-17 -6 -19 -98 -10 0
-29 -6 -31 -98 -10 0
-40 -6 -42 -98 -10 0
-29 -19 -31 -98 -23 0
-40 -19 -42 -98 -23 0
-40 -31 -42 -98 -35 0
-17 -6 -19 -99 -10 0
-29 -6 -31 -99 -10 0
-40 -6 -42 -99 -10 0
-29 -19 -31 -99 -23 0
-40 -19 -42 -99 -23 0
-40 -31 -42 -99 -35 0
-29 -19 -31 -10 -23 0
-40 -19 -42 -10 -23 0
-40 -31 -42 -10 -35 0
-40 -31 -42 -23 -35 0
-60 -76 -77 -100 -101 0
-4 -76 -6 -100 -101 0
-17 -76 -19 -100 -101 0
-29 -76 -31 -100 -101 0
-40 -76 -42 -100 -101 0
-4 -77 -6 -100 -102 0
-17 -77 -19 -100 -102 0
-29 -77 -31 -100 -102 0
-40 -77 -42 -100 -102 0
-17 -6 -19 -100 -11 0
-29 -6 -31 -100 -11 0
-40 -6 -42 -100 -11 0
-29 -19 -31 -100 -24 0
-40 -19 -42 -100 -24 0
-40 -31 -42 -100 -36 0
-4 -77 -6 -101 -102 0
-17 -77 -19 -101 -102 0
-29 -77 -31 -101 -102 0
-40 -77 -42 -101 -102 0
-17 -6 -19 -101 -11 0
-29 -6 -31 -101 -11 0
-40 -6 -42 -101 -11 0
-29 -19 -31 -101 -24 0
-40 -19 -42 -101 -24 0
-40 -31 -42 -101 -36 0
-17 -6 -19 -102 -11 0
-29 -6 -31 -102 -11 0
-40 -6 -42 -102 -11 0
-29 -19 -31 -102 -24 0
-40 -19 -42 -102 -24 0
-40 -31 -42 -102 -36 0
-29 -19 -31 -11 -24 0
-40 -19 -42 -11 -24 0
-40 -31 -42 -11 -36 0
-40 -31 -42 -24 -36 0
-4 -77 -6 -103 -104 0
-17 -77 -19 -103 -104 0
-29 -77 -31 -103 -104 0
-40 -77 -42 -103 -104 0
-17 -6 -19 -103 -12 0
-29 -6 -31 -103 -12 0
-40 -6 -42 -103 -12 0
-29 -19 -31 -103 -25 0
-40 -19 -42 -103 -25 0
-40 -31 -42 -103 -37 0
-17 -6 -19 -104 -12 0
-29 -6 -31 -104 -12 0
-40 -6 -42 -104 -12 0
-29 -19 -31 -104 -25 0
-40 -19 -42 -104 -25 0
-40 -31 -42 -104 -37 0
-29 -19 -31 -12 -25 0
-40 -19 -42 -12 -25 0
-40 -31 -42 -12 -37 0
-40 -31 -42 -25 -37 0
-17 -6 -19 -105 -13 0
-29 -6 -31 -105 -13 0
-40 -6 -42 -105 -13 0
-29 -19 -31 -105 -26 0
-40 -19 -42 -105 -26 0
-40 -31 -42 -105 -38 0
-29 -19 -31 -13 -26 0
-40 -19 -42 -13 -26 0
-40 -31 -42 -13 -38 0
-40 -31 -42 -26 -38 0
-29 -19 -31 -14 -27 0
-40 -19 -42 -14 -27 0
-40 -31 -42 -14 -39 0
-40 -31 -42 -27 -39 0
-40 -31 -42 -1 -2 0
-57 -80 -81 -85 -86 0
-58 -80 -82 -85 -86 0
-59 -80 -83 -85 -86 0
-60 -80 -84 -85 -86 0
-4 -80 -7 -85 -86 0
-17 -80 -20 -85 -86 0
-29 -80 -32 -85 -86 0
-40 -80 -43 -85 -86 0
-58 -81 -82 -85 -87 0
-59 -81 -83 -85 -87 0
-60 -81 -84 -85 -87 0
-4 -81 -7 -85 -87 0
-17 -81 -20 -85 -87 0
-29 -81 -32 -85 -87 0
-40 -81 -43 -85 -87 0
-59 -82 -83 -85 -88 0
-60 -82 -84 -85 -88 0
-4 -82 -7 -85 -88 0
-17 -82 -20 -85 -88 0
-29 -82 -32 -85 -88 0
-40 -82 -43 -85 -88 0
-60 -83 -84 -85 -89 0
-4 -83 -7 -85 -89 0
-17 -83 -20 -85 -89 0
-29 -83 -32 -85 -89 0
-40 -83 -43 -85 -89 0
-4 -84 -7 -85 -90 0
-17 -84 -20 -85 -90 0
-29 -84 -32 -85 -90 0
-40 -84 -43 -85 -90 0
-17 -7 -20 -85 -8 0
-29 -7 -32 -85 -8 0
-40 -7 -43 -85 -8 0
-29 -20 -32 -85 -21 0
-40 -20 -43 -85 -21 0
-40 -32 -43 -85 -33 0
-58 -81 -82 -86 -87 0
-59 -81 -83 -86 -87 0
-60 -81 -84 -86 -87 0
-4 -81 -7 -86 -87 0
-17 -81 -20 -86 -87 0
-29 -81 -32 -86 -87 0
-40 -81 -43 -86 -87 0
-59 -82 -83 -86 -88 0
-60 -82 -84 -86 -88 0
-4 -82 -7 -86 -88 0
-17 -82 -20 -86 -88 0
-29 -82 -32 -86 -88 0
-40 -82 -43 -86 -88 0
-60 -83 -84 -86 -89 0
-4 -83 -7 -86 -89 0
-17 -83 -20 -86 -89 0
-29 -83 -32 -86 -89 0
-40 -83 -43 -86 -89 0
-4 -84 -7 -86 -90 0
-17 -84 -20 -86 -90 0
-29 -84 -32 -86 -90 0
-40 -84 -43 -86 -90 0
-17 -7 -20 -86 -8 0
-29 -7 -32 -86 -8 0
-40 -7 -43 -86 -8 0
-29 -20 -32 -86 -21 0
-40 -20 -43 -86 -21 0
-40 -32 -43 -86 -33 0
-59 -82 -83 -87 -88 0
-60 -82 -84 -87 -88 0
-4 -82 -7 -87 -88 0
-17 -82 -20 -87 -88 0
-29 -82 -32 -87 -88 0
-40 -82 -43 -87 -88 0
-60 -83 -84 -87 -89 0
-4 -83 -7 -87 -89 0
-17 -83 -20 -87 -89 0
-29 -83 -32 -87 -89 0
-40 -83 -43 -87 -89 0
-4 -84 -7 -87 -90 0
-17 -84 -20 -87 -90 0
-29 -84 -32 -87 -90 0
-40 -84 -43 -87 -90 0
-17 -7 -20 -87 -8 0
-29 -7 -32 -87 -8 0
-40 -7 -43 -87 -8 0
-29 -20 -32 -87 -21 0
-40 -20 -43 -87 -21 0
-40 -32 -43 -87 -33 0
-60 -83 -84 -88 -89 0
-4 -83 -7 -88 -89 0
-17 -83 -20 -88 -89 0
-29 -83 -32 -88 -89 0
-40 -83 -43 -88 -89 0
-4 -84 -7 -88 -90 0
-17 -84 -20 -88 -90 0
-29 -84 -32 -88 -90 0
-40 -84 -43 -88 -90 0
-17 -7 -20 -88 -8 0
-29 -7 -32 -88 -8 0
-40 -7 -43 -88 -8 0
-29 -20 -32 -88 -21 0
-40 -20 -43 -88 -21 0
-40 -32 -43 -88 -33 0
-4 -84 -7 -89 -90 0
-17 -84 -20 -89 -90 0
-29 -84 -32 -89 -90 0
-40 -84 -43 -89 -90 0
-17 -7 -20 -89 -8 0
-29 -7 -32 -89 -8 0
-40 -7 -43 -89 -8 0
-29 -20 -32 -89 -21 0
-40 -20 -43 -89 -21 0
-40 -32 -43 -89 -33 0
-17 -7 -20 -90 -8 0
-29 -7 -32 -90 -8 0
-40 -7 -43 -90 -8 0
-29 -20 -32 -90 -21 0
-40 -20 -43 -90 -21 0
-40 -32 -43 -90 -33 0
-29 -20 -32 -8 -21 0
-40 -20 -43 -8 -21 0
-40 -32 -43 -8 -33 0
-40 -32 -43 -21 -33 0
-58 -81 -82 -91 -92 0
-59 -81 -83 -91 -92 0
-60 -81 -84 -91 -92 0
-4 -81 -7 -91 -92 0
-17 -81 -20 -91 -92 0
-29 -81 -32 -91 -92 0
-40 -81 -43 -91 -92 0
-59 -82 -83 -91 -93 0
-60 -82 -84 -91 -93 0
-4 -82 -7 -91 -93 0
-17 -82 -20 -91 -93 0
-29 -82 -32 -91 -93 0
-40 -82 -43 -91 -93 0
-60 -83 -84 -91 -94 0
-4 -83 -7 -91 -94 0
-17 -83 -20 -91 -94 0
-29 -83 -32 -91 -94 0
-40 -83 -43 -91 -94 0
-4 -84 -7 -91 -95 0
-17 -84 -20 -91 -95 0
-29 -84 -32 -91 -95 0
-40 -84 -43 -91 -95 0
-17 -7 -20 -91 -9 0
-29 -7 -32 -91 -9 0
-40 -7 -43 -91 -9 0
-29 -20 -32 -91 -22 0
-40 -20 -43 -91 -22 0
-40 -32 -43 -91 -34 0
-59 -82 -83 -92 -93 0
-60 -82 -84 -92 -93 0
-4 -82 -7 -92 -93 0
-17 -82 -20 -92 -93 0
-29 -82 -32 -92 -93 0
-40 -82 -43 -92 -93 0
-60 -83 -84 -92 -94 0
-4 -83 -7 -92 -94 0
-17 -83 -20 -92 -94 0
-29 -83 -32 -92 -94 0
-40 -83 -43 -92 -94 0
-4 -84 -7 -92 -95 0
-17 -84 -20 -92 -95 0
-29 -84 -32 -92 -95 0
-40 -84 -43 -92 -95 0
-17 -7 -20 -92 -9 0
-29 -7 -32 -92 -9 0
-40 -7 -43 -92 -9 0
-29 -20 -32 -92 -22 0
-40 -20 -43 -92 -22 0
-40 -32 -43 -92 -34 0
-60 -83 -84 -93 -94 0
-4 -83 -7 -93 -94 0
-17 -83 -20 -93 -94 0
-29 -83 -32 -93 -94 0
-40 -83 -43 -93 -94 0
-4 -84 -7 -93 -95 0
-17 -84 -20 -93 -95 0
-29 -84 -32 -93 -95 0
-40 -84 -43 -93 -95 0
-17 -7 -20 -93 -9 0
-29 -7 -32 -93 -9 0
-40 -7 -43 -93 -9 0
-29 -20 -32 -93 -22 0
-40 -20 -43 -93 -22 0
-40 -32 -43 -93 -34 0
-4 -84 -7 -94 -95 0
-17 -84 -20 -94 -95 0
-29 -84 -32 -94 -95 0
-40 -84 -43 -94 -95 0
-17 -7 -20 -94 -9 0
-29 -7 -32 -94 -9 0
-40 -7 -43 -94 -9 0
-29 -20 -32 -94 -22 0
-40 -20 -43 -94 -22 0
-40 -32 -43 -94 -34 0
-17 -7 -20 -95 -9 0
-29 -7 -32 -95 -9 0
-40 -7 -43 -95 -9 0
-29 -20 -32 -95 -22 0
-40 -20 -43 -95 -22 0
-40 -32 -43 -95 -34 0
-29 -20 -32 -9 -22 0
-40 -20 -43 -9 -22 0
-40 -32 -43 -9 -34 0
-40 -32 -43 -22 -34 0
-59 -82 -83 -96 -97 0
-60 -82 -84 -96 -97 0
-4 -82 -7 -96 -97 0
-17 -82 -20 -96 -97 0
-29 -82 -32 -96 -97 0
-40 -82 -43 -96 -97 0
-60 -83 -84 -96 -98 0
-4 -83 -7 -96 -98 0
-17 -83 -20 -96 -98 0
-29 -83 -32 -96 -98 0
-40 -83 -43 -96 -98 0
-4 -84 -7 -96 -99 0
-17 -84 -20 -96 -99 0
-29 -84 -32 -96 -99 0
-40 -84 -43 -96 -99 0
-17 -7 -20 -96 -10 0
-29 -7 -32 -96 -10 0
-40 -7 -43 -96 -10 0
-29 -20 -32 -96 -23 0
-40 -20 -43 -96 -23 0
-40 -32 -43 -96 -35 0
-60 -83 -84 -97 -98 0
-4 -83 -7 -97 -98 0
-17 -83 -20 -97 -98 0
-29 -83 -32 -97 -98 0
-40 -83 -43 -97 -98 0
-4 -84 -7 -97 -99 0
-17 -84 -20 -97 -99 0
-29 -84 -32 -97 -99 0
-40 -84 -43 -97 -99 0
-17 -7 -20 -97 -10 0
-29 -7 -32 -97 -10 0
-40 -7 -43 -97 -10 0
-29 -20 -32 -97 -23 0
-40 -20 -43 -97 -23 0
-40 -32 -43 -97 -35 0
-4 -84 -7 -98 -99 0
-17 -84 -20 -98 -99 0
-29 -84 -32 -98 -99 0
-40 -84 -43 -98 -99 0
-17 -7 -20 -98 -10 0
-29 -7 -32 -98 -10 0
-40 -7 -43 -98 -10 0
-29 -20 -32 -98 -23 0
-40 -20 -43 -98 -23 0
-40 -32 -43 -98 -35 0
-17 -7 -20 -99 -10 0
-29 -7 -32 -99 -10 0
-40 -7 -43 -99 -10 0
-29 -20 -32 -99 -23 0
-40 -20 -43 -99 -23 0
-40 -32 -43 -99 -35 0
-29 -20 -32 -10 -23 0
-40 -20 -43 -10 -23 0
-40 -32 -43 -10 -35 0
-40 -32 -43 -23 -35 0
-60 -83 -84 -100 -101 0
-4 -83 -7 -100 -101 0
-17 -83 -20 -100 -101 0
-29 -83 -32 -100 -101 0
-40 -83 -43 -100 -101 0
-4 -84 -7 -100 -102 0
-17 -84 -20 -100 -102 0
-29 -84 -32 -100 -102 0
-40 -84 -43 -100 -102 0
-17 -7 -20 -100 -11 0
-29 -7 -32 -100 -11 0
-40 -7 -43 -100 -11 0
-29 -20 -32 -100 -24 0
-40 -20 -43 -100 -24 0
-40 -32 -43 -100 -36 0
-4 -84 -7 -101 -102 0
-17 -84 -20 -101 -102 0
-29 -84 -32 -101 -102 0
-40 -84 -43 -101 -102 0
-17 -7 -20 -101 -11 0
-29 -7 -32 -101 -11 0
-40 -7 -43 -101 -11 0
-29 -20 -32 -101 -24 0
-40 -20 -43 -101 -24 0
-40 -32 -43 -101 -36 0
-17 -7 -20 -102 -11 0
-29 -7 -32 -102 -11 0
-40 -7 -43 -102 -11 0
-29 -20 -32 -102 -24 0
-40 -20 -43 -102 -24 0
-40 -32 -43 -102 -36 0
-29 -20 -32 -11 -24 0
-40 -20 -43 -11 -24 0
-40 -32 -43 -11 -36 0
-40 -32 -43 -24 -36 0
-4 -84 -7 -103 -104 0
-17 -84 -20 -103 -104 0
-29 -84 -32 -103 -104 0
-40 -84 -43 -103 -104 0
-17 -7 -20 -103 -12 0
-29 -7 -32 -103 -12 0
-40 -7 -43 -103 -12 0
-29 -20 -32 -103 -25 0
-40 -20 -43 -103 -25 0
-40 -32 -43 -103 -37 0
-17 -7 -20 -104 -12 0
-29 -7 -32 -104 -12 0
-40 -7 -43 -104 -12 0
-29 -20 -32 -104 -25 0
-40 -20 -43 -104 -25 0
-40 -32 -43 -104 -37 0
-29 -20 -32 -12 -25 0
-40 -20 -43 -12 -25 0
-40 -32 -43 -12 -37 0
-40 -32 -43 -25 -37 0
-17 -7 -20 -105 -13 0
-29 -7 -32 -105 -13 0
-40 -7 -43 -105 -13 0
-29 -20 -32 -105 -26 0
-40 -20 -43 -105 -26 0
-40 -32 -43 -105 -38 0
-29 -20 -32 -13 -26 0
-40 -20 -43 -13 -26 0
-40 -32 -43 -13 -38 0
-40 -32 -43 -26 -38 0
-29 -20 -32 -14 -27 0
-40 -20 -43 -14 -27 0
-40 -32 -43 -14 -39 0
-40 -32 -43 -27 -39 0
-40 -32 -43 -1 -2 0
-58 -87 -88 -91 -92 0
-59 -87 -89 -91 -92 0
-60 -87 -90 -91 -92 0
-4 -87 -8 -91 -92 0
-17 -87 -21 -91 -92 0
-29 -87 -33 -91 -92 0
-40 -87 -44 -91 -92 0
-59 -88 -89 -91 -93 0
-60 -88 -90 -91 -93 0
-4 -88 -8 -91 -93 0
-17 -88 -21 -91 -93 0
-29 -88 -33 -91 -93 0
-40 -88 -44 -91 -93 0
-60 -89 -90 -91 -94 0
-4 -89 -8 -91 -94 0
-17 -89 -21 -91 -94 0
-29 -89 -33 -91 -94 0
-40 -89 -44 -91 -94 0
-4 -90 -8 -91 -95 0
-17 -90 -21 -91 -95 0
-29 -90 -33 -91 -95 0
-40 -90 -44 -91 -95 0
-17 -8 -21 -91 -9 0
-29 -8 -33 -91 -9 0
-40 -8 -44 -91 -9 0
-29 -21 -33 -91 -22 0
-40 -21 -44 -91 -22 0
-40 -33 -44 -91 -34 0
-59 -88 -89 -92 -93 0
-60 -88 -90 -92 -93 0
-4 -88 -8 -92 -93 0
-17 -88 -21 -92 -93 0
-29 -88 -33 -92 -93 0
-40 -88 -44 -92 -93 0
-60 -89 -90 -92 -94 0
-4 -89 -8 -92 -94 0
-17 -89 -21 -92 -94 0
-29 -89 -33 -92 -94 0
-40 -89 -44 -92 -94 0
-4 -90 -8 -92 -95 0
-17 -90 -21 -92 -95 0
-29 -90 -33 -92 -95 0
-40 -90 -44 -92 -95 0
-17 -8 -21 -92 -9 0
-29 -8 -33 -92 -9 0
-40 -8 -44 -92 -9 0
-29 -21 -33 -92 -22 0
-40 -21 -44 -92 -22 0
-40 -33 -44 -92 -34 0
-60 -89 -90 -93 -94 0
-4 -89 -8 -93 -94 0
-17 -89 -21 -93 -94 0
-29 -89 -33 -93 -94 0
-40 -89 -44 -93 -94 0
-4 -90 -8 -93 -95 0
-17 -90 -21 -93 -95 0
-29 -90 -33 -93 -95 0
-40 -90 -44 -93 -95 0
-17 -8 -21 -93 -9 0
-29 -8 -33 -93 -9 0
-40 -8 -44 -93 -9 0
-29 -21 -33 -93 -22 0
-40 -21 -44 -93 -22 0
-40 -33 -44 -93 -34 0
-4 -90 -8 -94 -95 0
-17 -90 -21 -94 -95 0
-29 -90 -33 -94 -95 0
-40 -90 -44 -94 -95 0
-17 -8 -21 -94 -9 0
-29 -8 -33 -94 -9 0
-40 -8 -44 -94 -9 0
-29 -21 -33 -94 -22 0
-40 -21 -44 -94 -22 0
-40 -33 -44 -94 -34 0
-17 -8 -21 -95 -9 0
-29 -8 -33 -95 -9 0
-40 -8 -44 -95 -9 0
-29 -21 -33 -95 -22 0
-40 -21 -44 -95 -22 0
-40 -33 -44 -95 -34 0
-29 -21 -33 -9 -22 0
-40 -21 -44 -9 -22 0
-40 -33 -44 -9 -34 0
-40 -33 -44 -22 -34 0
-59 -88 -89 -96 -97 0
-60 -88 -90 -96 -97 0
-4 -88 -8 -96 -97 0
-17 -88 -21 -96 -97 0
-29 -88 -33 -96 -97 0
-40 -88 -44 -96 -97 0
-60 -89 -90 -96 -98 0
-4 -89 -8 -96 -98 0
-17 -89 -21 -96 -98 0
-29 -89 -33 -96 -98 0
-40 -89 -44 -96 -98 0
-4 -90 -8 -96 -99 0
-17 -90 -21 -96 -99 0
-29 -90 -33 -96 -99 0
-40 -90 -44 -96 -99 0
-17 -8 -21 -96 -10 0
-29 -8 -33 -96 -10 0
-40 -8 -44 -96 -10 0
-29 -21 -33 -96 -23 0
-40 -21 -44 -96 -23 0
-40 -33 -44 -96 -35 0
-60 -89 -90 -97 -98 0
-4 -89 -8 -97 -98 0
-17 -89 -21 -97 -98 0
-29 -89 -33 -97 -98 0
-40 -89 -44 -97 -98 0
-4 -90 -8 -97 -99 0
-17 -90 -21 -97 -99 0
-29 -90 -33 -97 -99 0
-40 -90 -44 -97 -99 0
-17 -8 -21 -97 -10 0
-29 -8 -33 -97 -10 0
-40 -8 -44 -97 -10 0
-29 -21 -33 -97 -23 0
-40 -21 -44 -97 -23 0
-40 -33 -44 -97 -35 0
-4 -90 -8 -98 -99 0
-17 -90 -21 -98 -99 0
-29 -90 -33 -98 -99 0
-40 -90 -44 -98 -99 0
-17 -8 -21 -98 -10 0
-29 -8 -33 -98 -10 0
-40 -8 -44 -98 -10 0
-29 -21 -33 -98 -23 0
-40 -21 -44 -98 -23 0
-40 -33 -44 -98 -35 0
-17 -8 -21 -99 -10 0
-29 -8 -33 -99 -10 0
-40 -8 -44 -99 -10 0
-29 -21 -33 -99 -23 0
-40 -21 -44 -99 -23 0
-40 -33 -44 -99 -35 0
-29 -21 -33 -10 -23 0
-40 -21 -44 -10 -23 0
-40 -33 -44 -10 -35 0
-40 -33 -44 -23 -35 0
-60 -89 -90 -100 -101 0
-4 -89 -8 -100 -101 0
-17 -89 -21 -100 -101 0
-29 -89 -33 -100 -101 0
-40 -89 -44 -100 -101 0
-4 -90 -8 -100 -102 0
-17 -90 -21 -100 -102 0
-29 -90 -33 -100 -102 0
-40 -90 -44 -100 -102 0
-17 -8 -21 -100 -11 0
-29 -8 -33 -100 -11 0
-40 -8 -44 -100 -11 0
-29 -21 -33 -100 -24 0
-40 -21 -44 -100 -24 0
-40 -33 -44 -100 -36 0
-4 -90 -8 -101 -102 0
-17 -90 -21 -101 -102 0
-29 -90 -33 -101 -102 0
-40 -90 -44 -101 -102 0
-17 -8 -21 -101 -11 0
-29 -8 -33 -101 -11 0
-40 -8 -44 -101 -11 0
-29 -21 -33 -101 -24 0
-40 -21 -44 -101 -24 0
-40 -33 -44 -101 -36 0
-17 -8 -21 -102 -11 0
-29 -8 -33 -102 -11 0
-40 -8 -44 -102 -11 0
-29 -21 -33 -102 -24 0
-40 -21 -44 -102 -24 0
-40 -33 -44 -102 -36 0
-29 -21 -33 -11 -24 0
-40 -21 -44 -11 -24 0
-40 -33 -44 -11 -36 0
-40 -33 -44 -24 -36 0
-4 -90 -8 -103 -104 0
-17 -90 -21 -103 -104 0
-29 -90 -33 -103 -104 0
-40 -90 -44 -103 -104 0
-17 -8 -21 -103 -12 0
-29 -8 -33 -103 -12 0
-40 -8 -44 -103 -12 0
-29 -21 -33 -103 -25 0
-40 -21 -44 -103 -25 0
-40 -33 -44 -103 -37 0
-17 -8 -21 -104 -12 0
-29 -8 -33 -104 -12 0
-40 -8 -44 -104 -12 0
-29 -21 -33 -104 -25 0
-40 -21 -44 -104 -25 0
-40 -33 -44 -104 -37 0
-29 -21 -33 -12 -25 0
-40 -21 -44 -12 -25 0
-40 -33 -44 -12 -37 0
-40 -33 -44 -25 -37 0
-17 -8 -21 -105 -13 0
-29 -8 -33 -105 -13 0
-40 -8 -44 -105 -13 0
-29 -21 -33 -105 -26 0
-40 -21 -44 -105 -26 0
-40 -33 -44 -105 -38 0
-29 -21 -33 -13 -26 0
-40 -21 -44 -13 -26 0
-40 -33 -44 -13 -38 0
-40 -33 -44 -26 -38 0
-29 -21 -33 -14 -27 0
-40 -21 -44 -14 -27 0
-40 -33 -44 -14 -39 0
-40 -33 -44 -27 -39 0
-40 -33 -44 -1 -2 0
-59 -93 -94 -96 -97 0
-60 -93 -95 -96 -97 0
-4 -93 -9 -96 -97 0
-17 -93 -22 -96 -97 0
-29 -93 -34 -96 -97 0
-40 -93 -45 -96 -97 0
-60 -94 -95 -96 -98 0
-4 -94 -9 -96 -98 0
-17 -94 -22 -96 -98 0
-29 -94 -34 -96 -98 0
-40 -94 -45 -96 -98 0
-4 -95 -9 -96 -99 0
-17 -95 -22 -96 -99 0
-29 -95 -34 -96 -99 0
-40 -95 -45 -96 -99 0
-17 -9 -22 -96 -10 0
-29 -9 -34 -96 -10 0
-40 -9 -45 -96 -10 0
-29 -22 -34 -96 -23 0
-40 -22 -45 -96 -23 0
-40 -34 -45 -96 -35 0
-60 -94 -95 -97 -98 0
-4 -94 -9 -97 -98 0
-17 -94 -22 -97 -98 0
-29 -94 -34 -97 -98 0
-40 -94 -45 -97 -98 0
-4 -95 -9 -97 -99 0
-17 -95 -22 -97 -99 0
-29 -95 -34 -97 -99 0
-40 -95 -45 -97 -99 0
-17 -9 -22 -97 -10 0
-29 -9 -34 -97 -10 0
-40 -9 -45 -97 -10 0
-29 -22 -34 -97 -23 0
-40 -22 -45 -97 -23 0
-40 -34 -45 -97 -35 0
-4 -95 -9 -98 -99 0
-17 -95 -22 -98 -99 0
-29 -95 -34 -98 -99 0
-40 -95 -45 -98 -99 0
-17 -9 -22 -98 -10 0
-29 -9 -34 -98 -10 0
-40 -9 -45 -98 -10 0
-29 -22 -34 -98 -23 0
-40 -22 -45 -98 -23 0
-40 -34 -45 -98 -35 0
-17 -9 -22 -99 -10 0
-29 -9 -34 -99 -10 0
-40 -9 -45 -99 -10 0
-29 -22 -34 -99 -23 0
-40 -22 -45 -99 -23 0
-40 -34 -45 -99 -35 0
-29 -22 -34 -10 -23 0
-40 -22 -45 -10 -23 0
-40 -34 -45 -10 -35 0
-40 -34 -45 -23 -35 0
-60 -94 -95 -100 -101 0
-4 -94 -9 -100 -101 0
-17 -94 -22 -100 -101 0
-29 -94 -34 -100 -101 0
-40 -94 -45 -100 -101 0
-4 -95 -9 -100 -102 0
-17 -95 -22 -100 -102 0
-29 -95 -34 -100 -102 0
-40 -95 -45 -100 -102 0
-17 -9 -22 -100 -11 0
-29 -9 -34 -100 -11 0
-40 -9 -45 -100 -11 0
-29 -22 -34 -100 -24 0
-40 -22 -45 -100 -24 0
-40 -34 -45 -100 -36 0
-4 -95 -9 -101 -102 0
-17 -95 -22 -101 -102 0
-29 -95 -34 -101 -102 0
-40 -95 -45 -101 -102 0
-17 -9 -22 -101 -11 0
-29 -9 -34 -101 -11 0
-40 -9 -45 -101 -11 0
-29 -22 -34 -101 -24 0
-40 -22 -45 -101 -24 0
-40 -34 -45 -101 -36 0
-17 -9 -22 -102 -11 0
-29 -9 -34 -102 -11 0
-40 -9 -45 -102 -11 0
-29 -22 -34 -102 -24 0
-40 -22 -45 -102 -24 0
-40 -34 -45 -102 -36 0
-29 -22 -34 -11 -24 0
-40 -22 -45 -11 -24 0
-40 -34 -45 -11 -36 0
-40 -34 -45 -24 -36 0
-4 -95 -9 -103 -104 0
-17 -95 -22 -103 -104 0
-29 -95 -34 -103 -104 0
-40 -95 -45 -103 -104 0
-17 -9 -22 -103 -12 0
-29 -9 -34 -103 -12 0
-40 -9 -45 -103 -12 0
-29 -22 -34 -103 -25 0
-40 -22 -45 -103 -25 0
-40 -34 -45 -103 -37 0
-17 -9 -22 -104 -12 0
-29 -9 -34 -104 -12 0
-40 -9 -45 -104 -12 0
-29 -22 -34 -104 -25 0
-40 -22 -45 -104 -25 0
-40 -34 -45 -104 -37 0
-29 -22 -34 -12 -25 0
-40 -22 -45 -12 -25 0
-40 -34 -45 -12 -37 0
-40 -34 -45 -25 -37 0
-17 -9 -22 -105 -13 0
-29 -9 -34 -105 -13 0
-40 -9 -45 -105 -13 0
-29 -22 -34 -105 -26 0
-40 -22 -45 -105 -26 0
-40 -34 -45 -105 -38 0
-29 -22 -34 -13 -26 0
-40 -22 -45 -13 -26 0
-40 -34 -45 -13 -38 0
-40 -34 -45 -26 -38 0
-29 -22 -34 -14 -27 0
-40 -22 -45 -14 -27 0
-40 -34 -45 -14 -39 0
-40 -34 -45 -27 -39 0
-40 -34 -45 -1 -2 0
-60 -98 -99 -100 -101 0
-4 -98 -10 -100 -101 0
-17 -98 -23 -100 -101 0
-29 -98 -35 -100 -101 0
-40 -98 -46 -100 -101 0
-4 -99 -10 -100 -102 0
-17 -99 -23 -100 -102 0
-29 -99 -35 -100 -102 0
-40 -99 -46 -100 -102 0
-17 -10 -23 -100 -11 0
-29 -10 -35 -100 -11 0
-40 -10 -46 -100 -11 0
-29 -23 -35 -100 -24 0
-40 -23 -46 -100 -24 0
-40 -35 -46 -100 -36 0
-4 -99 -10 -101 -102 0
-17 -99 -23 -101 -102 0
-29 -99 -35 -101 -102 0
-40 -99 -46 -101 -102 0
-17 -10 -23 -101 -11 0
-29 -10 -35 -101 -11 0
-40 -10 -46 -101 -11 0
-29 -23 -35 -101 -24 0
-40 -23 -46 -101 -24 0
-40 -35 -46 -101 -36 0
-17 -10 -23 -102 -11 0
-29 -10 -35 -102 -11 0
-40 -10 -46 -102 -11 0
-29 -23 -35 -102 -24 0
-40 -23 -46 -102 -24 0
-40 -35 -46 -102 -36 0
-29 -23 -35 -11 -24 0
-40 -23 -46 -11 -24 0
-40 -35 -46 -11 -36 0
-40 -35 -46 -24 -36 0
-4 -99 -10 -103 -104 0
-17 -99 -23 -103 -104 0
-29 -99 -35 -103 -104 0
-40 -99 -46 -103 -104 0
-17 -10 -23 -103 -12 0
-29 -10 -35 -103 -12 0
-40 -10 -46 -103 -12 0
-29 -23 -35 -103 -25 0
-40 -23 -46 -103 -25 0
-40 -35 -46 -103 -37 0
-17 -10 -23 -104 -12 0
-29 -10 -35 -104 -12 0
-40 -10 -46 -104 -12 0
-29 -23 -35 -104 -25 0
-40 -23 -46 -104 -25 0
-40 -35 -46 -104 -37 0
-29 -23 -35 -12 -25 0
-40 -23 -46 -12 -25 0
-40 -35 -46 -12 -37 0
-40 -35 -46 -25 -37 0
-17 -10 -23 -105 -13 0
-29 -10 -35 -105 -13 0
-40 -10 -46 -105 -13 0
-29 -23 -35 -105 -26 0
-40 -23 -46 -105 -26 0
-40 -35 -46 -105 -38 0
-29 -23 -35 -13 -26 0
-40 -23 -46 -13 -26 0
-40 -35 -46 -13 -38 0
-40 -35 -46 -26 -38 0
-29 -23 -35 -14 -27 0
-40 -23 -46 -14 -27 0
-40 -35 -46 -14 -39 0
-40 -35 -46 -27 -39 0
-40 -35 -46 -1 -2 0
-4 -102 -11 -103 -104 0
-17 -102 -24 -103 -104 0
-29 -102 -36 -103 -104 0
-40 -102 -47 -103 -104 0
-17 -11 -24 -103 -12 0
-29 -11 -36 -103 -12 0
-40 -11 -47 -103 -12 0
-29 -24 -36 -103 -25 0
-40 -24 -47 -103 -25 0
-40 -36 -47 -103 -37 0
-17 -11 -24 -104 -12 0
-29 -11 -36 -104 -12 0
-40 -11 -47 -104 -12 0
-29 -24 -36 -104 -25 0
-40 -24 -47 -104 -25 0
-40 -36 -47 -104 -37 0
-29 -24 -36 -12 -25 0
-40 -24 -47 -12 -25 0
-40 -36 -47 -12 -37 0
-40 -36 -47 -25 -37 0
-17 -11 -24 -105 -13 0
-29 -11 -36 -105 -13 0
-40 -11 -47 -105 -13 0
-29 -24 -36 -105 -26 0
-40 -24 -47 -105 -26 0
-40 -36 -47 -105 -38 0
-29 -24 -36 -13 -26 0
-40 -24 -47 -13 -26 0
-40 -36 -47 -13 -38 0
-40 -36 -47 -26 -38 0
-29 -24 -36 -14 -27 0
-40 -24 -47 -14 -27 0
-40 -36 -47 -14 -39 0
-40 -36 -47 -27 -39 0
-40 -36 -47 -1 -2 0
-17 -12 -25 -105 -13 0
-29 -12 -37 -105 -13 0
-40 -12 -48 -105 -13 0
-29 -25 -37 -105 -26 0
-40 -25 -48 -105 -26 0
-40 -37 -48 -105 -38 0
-29 -25 -37 -13 -26 0
-40 -25 -48 -13 -26 0
-40 -37 -48 -13 -38 0
-40 -37 -48 -26 -38 0
-29 -25 -37 -14 -27 0
-40 -25 -48 -14 -27 0
-40 -37 -48 -14 -39 0
-40 -37 -48 -27 -39 0
-40 -37 -48 -1 -2 0
-29 -26 -38 -14 -27 0
-40 -26 -49 -14 -27 0
-40 -38 -49 -14 -39 0
-40 -38 -49 -27 -39 0
-40 -38 -49 -1 -2 0
-40 -39 -50 -1 -2 0
-65 -72 -73 -78 -79 0
-66 -72 -74 -78 -79 0
-67 -72 -75 -78 -79 0
-68 -72 -76 -78 -79 0
-69 -72 -77 -78 -79 0
-5 -72 -6 -78 -79 0
-18 -72 -19 -78 -79 0
-30 -72 -31 -78 -79 0
-41 -72 -42 -78 -79 0
-51 -72 -52 -78 -79 0
-66 -73 -74 -78 -80 0
-67 -73 -75 -78 -80 0
-68 -73 -76 -78 -80 0
-69 -73 -77 -78 -80 0
-5 -73 -6 -78 -80 0
-18 -73 -19 -78 -80 0
-30 -73 -31 -78 -80 0
-41 -73 -42 -78 -80 0
-51 -73 -52 -78 -80 0
-67 -74 -75 -78 -81 0
-68 -74 -76 -78 -81 0
-69 -74 -77 -78 -81 0
-5 -74 -6 -78 -81 0
-18 -74 -19 -78 -81 0
-30 -74 -31 -78 -81 0
-41 -74 -42 -78 -81 0
-51 -74 -52 -78 -81 0
-68 -75 -76 -78 -82 0
-69 -75 -77 -78 -82 0
-5 -75 -6 -78 -82 0
-18 -75 -19 -78 -82 0
-30 -75 -31 -78 -82 0
-41 -75 -42 -78 -82 0
-51 -75 -52 -78 -82 0
-69 -76 -77 -78 -83 0
-5 -76 -6 -78 -83 0
-18 -76 -19 -78 -83 0
-30 -76 -31 -78 -83 0
-41 -76 -42 -78 -83 0
-51 -76 -52 -78 -83 0
-5 -77 -6 -78 -84 0
-18 -77 -19 -78 -84 0
-30 -77 -31 -78 -84 0
-41 -77 -42 -78 -84 0
-51 -77 -52 -78 -84 0
-18 -6 -19 -78 -7 0
-30 -6 -31 -78 -7 0
-41 -6 -42 -78 -7 0
-51 -6 -52 -78 -7 0
-30 -19 -31 -78 -20 0
-41 -19 -42 -78 -20 0
-51 -19 -52 -78 -20 0
-41 -31 -42 -78 -32 0
-51 -31 -52 -78 -32 0
-51 -42 -52 -78 -43 0
-66 -73 -74 -79 -80 0
-67 -73 -75 -79 -80 0
-68 -73 -76 -79 -80 0
-69 -73 -77 -79 -80 0
-5 -73 -6 -79 -80 0
-18 -73 -19 -79 -80 0
-30 -73 -31 -79 -80 0
-41 -73 -42 -79 -80 0
-51 -73 -52 -79 -80 0
-67 -74 -75 -79 -81 0
-68 -74 -76 -79 -81 0
-69 -74 -77 -79 -81 0
-5 -74 -6 -79 -81 0
-18 -74 -19 -79 -81 0
-30 -74 -31 -79 -81 0
-41 -74 -42 -79 -81 0
-51 -74 -52 -79 -81 0
-68 -75 -76 -79 -82 0
-69 -75 -77 -79 -82 0
-5 -75 -6 -79 -82 0
-18 -75 -19 -79 -82 0
-30 -75 -31 -79 -82 0
-41 -75 -42 -79 -82 0
-51 -75 -52 -79 -82 0
-69 -76 -77 -79 -83 0
-5 -76 -6 -79 -83 0
-18 -76 -19 -79 -83 0
-30 -76 -31 -79 -83 0
-41 -76 -42 -79 -83 0
-51 -76 -52 -79 -83 0
-5 -77 -6 -79 -84 0
-18 -77 -19 -79 -84 0
-30 -77 -31 -79 -84 0
-41 -77 -42 -79 -84 0
-51 -77 -52 -79 -84 0
-18 -6 -19 -79 -7 0
-30 -6 -31 -79 -7 0
-41 -6 -42 -79 -7 0
-51 -6 -52 -79 -7 0
-30 -19 -31 -79 -20 0
-41 -19 -42 -79 -20 0
-51 -19 -52 -79 -20 0
-41 -31 -42 -79 -32 0
-51 -31 -52 -79 -32 0
-51 -42 -52 -79 -43 0
-67 -74 -75 -80 -81 0
-68 -74 -76 -80 -81 0
-69 -74 -77 -80 -81 0
-5 -74 -6 -80 -81 0
-18 -74 -19 -80 -81 0
-30 -74 -31 -80 -81 0
-41 -74 -42 -80 -81 0
-51 -74 -52 -80 -81 0
-68 -75 -76 -80 -82 0
-69 -75 -77 -80 -82 0
-5 -75 -6 -80 -82 0
-18 -75 -19 -80 -82 0
-30 -75 -31 -80 -82 0
-41 -75 -42 -80 -82 0
-51 -75 -52 -80 -82 0
-69 -76 -77 -80 -83 0
-5 -76 -6 -80 -83 0
-18 -76 -19 -80 -83 0
-30 -76 -31 -80 -83 0
-41 -76 -42 -80 -83 0
-51 -76 -52 -80 -83 0
-5 -77 -6 -80 -84 0
-18 -77 -19 -80 -84 0
-30 -77 -31 -80 -84 0
-41 -77 -42 -80 -84 0
-51 -77 -52 -80 -84 0
-18 -6 -19 -80 -7 0
-30 -6 -31 -80 -7 0
-41 -6 -42 -80 -7 0
-51 -6 -52 -80 -7 0
-30 -19 -31 -80 -20 0
-41 -19 -42 -80 -20 0
-51 -19 -52 -80 -20 0
-41 -31 -42 -80 -32 0
-51 -31 -52 -80 -32 0
-51 -42 -52 -80 -43 0
-68 -75 -76 -81 -82 0
-69 -75 -77 -81 -82 0
-5 -75 -6 -81 -82 0
-18 -75 -19 -81 -82 0
-30 -75 -31 -81 -82 0
-41 -75 -42 -81 -82 0
-51 -75 -52 -81 -82 0
-69 -76 -77 -81 -83 0
-5 -76 -6 -81 -83 0
-18 -76 -19 -81 -83 0
-30 -76 -31 -81 -83 0
-41 -76 -42 -81 -83 0
-51 -76 -52 -81 -83 0
-5 -77 -6 -81 -84 0
-18 -77 -19 -81 -84 0
-30 -77 -31 -81 -84 0
-41 -77 -42 -81 -84 0
-51 -77 -52 -81 -84 0
-18 -6 -19 -81 -7 0
-30 -6 -31 -81 -7 0
-41 -6 -42 -81 -7 0
-51 -6 -52 -81 -7 0
-30 -19 -31 -81 -20 0
-41 -19 -42 -81 -20 0
-51 -19 -52 -81 -20 0
-41 -31 -42 -81 -32 0
-51 -31 -52 -81 -32 0
-51 -42 -52 -81 -43 0
-69 -76 -77 -82 -83 0
-5 -76 -6 -82 -83 0
-18 -76 -19 -82 -83 0
-30 -76 -31 -82 -83 0
-41 -76 -42 -82 -83 0
-51 -76 -52 -82 -83 0
-5 -77 -6 -82 -84 0
-18 -77 -19 -82 -84 0
-30 -77 -31 -82 -84 0
-41 -77 -42 -82 -84 0
-51 -77 -52 -82 -84 0
-18 -6 -19 -82 -7 0
-30 -6 -31 -82 -7 0
-41 -6 -42 -82 -7 0
-51 -6 -52 -82 -7 0
-30 -19 -31 -82 -20 0
-41 -19 -42 -82 -20 0
-51 -19 -52 -82 -20 0
-41 -31 -42 -82 -32 0
-51 -31 -52 -82 -32 0
-51 -42 -52 -82 -43 0
-5 -77 -6 -83 -84 0
-18 -77 -19 -83 -84 0
-30 -77 -31 -83 -84 0
-41 -77 -42 -83 -84 0
-51 -77 -52 -83 -84 0
-18 -6 -19 -83 -7 0
-30 -6 -31 -83 -7 0
-41 -6 -42 -83 -7 0
-51 -6 -52 -83 -7 0
-30 -19 -31 -83 -20 0
-41 -19 -42 -83 -20 0
-51 -19 -52 -83 -20 0
-41 -31 -42 -83 -32 0
-51 -31 -52 -83 -32 0
-51 -42 -52 -83 -43 0
-18 -6 -19 -84 -7 0
-30 -6 -31 -84 -7 0
-41 -6 -42 -84 -7 0
-51 -6 -52 -84 -7 0
-30 -19 -31 -84 -20 0
-41 -19 -42 -84 -20 0
-51 -19 -52 -84 -20 0
-41 -31 -42 -84 -32 0
-51 -31 -52 -84 -32 0
-51 -42 -52 -84 -43 0
-30 -19 -31 -7 -20 0
-41 -19 -42 -7 -20 0
-51 -19 -52 -7 -20 0
-41 -31 -42 -7 -32 0
-51 -31 -52 -7 -32 0
-51 -42 -52 -7 -43 0
-41 -31 -42 -20 -32 0
-51 -31 -52 -20 -32 0
-51 -42 -52 -20 -43 0
-51 -42 -52 -32 -43 0
-66 -73 -74 -85 -86 0
-67 -73 -75 -85 -86 0
-68 -73 -76 -85 -86 0
-69 -73 -77 -85 -86 0
-5 -73 -6 -85 -86 0
-18 -73 -19 -85 -86 0
-30 -73 -31 -85 -86 0
-41 -73 -42 -85 -86 0
-51 -73 -52 -85 -86 0
-67 -74 -75 -85 -87 0
-68 -74 -76 -85 -87 0
-69 -74 -77 -85 -87 0
-5 -74 -6 -85 -87 0
-18 -74 -19 -85 -87 0
-30 -74 -31 -85 -87 0
-41 -74 -42 -85 -87 0
-51 -74 -52 -85 -87 0
-68 -75 -76 -85 -88 0
-69 -75 -77 -85 -88 0
-5 -75 -6 -85 -88 0
-18 -75 -19 -85 -88 0
-30 -75 -31 -85 -88 0
-41 -75 -42 -85 -88 0
-51 -75 -52 -85 -88 0
-69 -76 -77 -85 -89 0
-5 -76 -6 -85 -89 0
-18 -76 -19 -85 -89 0
-30 -76 -31 -85 -89 0
-41 -76 -42 -85 -89 0
-51 -76 -52 -85 -89 0
-5 -77 -6 -85 -90 0
-18 -77 -19 -85 -90 0
-30 -77 -31 -85 -90 0
-41 -77 -42 -85 -90 0
-51 -77 -52 -85 -90 0
-18 -6 -19 -85 -8 0
-30 -6 -31 -85 -8 0
-41 -6 -42 -85 -8 0
-51 -6 -52 -85 -8 0
-30 -19 -31 -85 -21 0
-41 -19 -42 -85 -21 0
-51 -19 -52 -85 -21 0
-41 -31 -42 -85 -33 0
-51 -31 -52 -85 -33 0
-51 -42 -52 -85 -44 0
-67 -74 -75 -86 -87 0
-68 -74 -76 -86 -87 0
-69 -74 -77 -86 -87 0
-5 -74 -6 -86 -87 0
-18 -74 -19 -86 -87 0
-30 -74 -31 -86 -87 0
-41 -74 -42 -86 -87 0
-51 -74 -52 -86 -87 0
-68 -75 -76 -86 -88 0
-69 -75 -77 -86 -88 0
-5 -75 -6 -86 -88 0
-18 -75 -19 -86 -88 0
-30 -75 -31 -86 -88 0
-41 -75 -42 -86 -88 0
-51 -75 -52 -86 -88 0
-69 -76 -77 -86 -89 0
-5 -76 -6 -86 -89 0
-18 -76 -19 -86 -89 0
-30 -76 -31 -86 -89 0
-41 -76 -42 -86 -89 0
-51 -76 -52 -86 -89 0
-5 -77 -6 -86 -90 0
-18 -77 -19 -86 -90 0
-30 -77 -31 -86 -90 0
-41 -77 -42 -86 -90 0
-51 -77 -52 -86 -90 0
-18 -6 -19 -86 -8 0
-30 -6 -31 -86 -8 0
-41 -6 -42 -86 -8 0
-51 -6 -52 -86 -8 0
-30 -19 -31 -86 -21 0
-41 -19 -42 -86 -21 0
-51 -19 -52 -86 -21 0
-41 -31 -42 -86 -33 0
-51 -31 -52 -86 -33 0
-51 -42 -52 -86 -44 0
-68 -75 -76 -87 -88 0
-69 -75 -77 -87 -88 0
-5 -75 -6 -87 -88 0
-18 -75 -19 -87 -88 0
-30 -75 -31 -87 -88 0
-41 -75 -42 -87 -88 0
-51 -75 -52 -87 -88 0
-69 -76 -77 -87 -89 0
-5 -76 -6 -87 -89 0
-18 -76 -19 -87 -89 0
-30 -76 -31 -87 -89 0
-41 -76 -42 -87 -89 0
-51 -76 -52 -87 -89 0
-5 -77 -6 -87 -90 0
-18 -77 -19 -87 -90 0
-30 -77 -31 -87 -90 0
-41 -77 -42 -87 -90 0
-51 -77 -52 -87 -90 0
-18 -6 -19 -87 -8 0
-30 -6 -31 -87 -8 0
-41 -6 -42 -87 -8 0
-51 -6 -52 -87 -8 0
-30 -19 -31 -87 -21 0
-41 -19 -42 -87 -21 0
-51 -19 -52 -87 -21 0
-41 -31 -42 -87 -33 0
-51 -31 -52 -87 -33 0
-51 -42 -52 -87 -44 0
-69 -76 -77 -88 -89 0
-5 -76 -6 -88 -89 0
-18 -76 -19 -88 -89 0
-30 -76 -31 -88 -89 0
-41 -76 -42 -88 -89 0
-51 -76 -52 -88 -89 0
-5 -77 -6 -88 -90 0
-18 -77 -19 -88 -90 0
-30 -77 -31 -88 -90 0
-41 -77 -42 -88 -90 0
-51 -77 -52 -88 -90 0
-18 -6 -19 -88 -8 0
-30 -6 -31 -88 -8 0
-41 -6 -42 -88 -8 0
-51 -6 -52 -88 -8 0
-30 -19 -31 -88 -21 0
-41 -19 -42 -88 -21 0
-51 -19 -52 -88 -21 0
-41 -31 -42 -88 -33 0
-51 -31 -52 -88 -33 0
-51 -42 -52 -88 -44 0
-5 -77 -6 -89 -90 0
-18 -77 -19 -89 -90 0
-30 -77 -31 -89 -90 0
-41 -77 -42 -89 -90 0
-51 -77 -52 -89 -90 0
-18 -6 -19 -89 -8 0
-30 -6 -31 -89 -8 0
-41 -6 -42 -89 -8 0
-51 -6 -52 -89 -8 0
-30 -19 -31 -89 -21 0
-41 -19 -42 -89 -21 0
-51 -19 -52 -89 -21 0
-41 -31 -42 -89 -33 0
-51 -31 -52 -89 -33 0
-51 -42 -52 -89 -44 0
-18 -6 -19 -90 -8 0
-30 -6 -31 -90 -8 0
-41 -6 -42 -90 -8 0
-51 -6 -52 -90 -8 0
-30 -19 -31 -90 -21 0
-41 -19 -42 -90 -21 0
-51 -19 -52 -90 -21 0
-41 -31 -42 -90 -33 0
-51 -31 -52 -90 -33 0
-51 -42 -52 -90 -44 0
-30 -19 -31 -8 -21 0
-41 -19 -42 -8 -21 0
-51 -19 -52 -8 -21 0
-41 -31 -42 -8 -33 0
-51 -31 -52 -8 -33 0
-51 -42 -52 -8 -44 0
-41 -31 -42 -21 -33 0
-51 -31 -52 -21 -33 0
-51 -42 -52 -21 -44 0
-51 -42 -52 -33 -44 0
-67 -74 -75 -91 -92 0
-68 -74 -76 -91 -92 0
-69 -74 -77 -91 -92 0
-5 -74 -6 -91 -92 0
-18 -74 -19 -91 -92 0
-30 -74 -31 -91 -92 0
-41 -74 -42 -91 -92 0
-51 -74 -52 -91 -92 0
-68 -75 -76 -91 -93 0
-69 -75 -77 -91 -93 0
-5 -75 -6 -91 -93 0
-18 -75 -19 -91 -93 0
-30 -75 -31 -91 -93 0
-41 -75 -42 -91 -93 0
-51 -75 -52 -91 -93 0
-69 -76 -77 -91 -94 0
-5 -76 -6 -91 -94 0
-18 -76 -19 -91 -94 0
-30 -76 -31 -91 -94 0
-41 -76 -42 -91 -94 0
-51 -76 -52 -91 -94 0
-5 -77 -6 -91 -95 0
-18 -77 -19 -91 -95 0
-30 -77 -31 -91 -95 0
-41 -77 -42 -91 -95 0
-51 -77 -52 -91 -95 0
-18 -6 -19 -91 -9 0
-30 -6 -31 -91 -9 0
-41 -6 -42 -91 -9 0
-51 -6 -52 -91 -9 0
-30 -19 -31 -91 -22 0
-41 -19 -42 -91 -22 0
-51 -19 -52 -91 -22 0
-41 -31 -42 -91 -34 0
-51 -31 -52 -91 -34 0
-51 -42 -52 -91 -45 0
-68 -75 -76 -92 -93 0
-69 -75 -77 -92 -93 0
-5 -75 -6 -92 -93 0
-18 -75 -19 -92 -93 0
-30 -75 -31 -92 -93 0
-41 -75 -42 -92 -93 0
-51 -75 -52 -92 -93 0
-69 -76 -77 -92 -94 0
-5 -76 -6 -92 -94 0
-18 -76 -19 -92 -94 0
-30 -76 -31 -92 -94 0
-41 -76 -42 -92 -94 0
-51 -76 -52 -92 -94 0
-5 -77 -6 -92 -95 0
-18 -77 -19 -92 -95 0
-30 -77 -31 -92 -95 0
-41 -77 -42 -92 -95 0
-51 -77 -52 -92 -95 0
-18 -6 -19 -92 -9 0
-30 -6 -31 -92 -9 0
-41 -6 -42 -92 -9 0
-51 -6 -52 -92 -9 0
-30 -19 -31 -92 -22 0
-41 -19 -42 -92 -22 0
-51 -19 -52 -92 -22 0
-41 -31 -42 -92 -34 0
-51 -31 -52 -92 -34 0
-51 -42 -52 -92 -45 0
-69 -76 -77 -93 -94 0
-5 -76 -6 -93 -94 0
-18 -76 -19 -93 -94 0
-30 -76 -31 -93 -94 0
-41 -76 -42 -93 -94 0
-51 -76 -52 -93 -94 0
-5 -77 -6 -93 -95 0
-18 -77 -19 -93 -95 0
-30 -77 -31 -93 -95 0
-41 -77 -42 -93 -95 0
-51 -77 -52 -93 -95 0
-18 -6 -19 -93 -9 0
-30 -6 -31 -93 -9 0
-41 -6 -42 -93 -9 0
-51 -6 -52 -93 -9 0
-30 -19 -31 -93 -22 0
-41 -19 -42 -93 -22 0
-51 -19 -52 -93 -22 0
-41 -31 -42 -93 -34 0
-51 -31 -52 -93 -34 0
-51 -42 -52 -93 -45 0
-5 -77 -6 -94 -95 0
-18 -77 -19 -94 -95 0
-30 -77 -31 -94 -95 0
-41 -77 -42 -94 -95 0
-51 -77 -52 -94 -95 0
-18 -6 -19 -94 -9 0
-30 -6 -31 -94 -9 0
-41 -6 -42 -94 -9 0
-51 -6 -52 -94 -9 0
-30 -19 -31 -94 -22 0
-41 -19 -42 -94 -22 0
-51 -19 -52 -94 -22 0
-41 -31 -42 -94 -34 0
-51 -31 -52 -94 -34 0
-51 -42 -52 -94 -45 0
-18 -6 -19 -95 -9 0
-30 -6 -31 -95 -9 0
-41 -6 -42 -95 -9 0
-51 -6 -52 -95 -9 0
-30 -19 -31 -95 -22 0
-41 -19 -42 -95 -22 0
-51 -19 -52 -95 -22 0
-41 -31 -42 -95 -34 0
-51 -31 -52 -95 -34 0
-51 -42 -52 -95 -45 0
-30 -19 -31 -9 -22 0
-41 -19 -42 -9 -22 0
-51 -19 -52 -9 -22 0
-41 -31 -42 -9 -34 0
-51 -31 -52 -9 -34 0
-51 -42 -52 -9 -45 0
-41 -31 -42 -22 -34 0
-51 -31 -52 -22 -34 0
-51 -42 -52 -22 -45 0
-51 -42 -52 -34 -45 0
-68 -75 -76 -96 -97 0
-69 -75 -77 -96 -97 0
-5 -75 -6 -96 -97 0
-18 -75 -19 -96 -97 0
-30 -75 -31 -96 -97 0
-41 -75 -42 -96 -97 0
-51 -75 -52 -96 -97 0
-69 -76 -77 -96 -98 0
-5 -76 -6 -96 -98 0
-18 -76 -19 -96 -98 0
-30 -76 -31 -96 -98 0
-41 -76 -42 -96 -98 0
-51 -76 -52 -96 -98 0
-5 -77 -6 -96 -99 0
-18 -77 -19 -96 -99 0
-30 -77 -31 -96 -99 0
-41 -77 -42 -96 -99 0
-51 -77 -52 -96 -99 0
-18 -6 -19 -96 -10 0
-30 -6 -31 -96 -10 0
-41 -6 -42 -96 -10 0
-51 -6 -52 -96 -10 0
-30 -19 -31 -96 -23 0
-41 -19 -42 -96 -23 0
-51 -19 -52 -96 -23 0
-41 -31 -42 -96 -35 0
-51 -31 -52 -96 -35 0
-51 -42 -52 -96 -46 0
-69 -76 -77 -97 -98 0
-5 -76 -6 -97 -98 0
-18 -76 -19 -97 -98 0
-30 -76 -31 -97 -98 0
-41 -76 -42 -97 -98 0
-51 -76 -52 -97 -98 0
-5 -77 -6 -97 -99 0
-18 -77 -19 -97 -99 0
-30 -77 -31 -97 -99 0
-41 -77 -42 -97 -99 0
-51 -77 -52 -97 -99 0
-18 -6 -19 -97 -10 0
-30 -6 -31 -97 -10 0
-41 -6 -42 -97 -10 0
-51 -6 -52 -97 -10 0
-30 -19 -31 -97 -23 0
-41 -19 -42 -97 -23 0
-51 -19 -52 -97 -23 0
-41 -31 -42 -97 -35 0
-51 -31 -52 -97 -35 0
-51 -42 -52 -97 -46 0
-5 -77 -6 -98 -99 0
-18 -77 -19 -98 -99 0
-30 -77 -31 -98 -99 0
-41 -77 -42 -98 -99 0
-51 -77 -52 -98 -99 0
-18 -6 -19 -98 -10 0
-30 -6 -31 -98 -10 0
-41 -6 -42 -98 -10 0
-51 -6 -52 -98 -10 0
-30 -19 -31 -98 -23 0
-41 -19 -42 -98 -23 0
-51 -19 -52 -98 -23 0
-41 -31 -42 -98 -35 0
-51 -31 -52 -98 -35 0
-51 -42 -52 -98 -46 0
-18 -6 -19 -99 -10 0
-30 -6 -31 -99 -10 0
-41 -6 -42 -99 -10 0
-51 -6 -52 -99 -10 0
-30 -19 -31 -99 -23 0
-41 -19 -42 -99 -23 0
-51 -19 -52 -99 -23 0
-41 -31 -42 -99 -35 0
-51 -31 -52 -99 -35 0
-51 -42 -52 -99 -46 0
-30 -19 -31 -10 -23 0
-41 -19 -42 -10 -23 0
-51 -19 -52 -10 -23 0
-41 -31 -42 -10 -35 0
-51 -31 -52 -10 -35 0
-51 -42 -52 -10 -46 0
-41 -31 -42 -23 -35 0
-51 -31 -52 -23 -35 0
-51 -42 -52 -23 -46 0
-51 -42 -52 -35 -46 0
-69 -76 -77 -100 -101 0
-5 -76 -6 -100 -101 0
-18 -76 -19 -100 -101 0
-30 -76 -31 -100 -101 0
-41 -76 -42 -100 -101 0
-51 -76 -52 -100 -101 0
-5 -77 -6 -100 -102 0
-18 -77 -19 -100 -102 0
-30 -77 -31 -100 -102 0
-41 -77 -42 -100 -102 0
-51 -77 -52 -100 -102 0
-18 -6 -19 -100 -11 0
-30 -6 -31 -100 -11 0
-41 -6 -42 -100 -11 0
-51 -6 -52 -100 -11 0
-30 -19 -31 -100 -24 0
-41 -19 -42 -100 -24 0
-51 -19 -52 -100 -24 0
-41 -31 -42 -100 -36 0
-51 -31 -52 -100 -36 0
-51 -42 -52 -100 -47 0
-5 -77 -6 -101 -102 0
-18 -77 -19 -101 -102 0
-30 -77 -31 -101 -102 0
-41 -77 -42 -101 -102 0
-51 -77 -52 -101 -102 0
-18 -6 -19 -101 -11 0
-30 -6 -31 -101 -11 0
-41 -6 -42 -101 -11 0
-51 -6 -52 -101 -11 0
-30 -19 -31 -101 -24 0
-41 -19 -42 -101 -24 0
-51 -19 -52 -101 -24 0
-41 -31 -42 -101 -36 0
-51 -31 -52 -101 -36 0
-51 -42 -52 -101 -47 0
-18 -6 -19 -102 -11 0
-30 -6 -31 -102 -11 0
-41 -6 -42 -102 -11 0
-51 -6 -52 -102 -11 0
-30 -19 -31 -102 -24 0
-41 -19 -42 -102 -24 0
-51 -19 -52 -102 -24 0
-41 -31 -42 -102 -36 0
-51 -31 -52 -102 -36 0
-51 -42 -52 -102 -47 0
-30 -19 -31 -11 -24 0
-41 -19 -42 -11 -24 0
-51 -19 -52 -11 -24 0
-41 -31 -42 -11 -36 0
-51 -31 -52 -11 -36 0
-51 -42 -52 -11 -47 0
-41 -31 -42 -24 -36 0
-51 -31 -52 -24 -36 0
-51 -42 -52 -24 -47 0
-51 -42 -52 -36 -47 0
-5 -77 -6 -103 -104 0
-18 -77 -19 -103 -104 0
-30 -77 -31 -103 -104 0
-41 -77 -42 -103 -104 0
-51 -77 -52 -103 -104 0
-18 -6 -19 -103 -12 0
-30 -6 -31 -103 -12 0
-41 -6 -42 -103 -12 0
-51 -6 -52 -103 -12 0
-30 -19 -31 -103 -25 0
-41 -19 -42 -103 -25 0
-51 -19 -52 -103 -25 0
-41 -31 -42 -103 -37 0
-51 -31 -52 -103 -37 0
-51 -42 -52 -103 -48 0
-18 -6 -19 -104 -12 0
-30 -6 -31 -104 -12 0
-41 -6 -42 -104 -12 0
-51 -6 -52 -104 -12 0
-30 -19 -31 -104 -25 0
-41 -19 -42 -104 -25 0
-51 -19 -52 -104 -25 0
-41 -31 -42 -104 -37 0
-51 -31 -52 -104 -37 0
-51 -42 -52 -104 -48 0
-30 -19 -31 -12 -25 0
-41 -19 -42 -12 -25 0
-51 -19 -52 -12 -25 0
-41 -31 -42 -12 -37 0
-51 -31 -52 -12 -37 0
-51 -42 -52 -12 -48 0
-41 -31 -42 -25 -37 0
-51 -31 -52 -25 -37 0
-51 -42 -52 -25 -48 0
-51 -42 -52 -37 -48 0
-18 -6 -19 -105 -13 0
-30 -6 -31 -105 -13 0
-41 -6 -42 -105 -13 0
-51 -6 -52 -105 -13 0
-30 -19 -31 -105 -26 0
-41 -19 -42 -105 -26 0
-51 -19 -52 -105 -26 0
-41 -31 -42 -105 -38 0
-51 -31 -52 -105 -38 0
-51 -42 -52 -105 -49 0
-30 -19 -31 -13 -26 0
-41 -19 -42 -13 -26 0
-51 -19 -52 -13 -26 0
-41 -31 -42 -13 -38 0
-51 -31 -52 -13 -38 0
-51 -42 -52 -13 -49 0
-41 -31 -42 -26 -38 0
-51 -31 -52 -26 -38 0
-51 -42 -52 -26 -49 0
-51 -42 -52 -38 -49 0
-30 -19 -31 -14 -27 0
-41 -19 -42 -14 -27 0
-51 -19 -52 -14 -27 0
-41 -31 -42 -14 -39 0
-51 -31 -52 -14 -39 0
-51 -42 -52 -14 -50 0
-41 -31 -42 -27 -39 0
-51 -31 -52 -27 -39 0
-51 -42 -52 -27 -50 0
-51 -42 -52 -39 -50 0
-41 -31 -42 -1 -2 0
-51 -31 -52 -1 -2 0
-51 -42 -52 -1 -3 0
-51 -42 -52 -2 -3 0
-51 -42 -52 -15 -16 0
-66 -80 -81 -85 -86 0
-67 -80 -82 -85 -86 0
-68 -80 -83 -85 -86 0
-69 -80 -84 -85 -86 0
-5 -80 -7 -85 -86 0
-18 -80 -20 -85 -86 0
-30 -80 -32 -85 -86 0
-41 -80 -43 -85 -86 0
-51 -80 -53 -85 -86 0
-67 -81 -82 -85 -87 0
-68 -81 -83 -85 -87 0
-69 -81 -84 -85 -87 0
-5 -81 -7 -85 -87 0
-18 -81 -20 -85 -87 0
-30 -81 -32 -85 -87 0
-41 -81 -43 -85 -87 0
-51 -81 -53 -85 -87 0
-68 -82 -83 -85 -88 0
-69 -82 -84 -85 -88 0
-5 -82 -7 -85 -88 0
-18 -82 -20 -85 -88 0
-30 -82 -32 -85 -88 0
-41 -82 -43 -85 -88 0
-51 -82 -53 -85 -88 0
-69 -83 -84 -85 -89 0
-5 -83 -7 -85 -89 0
-18 -83 -20 -85 -89 0
-30 -83 -32 -85 -89 0
-41 -83 -43 -85 -89 0
-51 -83 -53 -85 -89 0
-5 -84 -7 -85 -90 0
-18 -84 -20 -85 -90 0
-30 -84 -32 -85 -90 0
-41 -84 -43 -85 -90 0
-51 -84 -53 -85 -90 0
-18 -7 -20 -85 -8 0
-30 -7 -32 -85 -8 0
-41 -7 -43 -85 -8 0
-51 -7 -53 -85 -8 0
-30 -20 -32 -85 -21 0
-41 -20 -43 -85 -21 0
-51 -20 -53 -85 -21 0
-41 -32 -43 -85 -33 0
-51 -32 -53 -85 -33 0
-51 -43 -53 -85 -44 0
-67 -81 -82 -86 -87 0
-68 -81 -83 -86 -87 0
-69 -81 -84 -86 -87 0
-5 -81 -7 -86 -87 0
-18 -81 -20 -86 -87 0
-30 -81 -32 -86 -87 0
-41 -81 -43 -86 -87 0
-51 -81 -53 -86 -87 0
-68 -82 -83 -86 -88 0
-69 -82 -84 -86 -88 0
-5 -82 -7 -86 -88 0
-18 -82 -20 -86 -88 0
-30 -82 -32 -86 -88 0
-41 -82 -43 -86 -88 0
-51 -82 -53 -86 -88 0
-69 -83 -84 -86 -89 0
-5 -83 -7 -86 -89 0
-18 -83 -20 -86 -89 0
-30 -83 -32 -86 -89 0
-41 -83 -43 -86 -89 0
-51 -83 -53 -86 -89 0
-5 -84 -7 -86 -90 0
-18 -84 -20 -86 -90 0
-30 -84 -32 -86 -90 0
-41 -84 -43 -86 -90 0
-51 -84 -53 -86 -90 0
-18 -7 -20 -86 -8 0
-30 -7 -32 -86 -8 0
-41 -7 -43 -86 -8 0
-51 -7 -53 -86 -8 0
-30 -20 -32 -86 -21 0
-41 -20 -43 -86 -21 0
-51 -20 -53 -86 -21 0
-41 -32 -43 -86 -33 0
-51 -32 -53 -86 -33 0
-51 -43 -53 -86 -44 0
-68 -82 -83 -87 -88 0
-69 -82 -84 -87 -88 0
-5 -82 -7 -87 -88 0
-18 -82 -20 -87 -88 0
-30 -82 -32 -87 -88 0
-41 -82 -43 -87 -88 0
-51 -82 -53 -87 -88 0
-69 -83 -84 -87 -89 0
-5 -83 -7 -87 -89 0
-18 -83 -20 -87 -89 0
-30 -83 -32 -87 -89 0
-41 -83 -43 -87 -89 0
-51 -83 -53 -87 -89 0
-5 -84 -7 -87 -90 0
-18 -84 -20 -87 -90 0
-30 -84 -32 -87 -90 0
-41 -84 -43 -87 -90 0
-51 -84 -53 -87 -90 0
-18 -7 -20 -87 -8 0
-30 -7 -32 -87 -8 0
-41 -7 -43 -87 -8 0
-51 -7 -53 -87 -8 0
-30 -20 -32 -87 -21 0
-41 -20 -43 -87 -21 0
-51 -20 -53 -87 -21 0
-41 -32 -43 -87 -33 0
-51 -32 -53 -87 -33 0
-51 -43 -53 -87 -44 0
-69 -83 -84 -88 -89 0
-5 -83 -7 -88 -89 0
-18 -83 -20 -88 -89 0
-30 -83 -32 -88 -89 0
-41 -83 -43 -88 -89 0
-51 -83 -53 -88 -89 0
-5 -84 -7 -88 -90 0
-18 -84 -20 -88 -90 0
-30 -84 -32 -88 -90 0
-41 -84 -43 -88 -90 0
-51 -84 -53 -88 -90 0
-18 -7 -20 -88 -8 0
-30 -7 -32 -88 -8 0
-41 -7 -43 -88 -8 0
-51 -7 -53 -88 -8 0
-30 -20 -32 -88 -21 0
-41 -20 -43 -88 -21 0
-51 -20 -53 -88 -21 0
-41 -32 -43 -88 -33 0
-51 -32 -53 -88 -33 0
-51 -43 -53 -88 -44 0
-5 -84 -7 -89 -90 0
-18 -84 -20 -89 -90 0
-30 -84 -32 -89 -90 0
-41 -84 -43 -89 -90 0
-51 -84 -53 -89 -90 0
-18 -7 -20 -89 -8 0
-30 -7 -32 -89 -8 0
-41 -7 -43 -89 -8 0
-51 -7 -53 -89 -8 0
-30 -20 -32 -89 -21 0
-41 -20 -43 -89 -21 0
-51 -20 -53 -89 -21 0
-41 -32 -43 -89 -33 0
-51 -32 -53 -89 -33 0
-51 -43 -53 -89 -44 0
-18 -7 -20 -90 -8 0
-30 -7 -32 -90 -8 0
-41 -7 -43 -90 -8 0
-51 -7 -53 -90 -8 0
-30 -20 -32 -90 -21 0
-41 -20 -43 -90 -21 0
-51 -20 -53 -90 -21 0
-41 -32 -43 -90 -33 0
-51 -32 -53 -90 -33 0
-51 -43 -53 -90 -44 0
-30 -20 -32 -8 -21 0
-41 -20 -43 -8 -21 0
-51 -20 -53 -8 -21 0
-41 -32 -43 -8 -33 0
-51 -32 -53 -8 -33 0
-51 -43 -53 -8 -44 0
-41 -32 -43 -21 -33 0
-51 -32 -53 -21 -33 0
-51 -43 -53 -21 -44 0
-51 -43 -53 -33 -44 0
-67 -81 -82 -91 -92 0
-68 -81 -83 -91 -92 0
-69 -81 -84 -91 -92 0
-5 -81 -7 -91 -92 0
-18 -81 -20 -91 -92 0
-30 -81 -32 -91 -92 0
-41 -81 -43 -91 -92 0
-51 -81 -53 -91 -92 0
-68 -82 -83 -91 -93 0
-69 -82 -84 -91 -93 0
-5 -82 -7 -91 -93 0
-18 -82 -20 -91 -93 0
-30 -82 -32 -91 -93 0
-41 -82 -43 -91 -93 0
-51 -82 -53 -91 -93 0
-69 -83 -84 -91 -94 0
-5 -83 -7 -91 -94 0
-18 -83 -20 -91 -94 0
-30 -83 -32 -91 -94 0
-41 -83 -43 -91 -94 0
-51 -83 -53 -91 -94 0
-5 -84 -7 -91 -95 0
-18 -84 -20 -91 -95 0
-30 -84 -32 -91 -95 0
-41 -84 -43 -91 -95 0
-51 -84 -53 -91 -95 0
-18 -7 -20 -91 -9 0
-30 -7 -32 -91 -9 0
-41 -7 -43 -91 -9 0
-51 -7 -53 -91 -9 0
-30 -20 -32 -91 -22 0
-41 -20 -43 -91 -22 0
-51 -20 -53 -91 -22 0
-41 -32 -43 -91 -34 0
-51 -32 -53 -91 -34 0
-51 -43 -53 -91 -45 0
-68 -82 -83 -92 -93 0
-69 -82 -84 -92 -93 0
-5 -82 -7 -92 -93 0
-18 -82 -20 -92 -93 0
-30 -82 -32 -92 -93 0
-41 -82 -43 -92 -93 0
-51 -82 -53 -92 -93 0
-69 -83 -84 -92 -94 0
-5 -83 -7 -92 -94 0
-18 -83 -20 -92 -94 0
-30 -83 -32 -92 -94 0
-41 -83 -43 -92 -94 0
-51 -83 -53 -92 -94 0
-5 -84 -7 -92 -95 0
-18 -84 -20 -92 -95 0
-30 -84 -32 -92 -95 0
-41 -84 -43 -92 -95 0
-51 -84 -53 -92 -95 0
-18 -7 -20 -92 -9 0
-30 -7 -32 -92 -9 0
-41 -7 -43 -92 -9 0
-51 -7 -53 -92 -9 0
-30 -20 -32 -92 -22 0
-41 -20 -43 -92 -22 0
-51 -20 -53 -92 -22 0
-41 -32 -43 -92 -34 0
-51 -32 -53 -92 -34 0
-51 -43 -53 -92 -45 0
-69 -83 -84 -93 -94 0
-5 -83 -7 -93 -94 0
-18 -83 -20 -93 -94 0
-30 -83 -32 -93 -94 0
-41 -83 -43 -93 -94 0
-51 -83 -53 -93 -94 0
-5 -84 -7 -93 -95 0
-18 -84 -20 -93 -95 0
-30 -84 -32 -93 -95 0
-41 -84 -43 -93 -95 0
-51 -84 -53 -93 -95 0
-18 -7 -20 -93 -9 0
-30 -7 -32 -93 -9 0
-41 -7 -43 -93 -9 0
-51 -7 -53 -93 -9 0
-30 -20 -32 -93 -22 0
-41 -20 -43 -93 -22 0
-51 -20 -53 -93 -22 0
-41 -32 -43 -93 -34 0
-51 -32 -53 -93 -34 0
-51 -43 -53 -93 -45 0
-5 -84 -7 -94 -95 0
-18 -84 -20 -94 -95 0
-30 -84 -32 -94 -95 0
-41 -84 -43 -94 -95 0
-51 -84 -53 -94 -95 0
-18 -7 -20 -94 -9 0
-30 -7 -32 -94 -9 0
-41 -7 -43 -94 -9 0
-51 -7 -53 -94 -9 0
-30 -20 -32 -94 -22 0
-41 -20 -43 -94 -22 0
-51 -20 -53 -94 -22 0
-41 -32 -43 -94 -34 0
-51 -32 -53 -94 -34 0
-51 -43 -53 -94 -45 0
-18 -7 -20 -95 -9 0
-30 -7 -32 -95 -9 0
-41 -7 -43 -95 -9 0
-51 -7 -53 -95 -9 0
-30 -20 -32 -95 -22 0
-41 -20 -43 -95 -22 0
-51 -20 -53 -95 -22 0
-41 -32 -43 -95 -34 0
-51 -32 -53 -95 -34 0
-51 -43 -53 -95 -45 0
-30 -20 -32 -9 -22 0
-41 -20 -43 -9 -22 0
-51 -20 -53 -9 -22 0
-41 -32 -43 -9 -34 0
-51 -32 -53 -9 -34 0
-51 -43 -53 -9 -45 0
-41 -32 -43 -22 -34 0
-51 -32 -53 -22 -34 0
-51 -43 -53 -22 -45 0
-51 -43 -53 -34 -45 0
-68 -82 -83 -96 -97 0
-69 -82 -84 -96 -97 0
-5 -82 -7 -96 -97 0
-18 -82 -20 -96 -97 0
-30 -82 -32 -96 -97 0
-41 -82 -43 -96 -97 0
-51 -82 -53 -96 -97 0
-69 -83 -84 -96 -98 0
-5 -83 -7 -96 -98 0
-18 -83 -20 -96 -98 0
-30 -83 -32 -96 -98 0
-41 -83 -43 -96 -98 0
-51 -83 -53 -96 -98 0
-5 -84 -7 -96 -99 0
-18 -84 -20 -96 -99 0
-30 -84 -32 -96 -99 0
-41 -84 -43 -96 -99 0
-51 -84 -53 -96 -99 0
-18 -7 -20 -96 -10 0
-30 -7 -32 -96 -10 0
-41 -7 -43 -96 -10 0
-51 -7 -53 -96 -10 0
-30 -20 -32 -96 -23 0
-41 -20 -43 -96 -23 0
-51 -20 -53 -96 -23 0
-41 -32 -43 -96 -35 0
-51 -32 -53 -96 -35 0
-51 -43 -53 -96 -46 0
-69 -83 -84 -97 -98 0
-5 -83 -7 -97 -98 0
-18 -83 -20 -97 -98 0
-30 -83 -32 -97 -98 0
-41 -83 -43 -97 -98 0
-51 -83 -53 -97 -98 0
-5 -84 -7 -97 -99 0
-18 -84 -20 -97 -99 0
-30 -84 -32 -97 -99 0
-41 -84 -43 -97 -99 0
-51 -84 -53 -97 -99 0
-18 -7 -20 -97 -10 0
-30 -7 -32 -97 -10 0
-41 -7 -43 -97 -10 0
-51 -7 -53 -97 -10 0
-30 -20 -32 -97 -23 0
-41 -20 -43 -97 -23 0
-51 -20 -53 -97 -23 0
-41 -32 -43 -97 -35 0
-51 -32 -53 -97 -35 0
-51 -43 -53 -97 -46 0
-5 -84 -7 -98 -99 0
-18 -84 -20 -98 -99 0
-30 -84 -32 -98 -99 0
-41 -84 -43 -98 -99 0
-51 -84 -53 -98 -99 0
-18 -7 -20 -98 -10 0
-30 -7 -32 -98 -10 0
-41 -7 -43 -98 -10 0
-51 -7 -53 -98 -10 0
-30 -20 -32 -98 -23 0
-41 -20 -43 -98 -23 0
-51 -20 -53 -98 -23 0
-41 -32 -43 -98 -35 0
-51 -32 -53 -98 -35 0
-51 -43 -53 -98 -46 0
-18 -7 -20 -99 -10 0
-30 -7 -32 -99 -10 0
-41 -7 -43 -99 -10 0
-51 -7 -53 -99 -10 0
-30 -20 -32 -99 -23 0
-41 -20 -43 -99 -23 0
-51 -20 -53 -99 -23 0
-41 -32 -43 -99 -35 0
-51 -32 -53 -99 -35 0
-51 -43 -53 -99 -46 0
-30 -20 -32 -10 -23 0
-41 -20 -43 -10 -23 0
-51 -20 -53 -10 -23 0
-41 -32 -43 -10 -35 0
-51 -32 -53 -10 -35 0
-51 -43 -53 -10 -46 0
-41 -32 -43 -23 -35 0
-51 -32 -53 -23 -35 0
-51 -43 -53 -23 -46 0
-51 -43 -53 -35 -46 0
-69 -83 -84 -100 -101 0
-5 -83 -7 -100 -101 0
-18 -83 -20 -100 -101 0
-30 -83 -32 -100 -101 0
-41 -83 -43 -100 -101 0
-51 -83 -53 -100 -101 0
-5 -84 -7 -100 -102 0
-18 -84 -20 -100 -102 0
-30 -84 -32 -100 -102 0
-41 -84 -43 -100 -102 0
-51 -84 -53 -100 -102 0
-18 -7 -20 -100 -11 0
-30 -7 -32 -100 -11 0
-41 -7 -43 -100 -11 0
-51 -7 -53 -100 -11 0
-30 -20 -32 -100 -24 0
-41 -20 -43 -100 -24 0
-51 -20 -53 -100 -24 0
-41 -32 -43 -100 -36 0
-51 -32 -53 -100 -36 0
-51 -43 -53 -100 -47 0
-5 -84 -7 -101 -102 0
-18 -84 -20 -101 -102 0
-30 -84 -32 -101 -102 0
-41 -84 -43 -101 -102 0
-51 -84 -53 -101 -102 0
-18 -7 -20 -101 -11 0
-30 -7 -32 -101 -11 0
-41 -7 -43 -101 -11 0
-51 -7 -53 -101 -11 0
-30 -20 -32 -101 -24 0
-41 -20 -43 -101 -24 0
-51 -20 -53 -101 -24 0
-41 -32 -43 -101 -36 0
-51 -32 -53 -101 -36 0
-51 -43 -53 -101 -47 0
-18 -7 -20 -102 -11 0
-30 -7 -32 -102 -11 0
-41 -7 -43 -102 -11 0
-51 -7 -53 -102 -11 0
-30 -20 -32 -102 -24 0
-41 -20 -43 -102 -24 0
-51 -20 -53 -102 -24 0
-41 -32 -43 -102 -36 0
-51 -32 -53 -102 -36 0
-51 -43 -53 -102 -47 0
-30 -20 -32 -11 -24 0
-41 -20 -43 -11 -24 0
-51 -20 -53 -11 -24 0
-41 -32 -43 -11 -36 0
-51 -32 -53 -11 -36 0
-51 -43 -53 -11 -47 0
-41 -32 -43 -24 -36 0
-51 -32 -53 -24 -36 0
-51 -43 -53 -24 -47 0
-51 -43 -53 -36 -47 0
-5 -84 -7 -103 -104 0
-18 -84 -20 -103 -104 0
-30 -84 -32 -103 -104 0
-41 -84 -43 -103 -104 0
-51 -84 -53 -103 -104 0
-18 -7 -20 -103 -12 0
-30 -7 -32 -103 -12 0
-41 -7 -43 -103 -12 0
-51 -7 -53 -103 -12 0
-30 -20 -32 -103 -25 0
-41 -20 -43 -103 -25 0
-51 -20 -53 -103 -25 0
-41 -32 -43 -103 -37 0
-51 -32 -53 -103 -37 0
-51 -43 -53 -103 -48 0
-18 -7 -20 -104 -12 0
-30 -7 -32 -104 -12 0
-41 -7 -43 -104 -12 0
-51 -7 -53 -104 -12 0
-30 -20 -32 -104 -25 0
-41 -20 -43 -104 -25 0
-51 -20 -53 -104 -25 0
-41 -32 -43 -104 -37 0
-51 -32 -53 -104 -37 0
-51 -43 -53 -104 -48 0
-30 -20 -32 -12 -25 0
-41 -20 -43 -12 -25 0
-51 -20 -53 -12 -25 0
-41 -32 -43 -12 -37 0
-51 -32 -53 -12 -37 0
-51 -43 -53 -12 -48 0
-41 -32 -43 -25 -37 0
-51 -32 -53 -25 -37 0
-51 -43 -53 -25 -48 0
-51 -43 -53 -37 -48 0
-18 -7 -20 -105 -13 0
-30 -7 -32 -105 -13 0
-41 -7 -43 -105 -13 0
-51 -7 -53 -105 -13 0
-30 -20 -32 -105 -26 0
-41 -20 -43 -105 -26 0
-51 -20 -53 -105 -26 0
-41 -32 -43 -105 -38 0
-51 -32 -53 -105 -38 0
-51 -43 -53 -105 -49 0
-30 -20 -32 -13 -26 0
-41 -20 -43 -13 -26 0
-51 -20 -53 -13 -26 0
-41 -32 -43 -13 -38 0
-51 -32 -53 -13 -38 0
-51 -43 -53 -13 -49 0
-41 -32 -43 -26 -38 0
-51 -32 -53 -26 -38 0
-51 -43 -53 -26 -49 0
-51 -43 -53 -38 -49 0
-30 -20 -32 -14 -27 0
-41 -20 -43 -14 -27 0
-51 -20 -53 -14 -27 0
-41 -32 -43 -14 -39 0
-51 -32 -53 -14 -39 0
-51 -43 -53 -14 -50 0
-41 -32 -43 -27 -39 0
-51 -32 -53 -27 -39 0
-51 -43 -53 -27 -50 0
-51 -43 -53 -39 -50 0
-41 -32 -43 -1 -2 0
-51 -32 -53 -1 -2 0
-51 -43 -53 -1 -3 0
-51 -43 -53 -2 -3 0
-51 -43 -53 -15 -16 0
-67 -87 -88 -91 -92 0
-68 -87 -89 -91 -92 0
-69 -87 -90 -91 -92 0
-5 -87 -8 -91 -92 0
-18 -87 -21 -91 -92 0
-30 -87 -33 -91 -92 0
-41 -87 -44 -91 -92 0
-51 -87 -54 -91 -92 0
-68 -88 -89 -91 -93 0
-69 -88 -90 -91 -93 0
-5 -88 -8 -91 -93 0
-18 -88 -21 -91 -93 0
-30 -88 -33 -91 -93 0
-41 -88 -44 -91 -93 0
-51 -88 -54 -91 -93 0
-69 -89 -90 -91 -94 0
-5 -89 -8 -91 -94 0
-18 -89 -21 -91 -94 0
-30 -89 -33 -91 -94 0
-41 -89 -44 -91 -94 0
-51 -89 -54 -91 -94 0
-5 -90 -8 -91 -95 0
-18 -90 -21 -91 -95 0
-30 -90 -33 -91 -95 0
-41 -90 -44 -91 -95 0
-51 -90 -54 -91 -95 0
-18 -8 -21 -91 -9 0
-30 -8 -33 -91 -9 0
-41 -8 -44 -91 -9 0
-51 -8 -54 -91 -9 0
-30 -21 -33 -91 -22 0
-41 -21 -44 -91 -22 0
-51 -21 -54 -91 -22 0
-41 -33 -44 -91 -34 0
-51 -33 -54 -91 -34 0
-51 -44 -54 -91 -45 0
-68 -88 -89 -92 -93 0
-69 -88 -90 -92 -93 0
-5 -88 -8 -92 -93 0
-18 -88 -21 -92 -93 0
-30 -88 -33 -92 -93 0
-41 -88 -44 -92 -93 0
-51 -88 -54 -92 -93 0
-69 -89 -90 -92 -94 0
-5 -89 -8 -92 -94 0
-18 -89 -21 -92 -94 0
-30 -89 -33 -92 -94 0
-41 -89 -44 -92 -94 0
-51 -89 -54 -92 -94 0
-5 -90 -8 -92 -95 0
-18 -90 -21 -92 -95 0
-30 -90 -33 -92 -95 0
-41 -90 -44 -92 -95 0
-51 -90 -54 -92 -95 0
-18 -8 -21 -92 -9 0
-30 -8 -33 -92 -9 0
-41 -8 -44 -92 -9 0
-51 -8 -54 -92 -9 0
-30 -21 -33 -92 -22 0
-41 -21 -44 -92 -22 0
-51 -21 -54 -92 -22 0
-41 -33 -44 -92 -34 0
-51 -33 -54 -92 -34 0
-51 -44 -54 -92 -45 0
-69 -89 -90 -93 -94 0
-5 -89 -8 -93 -94 0
-18 -89 -21 -93 -94 0
-30 -89 -33 -93 -94 0
-41 -89 -44 -93 -94 0
-51 -89 -54 -93 -94 0
-5 -90 -8 -93 -95 0
-18 -90 -21 -93 -95 0
-30 -90 -33 -93 -95 0
-41 -90 -44 -93 -95 0
-51 -90 -54 -93 -95 0
-18 -8 -21 -93 -9 0
-30 -8 -33 -93 -9 0
-41 -8 -44 -93 -9 0
-51 -8 -54 -93 -9 0
-30 -21 -33 -93 -22 0
-41 -21 -44 -93 -22 0
-51 -21 -54 -93 -22 0
-41 -33 -44 -93 -34 0
-51 -33 -54 -93 -34 0
-51 -44 -54 -93 -45 0
-5 -90 -8 -94 -95 0
-18 -90 -21 -94 -95 0
-30 -90 -33 -94 -95 0
-41 -90 -44 -94 -95 0
-51 -90 -54 -94 -95 0
-18 -8 -21 -94 -9 0
-30 -8 -33 -94 -9 0
-41 -8 -44 -94 -9 0
-51 -8 -54 -94 -9 0
-30 -21 -33 -94 -22 0
-41 -21 -44 -94 -22 0
-51 -21 -54 -94 -22 0
-41 -33 -44 -94 -34 0
-51 -33 -54 -94 -34 0
-51 -44 -54 -94 -45 0
-18 -8 -21 -95 -9 0
-30 -8 -33 -95 -9 0
-41 -8 -44 -95 -9 0
-51 -8 -54 -95 -9 0
-30 -21 -33 -95 -22 0
-41 -21 -44 -95 -22 0
-51 -21 -54 -95 -22 0
-41 -33 -44 -95 -34 0
-51 -33 -54 -95 -34 0
-51 -44 -54 -95 -45 0
-30 -21 -33 -9 -22 0
-41 -21 -44 -9 -22 0
-51 -21 -54 -9 -22 0
-41 -33 -44 -9 -34 0
-51 -33 -54 -9 -34 0
-51 -44 -54 -9 -45 0
-41 -33 -44 -22 -34 0
-51 -33 -54 -22 -34 0
-51 -44 -54 -22 -45 0
-51 -44 -54 -34 -45 0
-68 -88 -89 -96 -97 0
-69 -88 -90 -96 -97 0
-5 -88 -8 -96 -97 0
-18 -88 -21 -96 -97 0
-30 -88 -33 -96 -97 0
-41 -88 -44 -96 -97 0
-51 -88 -54 -96 -97 0
-69 -89 -90 -96 -98 0
-5 -89 -8 -96 -98 0
-18 -89 -21 -96 -98 0
-30 -89 -33 -96 -98 0
-41 -89 -44 -96 -98 0
-51 -89 -54 -96 -98 0
-5 -90 -8 -96 -99 0
-18 -90 -21 -96 -99 0
-30 -90 -33 -96 -99 0
-41 -90 -44 -96 -99 0
-51 -90 -54 -96 -99 0
-18 -8 -21 -96 -10 0
-30 -8 -33 -96 -10 0
-41 -8 -44 -96 -10 0
-51 -8 -54 -96 -10 0
-30 -21 -33 -96 -23 0
-41 -21 -44 -96 -23 0
-51 -21 -54 -96 -23 0
-41 -33 -44 -96 -35 0
-51 -33 -54 -96 -35 0
-51 -44 -54 -96 -46 0
-69 -89 -90 -97 -98 0
-5 -89 -8 -97 -98 0
-18 -89 -21 -97 -98 0
-30 -89 -33 -97 -98 0
-41 -89 -44 -97 -98 0
-51 -89 -54 -97 -98 0
-5 -90 -8 -97 -99 0
-18 -90 -21 -97 -99 0
-30 -90 -33 -97 -99 0
-41 -90 -44 -97 -99 0
-51 -90 -54 -97 -99 0
-18 -8 -21 -97 -10 0
-30 -8 -33 -97 -10 0
-41 -8 -44 -97 -10 0
-51 -8 -54 -97 -10 0
-30 -21 -33 -97 -23 0
-41 -21 -44 -97 -23 0
-51 -21 -54 -97 -23 0
-41 -33 -44 -97 -35 0
-51 -33 -54 -97 -35 0
-51 -44 -54 -97 -46 0
-5 -90 -8 -98 -99 0
-18 -90 -21 -98 -99 0
-30 -90 -33 -98 -99 0
-41 -90 -44 -98 -99 0
-51 -90 -54 -98 -99 0
-18 -8 -21 -98 -10 0
-30 -8 -33 -98 -10 0
-41 -8 -44 -98 -10 0
-51 -8 -54 -98 -10 0
-30 -21 -33 -98 -23 0
-41 -21 -44 -98 -23 0
-51 -21 -54 -98 -23 0
-41 -33 -44 -98 -35 0
-51 -33 -54 -98 -35 0
-51 -44 -54 -98 -46 0
-18 -8 -21 -99 -10 0
-30 -8 -33 -99 -10 0
-41 -8 -44 -99 -10 0
-51 -8 -54 -99 -10 0
-30 -21 -33 -99 -23 0
-41 -21 -44 -99 -23 0
-51 -21 -54 -99 -23 0
-41 -33 -44 -99 -35 0
-51 -33 -54 -99 -35 0
-51 -44 -54 -99 -46 0
-30 -21 -33 -10 -23 0
-41 -21 -44 -10 -23 0
-51 -21 -54 -10 -23 0
-41 -33 -44 -10 -35 0
-51 -33 -54 -10 -35 0
-51 -44 -54 -10 -46 0
-41 -33 -44 -23 -35 0
-51 -33 -54 -23 -35 0
-51 -44 -54 -23 -46 0
-51 -44 -54 -35 -46 0
-69 -89 -90 -100 -101 0
-5 -89 -8 -100 -101 0
-18 -89 -21 -100 -101 0
-30 -89 -33 -100 -101 0
-41 -89 -44 -100 -101 0
-51 -89 -54 -100 -101 0
-5 -90 -8 -100 -102 0
-18 -90 -21 -100 -102 0
-30 -90 -33 -100 -102 0
-41 -90 -44 -100 -102 0
-51 -90 -54 -100 -102 0
-18 -8 -21 -100 -11 0
-30 -8 -33 -100 -11 0
-41 -8 -44 -100 -11 0
-51 -8 -54 -100 -11 0
-30 -21 -33 -100 -24 0
-41 -21 -44 -100 -24 0
-51 -21 -54 -100 -24 0
-41 -33 -44 -100 -36 0
-51 -33 -54 -100 -36 0
-51 -44 -54 -100 -47 0
-5 -90 -8 -101 -102 0
-18 -90 -21 -101 -102 0
-30 -90 -33 -101 -102 0
-41 -90 -44 -101 -102 0
-51 -90 -54 -101 -102 0
-18 -8 -21 -101 -11 0
-30 -8 -33 -101 -11 0
-41 -8 -44 -101 -11 0
-51 -8 -54 -101 -11 0
-30 -21 -33 -101 -24 0
-41 -21 -44 -101 -24 0
-51 -21 -54 -101 -24 0
-41 -33 -44 -101 -36 0
-51 -33 -54 -101 -36 0
-51 -44 -54 -101 -47 0
-18 -8 -21 -102 -11 0
-30 -8 -33 -102 -11 0
-41 -8 -44 -102 -11 0
-51 -8 -54 -102 -11 0
-30 -21 -33 -102 -24 0
-41 -21 -44 -102 -24 0
-51 -21 -54 -102 -24 0
-41 -33 -44 -102 -36 0
-51 -33 -54 -102 -36 0
-51 -44 -54 -102 -47 0
-30 -21 -33 -11 -24 0
-41 -21 -44 -11 -24 0
-51 -21 -54 -11 -24 0
-41 -33 -44 -11 -36 0
-51 -33 -54 -11 -36 0
-51 -44 -54 -11 -47 0
-41 -33 -44 -24 -36 0
-51 -33 -54 -24 -36 0
-51 -44 -54 -24 -47 0
-51 -44 -54 -36 -47 0
-5 -90 -8 -103 -104 0
-18 -90 -21 -103 -104 0
-30 -90 -33 -103 -104 0
-41 -90 -44 -103 -104 0
-51 -90 -54 -103 -104 0
-18 -8 -21 -103 -12 0
-30 -8 -33 -103 -12 0
-41 -8 -44 -103 -12 0
-51 -8 -54 -103 -12 0
-30 -21 -33 -103 -25 0
-41 -21 -44 -103 -25 0
-51 -21 -54 -103 -25 0
-41 -33 -44 -103 -37 0
-51 -33 -54 -103 -37 0
-51 -44 -54 -103 -48 0
-18 -8 -21 -104 -12 0
-30 -8 -33 -104 -12 0
-41 -8 -44 -104 -12 0
-51 -8 -54 -104 -12 0
-30 -21 -33 -104 -25 0
-41 -21 -44 -104 -25 0
-51 -21 -54 -104 -25 0
-41 -33 -44 -104 -37 0
-51 -33 -54 -104 -37 0
-51 -44 -54 -104 -48 0
-30 -21 -33 -12 -25 0
-41 -21 -44 -12 -25 0
-51 -21 -54 -12 -25 0
-41 -33 -44 -12 -37 0
-51 -33 -54 -12 -37 0
-51 -44 -54 -12 -48 0
-41 -33 -44 -25 -37 0
-51 -33 -54 -25 -37 0
-51 -44 -54 -25 -48 0
-51 -44 -54 -37 -48 0
-18 -8 -21 -105 -13 0
-30 -8 -33 -105 -13 0
-41 -8 -44 -105 -13 0
-51 -8 -54 -105 -13 0
-30 -21 -33 -105 -26 0
-41 -21 -44 -105 -26 0
-51 -21 -54 -105 -26 0
-41 -33 -44 -105 -38 0
-51 -33 -54 -105 -38 0
-51 -44 -54 -105 -49 0
-30 -21 -33 -13 -26 0
-41 -21 -44 -13 -26 0
-51 -21 -54 -13 -26 0
-41 -33 -44 -13 -38 0
-51 -33 -54 -13 -38 0
-51 -44 -54 -13 -49 0
-41 -33 -44 -26 -38 0
-51 -33 -54 -26 -38 0
-51 -44 -54 -26 -49 0
-51 -44 -54 -38 -49 0
-30 -21 -33 -14 -27 0
-41 -21 -44 -14 -27 0
-51 -21 -54 -14 -27 0
-41 -33 -44 -14 -39 0
-51 -33 -54 -14 -39 0
-51 -44 -54 -14 -50 0
-41 -33 -44 -27 -39 0
-51 -33 -54 -27 -39 0
-51 -44 -54 -27 -50 0
-51 -44 -54 -39 -50 0
-41 -33 -44 -1 -2 0
-51 -33 -54 -1 -2 0
-51 -44 -54 -1 -3 0
-51 -44 -54 -2 -3 0
-51 -44 -54 -15 -16 0
-68 -93 -94 -96 -97 0
-69 -93 -95 -96 -97 0
-5 -93 -9 -96 -97 0
-18 -93 -22 -96 -97 0
-30 -93 -34 -96 -97 0
-41 -93 -45 -96 -97 0
-51 -93 -55 -96 -97 0
-69 -94 -95 -96 -98 0
-5 -94 -9 -96 -98 0
-18 -94 -22 -96 -98 0
-30 -94 -34 -96 -98 0
-41 -94 -45 -96 -98 0
-51 -94 -55 -96 -98 0
-5 -95 -9 -96 -99 0
-18 -95 -22 -96 -99 0
-30 -95 -34 -96 -99 0
-41 -95 -45 -96 -99 0
-51 -95 -55 -96 -99 0
-18 -9 -22 -96 -10 0
-30 -9 -34 -96 -10 0
-41 -9 -45 -96 -10 0
-51 -9 -55 -96 -10 0
-30 -22 -34 -96 -23 0
-41 -22 -45 -96 -23 0
-51 -22 -55 -96 -23 0
-41 -34 -45 -96 -35 0
-51 -34 -55 -96 -35 0
-51 -45 -55 -96 -46 0
-69 -94 -95 -97 -98 0
-5 -94 -9 -97 -98 0
-18 -94 -22 -97 -98 0
-30 -94 -34 -97 -98 0
-41 -94 -45 -97 -98 0
-51 -94 -55 -97 -98 0
-5 -95 -9 -97 -99 0
-18 -95 -22 -97 -99 0
-30 -95 -34 -97 -99 0
-41 -95 -45 -97 -99 0
-51 -95 -55 -97 -99 0
-18 -9 -22 -97 -10 0
-30 -9 -34 -97 -10 0
-41 -9 -45 -97 -10 0
-51 -9 -55 -97 -10 0
-30 -22 -34 -97 -23 0
-41 -22 -45 -97 -23 0
-51 -22 -55 -97 -23 0
-41 -34 -45 -97 -35 0
-51 -34 -55 -97 -35 0
-51 -45 -55 -97 -46 0
-5 -95 -9 -98 -99 0
-18 -95 -22 -98 -99 0
-30 -95 -34 -98 -99 0
-41 -95 -45 -98 -99 0
-51 -95 -55 -98 -99 0
-18 -9 -22 -98 -10 0
-30 -9 -34 -98 -10 0
-41 -9 -45 -98 -10 0
-51 -9 -55 -98 -10 0
-30 -22 -34 -98 -23 0
-41 -22 -45 -98 -23 0
-51 -22 -55 -98 -23 0
-41 -34 -45 -98 -35 0
-51 -34 -55 -98 -35 0
-51 -45 -55 -98 -46 0
-18 -9 -22 -99 -10 0
-30 -9 -34 -99 -10 0
-41 -9 -45 -99 -10 0
-51 -9 -55 -99 -10 0
-30 -22 -34 -99 -23 0
-41 -22 -45 -99 -23 0
-51 -22 -55 -99 -23 0
-41 -34 -45 -99 -35 0
-51 -34 -55 -99 -35 0
-51 -45 -55 -99 -46 0
-30 -22 -34 -10 -23 0
-41 -22 -45 -10 -23 0
-51 -22 -55 -10 -23 0
-41 -34 -45 -10 -35 0
-51 -34 -55 -10 -35 0
-51 -45 -55 -10 -46 0
-41 -34 -45 -23 -35 0
-51 -34 -55 -23 -35 0
-51 -45 -55 -23 -46 0
-51 -45 -55 -35 -46 0
-69 -94 -95 -100 -101 0
-5 -94 -9 -100 -101 0
-18 -94 -22 -100 -101 0
-30 -94 -34 -100 -101 0
-41 -94 -45 -100 -101 0
-51 -94 -55 -100 -101 0
-5 -95 -9 -100 -102 0
-18 -95 -22 -100 -102 0
-30 -95 -34 -100 -102 0
-41 -95 -45 -100 -102 0
-51 -95 -55 -100 -102 0
-18 -9 -22 -100 -11 0
-30 -9 -34 -100 -11 0
-41 -9 -45 -100 -11 0
-51 -9 -55 -100 -11 0
-30 -22 -34 -100 -24 0
-41 -22 -45 -100 -24 0
-51 -22 -55 -100 -24 0
-41 -34 -45 -100 -36 0
-51 -34 -55 -100 -36 0
-51 -45 -55 -100 -47 0
-5 -95 -9 -101 -102 0
-18 -95 -22 -101 -102 0
-30 -95 -34 -101 -102 0
-41 -95 -45 -101 -102 0
-51 -95 -55 -101 -102 0
-18 -9 -22 -101 -11 0
-30 -9 -34 -101 -11 0
-41 -9 -45 -101 -11 0
-51 -9 -55 -101 -11 0
-30 -22 -34 -101 -24 0
-41 -22 -45 -101 -24 0
-51 -22 -55 -101 -24 0
-41 -34 -45 -101 -36 0
-51 -34 -55 -101 -36 0
-51 -45 -55 -101 -47 0
-18 -9 -22 -102 -11 0
-30 -9 -34 -102 -11 0
-41 -9 -45 -102 -11 0
-51 -9 -55 -102 -11 0
-30 -22 -34 -102 -24 0
-41 -22 -45 -102 -24 0
-51 -22 -55 -102 -24 0
-41 -34 -45 -102 -36 0
-51 -34 -55 -102 -36 0
-51 -45 -55 -102 -47 0
-30 -22 -34 -11 -24 0
-41 -22 -45 -11 -24 0
-51 -22 -55 -11 -24 0
-41 -34 -45 -11 -36 0
-51 -34 -55 -11 -36 0
-51 -45 -55 -11 -47 0
-41 -34 -45 -24 -36 0
-51 -34 -55 -24 -36 0
-51 -45 -55 -24 -47 0
-51 -45 -55 -36 -47 0
-5 -95 -9 -103 -104 0
-18 -95 -22 -103 -104 0
-30 -95 -34 -103 -104 0
-41 -95 -45 -103 -104 0
-51 -95 -55 -103 -104 0
-18 -9 -22 -103 -12 0
-30 -9 -34 -103 -12 0
-41 -9 -45 -103 -12 0
-51 -9 -55 -103 -12 0
-30 -22 -34 -103 -25 0
-41 -22 -45 -103 -25 0
-51 -22 -55 -103 -25 0
-41 -34 -45 -103 -37 0
-51 -34 -55 -103 -37 0
-51 -45 -55 -103 -48 0
-18 -9 -22 -104 -12 0
-30 -9 -34 -104 -12 0
-41 -9 -45 -104 -12 0
-51 -9 -55 -104 -12 0
-30 -22 -34 -104 -25 0
-41 -22 -45 -104 -25 0
-51 -22 -55 -104 -25 0
-41 -34 -45 -104 -37 0
-51 -34 -55 -104 -37 0
-51 -45 -55 -104 -48 0
-30 -22 -34 -12 -25 0
-41 -22 -45 -12 -25 0
-51 -22 -55 -12 -25 0
-41 -34 -45 -12 -37 0
-51 -34 -55 -12 -37 0
-51 -45 -55 -12 -48 0
-41 -34 -45 -25 -37 0
-51 -34 -55 -25 -37 0
-51 -45 -55 -25 -48 0
-51 -45 -55 -37 -48 0
-18 -9 -22 -105 -13 0
-30 -9 -34 -105 -13 0
-41 -9 -45 -105 -13 0
-51 -9 -55 -105 -13 0
-30 -22 -34 -105 -26 0
-41 -22 -45 -105 -26 0
-51 -22 -55 -105 -26 0
-41 -34 -45 -105 -38 0
-51 -34 -55 -105 -38 0
-51 -45 -55 -105 -49 0
-30 -22 -34 -13 -26 0
-41 -22 -45 -13 -26 0
-51 -22 -55 -13 -26 0
-41 -34 -45 -13 -38 0
-51 -34 -55 -13 -38 0
-51 -45 -55 -13 -49 0
-41 -34 -45 -26 -38 0
-51 -34 -55 -26 -38 0
-51 -45 -55 -26 -49 0
-51 -45 -55 -38 -49 0
-30 -22 -34 -14 -27 0
-41 -22 -45 -14 -27 0
-51 -22 -55 -14 -27 0
-41 -34 -45 -14 -39 0
-51 -34 -55 -14 -39 0
-51 -45 -55 -14 -50 0
-41 -34 -45 -27 -39 0
-51 -34 -55 -27 -39 0
-51 -45 -55 -27 -50 0
-51 -45 -55 -39 -50 0
-41 -34 -45 -1 -2 0
-51 -34 -55 -1 -2 0
-51 -45 -55 -1 -3 0
-51 -45 -55 -2 -3 0
-51 -45 -55 -15 -16 0
-69 -98 -99 -100 -101 0
-5 -98 -10 -100 -101 0
-18 -98 -23 -100 -101 0
-30 -98 -35 -100 -101 0
-41 -98 -46 -100 -101 0
-51 -98 -56 -100 -101 0
-5 -99 -10 -100 -102 0
-18 -99 -23 -100 -102 0
-30 -99 -35 -100 -102 0
-41 -99 -46 -100 -102 0
-51 -99 -56 -100 -102 0
-18 -10 -23 -100 -11 0
-30 -10 -35 -100 -11 0
-41 -10 -46 -100 -11 0
-51 -10 -56 -100 -11 0
-30 -23 -35 -100 -24 0
-41 -23 -46 -100 -24 0
-51 -23 -56 -100 -24 0
-41 -35 -46 -100 -36 0
-51 -35 -56 -100 -36 0
-51 -46 -56 -100 -47 0
-5 -99 -10 -101 -102 0
-18 -99 -23 -101 -102 0
-30 -99 -35 -101 -102 0
-41 -99 -46 -101 -102 0
-51 -99 -56 -101 -102 0
-18 -10 -23 -101 -11 0
-30 -10 -35 -101 -11 0
-41 -10 -46 -101 -11 0
-51 -10 -56 -101 -11 0
-30 -23 -35 -101 -24 0
-41 -23 -46 -101 -24 0
-51 -23 -56 -101 -24 0
-41 -35 -46 -101 -36 0
-51 -35 -56 -101 -36 0
-51 -46 -56 -101 -47 0
-18 -10 -23 -102 -11 0
-30 -10 -35 -102 -11 0
-41 -10 -46 -102 -11 0
-51 -10 -56 -102 -11 0
-30 -23 -35 -102 -24 0
-41 -23 -46 -102 -24 0
-51 -23 -56 -102 -24 0
-41 -35 -46 -102 -36 0
-51 -35 -56 -102 -36 0
-51 -46 -56 -102 -47 0
-30 -23 -35 -11 -24 0
-41 -23 -46 -11 -24 0
-51 -23 -56 -11 -24 0
-41 -35 -46 -11 -36 0
-51 -35 -56 -11 -36 0
-51 -46 -56 -11 -47 0
-41 -35 -46 -24 -36 0
-51 -35 -56 -24 -36 0
-51 -46 -56 -24 -47 0
-51 -46 -56 -36 -47 0
-5 -99 -10 -103 -104 0
-18 -99 -23 -103 -104 0
-30 -99 -35 -103 -104 0
-41 -99 -46 -103 -104 0
-51 -99 -56 -103 -104 0
-18 -10 -23 -103 -12 0
-30 -10 -35 -103 -12 0
-41 -10 -46 -103 -12 0
-51 -10 -56 -103 -12 0
-30 -23 -35 -103 -25 0
-41 -23 -46 -103 -25 0
-51 -23 -56 -103 -25 0
-41 -35 -46 -103 -37 0
-51 -35 -56 -103 -37 0
-51 -46 -56 -103 -48 0
-18 -10 -23 -104 -12 0
-30 -10 -35 -104 -12 0
-41 -10 -46 -104 -12 0
-51 -10 -56 -104 -12 0
-30 -23 -35 -104 -25 0
-41 -23 -46 -104 -25 0
-51 -23 -56 -104 -25 0
-41 -35 -46 -104 -37 0
-51 -35 -56 -104 -37 0
-51 -46 -56 -104 -48 0
-30 -23 -35 -12 -25 0
-41 -23 -46 -12 -25 0
-51 -23 -56 -12 -25 0
-41 -35 -46 -12 -37 0
-51 -35 -56 -12 -37 0
-51 -46 -56 -12 -48 0
-41 -35 -46 -25 -37 0
-51 -35 -56 -25 -37 0
-51 -46 -56 -25 -48 0
-51 -46 -56 -37 -48 0
-18 -10 -23 -105 -13 0
-30 -10 -35 -105 -13 0
-41 -10 -46 -105 -13 0
-51 -10 -56 -105 -13 0
-30 -23 -35 -105 -26 0
-41 -23 -46 -105 -26 0
-51 -23 -56 -105 -26 0
-41 -35 -46 -105 -38 0
-51 -35 -56 -105 -38 0
-51 -46 -56 -105 -49 0
-30 -23 -35 -13 -26 0
-41 -23 -46 -13 -26 0
-51 -23 -56 -13 -26 0
-41 -35 -46 -13 -38 0
-51 -35 -56 -13 -38 0
-51 -46 -56 -13 -49 0
-41 -35 -46 -26 -38 0
-51 -35 -56 -26 -38 0
-51 -46 -56 -26 -49 0
-51 -46 -56 -38 -49 0
-30 -23 -35 -14 -27 0
-41 -23 -46 -14 -27 0
-51 -23 -56 -14 -27 0
-41 -35 -46 -14 -39 0
-51 -35 -56 -14 -39 0
-51 -46 -56 -14 -50 0
-41 -35 -46 -27 -39 0
-51 -35 -56 -27 -39 0
-51 -46 -56 -27 -50 0
-51 -46 -56 -39 -50 0
-41 -35 -46 -1 -2 0
-51 -35 -56 -1 -2 0
-51 -46 -56 -1 -3 0
-51 -46 -56 -2 -3 0
-51 -46 -56 -15 -16 0
-5 -102 -11 -103 -104 0
-18 -102 -24 -103 -104 0
-30 -102 -36 -103 -104 0
-41 -102 -47 -103 -104 0
-51 -102 -57 -103 -104 0
-18 -11 -24 -103 -12 0
-30 -11 -36 -103 -12 0
-41 -11 -47 -103 -12 0
-51 -11 -57 -103 -12 0
-30 -24 -36 -103 -25 0
-41 -24 -47 -103 -25 0
-51 -24 -57 -103 -25 0
-41 -36 -47 -103 -37 0
-51 -36 -57 -103 -37 0
-51 -47 -57 -103 -48 0
-18 -11 -24 -104 -12 0
-30 -11 -36 -104 -12 0
-41 -11 -47 -104 -12 0
-51 -11 -57 -104 -12 0
-30 -24 -36 -104 -25 0
-41 -24 -47 -104 -25 0
-51 -24 -57 -104 -25 0
-41 -36 -47 -104 -37 0
-51 -36 -57 -104 -37 0
-51 -47 -57 -104 -48 0
-30 -24 -36 -12 -25 0
-41 -24 -47 -12 -25 0
-51 -24 -57 -12 -25 0
-41 -36 -47 -12 -37 0
-51 -36 -57 -12 -37 0
-51 -47 -57 -12 -48 0
-41 -36 -47 -25 -37 0
-51 -36 -57 -25 -37 0
-51 -47 -57 -25 -48 0
-51 -47 -57 -37 -48 0
-18 -11 -24 -105 -13 0
-30 -11 -36 -105 -13 0
-41 -11 -47 -105 -13 0
-51 -11 -57 -105 -13 0
-30 -24 -36 -105 -26 0
-41 -24 -47 -105 -26 0
-51 -24 -57 -105 -26 0
-41 -36 -47 -105 -38 0
-51 -36 -57 -105 -38 0
-51 -47 -57 -105 -49 0
-30 -24 -36 -13 -26 0
-41 -24 -47 -13 -26 0
-51 -24 -57 -13 -26 0
-41 -36 -47 -13 -38 0
-51 -36 -57 -13 -38 0
-51 -47 -57 -13 -49 0
-41 -36 -47 -26 -38 0
-51 -36 -57 -26 -38 0
-51 -47 -57 -26 -49 0
-51 -47 -57 -38 -49 0
-30 -24 -36 -14 -27 0
-41 -24 -47 -14 -27 0
-51 -24 -57 -14 -27 0
-41 -36 -47 -14 -39 0
-51 -36 -57 -14 -39 0
-51 -47 -57 -14 -50 0
-41 -36 -47 -27 -39 0
-51 -36 -57 -27 -39 0
-51 -47 -57 -27 -50 0
-51 -47 -57 -39 -50 0
-41 -36 -47 -1 -2 0
-51 -36 -57 -1 -2 0
-51 -47 -57 -1 -3 0
-51 -47 -57 -2 -3 0
-51 -47 -57 -15 -16 0
-18 -12 -25 -105 -13 0
-30 -12 -37 -105 -13 0
-41 -12 -48 -105 -13 0
-51 -12 -58 -105 -13 0
-30 -25 -37 -105 -26 0
-41 -25 -48 -105 -26 0
-51 -25 -58 -105 -26 0
-41 -37 -48 -105 -38 0
-51 -37 -58 -105 -38 0
-51 -48 -58 -105 -49 0
-30 -25 -37 -13 -26 0
-41 -25 -48 -13 -26 0
-51 -25 -58 -13 -26 0
-41 -37 -48 -13 -38 0
-51 -37 -58 -13 -38 0
-51 -48 -58 -13 -49 0
-41 -37 -48 -26 -38 0
-51 -37 -58 -26 -38 0
-51 -48 -58 -26 -49 0
-51 -48 -58 -38 -49 0
-30 -25 -37 -14 -27 0
-41 -25 -48 -14 -27 0
-51 -25 -58 -14 -27 0
-41 -37 -48 -14 -39 0
-51 -37 -58 -14 -39 0
-51 -48 -58 -14 -50 0
-41 -37 -48 -27 -39 0
-51 -37 -58 -27 -39 0
-51 -48 -58 -27 -50 0
-51 -48 -58 -39 -50 0
-41 -37 -48 -1 -2 0
-51 -37 -58 -1 -2 0
-51 -48 -58 -1 -3 0
-51 -48 -58 -2 -3 0
-51 -48 -58 -15 -16 0
-30 -26 -38 -14 -27 0
-41 -26 -49 -14 -27 0
-51 -26 -59 -14 -27 0
-41 -38 -49 -14 -39 0
-51 -38 -59 -14 -39 0
-51 -49 -59 -14 -50 0
-41 -38 -49 -27 -39 0
-51 -38 -59 -27 -39 0
-51 -49 -59 -27 -50 0
-51 -49 -59 -39 -50 0
-41 -38 -49 -1 -2 0
-51 -38 -59 -1 -2 0
-51 -49 -59 -1 -3 0
-51 -49 -59 -2 -3 0
-51 -49 -59 -15 -16 0
-41 -39 -50 -1 -2 0
-51 -39 -60 -1 -2 0
-51 -50 -60 -1 -3 0
-51 -50 -60 -2 -3 0
-51 -50 -60 -15 -16 0
-51 -3 -4 -15 -16 0
-74 -80 -81 -85 -86 0
-75 -80 -82 -85 -86 0
-76 -80 -83 -85 -86 0
-77 -80 -84 -85 -86 0
-6 -80 -7 -85 -86 0
-19 -80 -20 -85 -86 0
-31 -80 -32 -85 -86 0
-42 -80 -43 -85 -86 0
-52 -80 -53 -85 -86 0
-61 -80 -62 -85 -86 0
-75 -81 -82 -85 -87 0
-76 -81 -83 -85 -87 0
-77 -81 -84 -85 -87 0
-6 -81 -7 -85 -87 0
-19 -81 -20 -85 -87 0
-31 -81 -32 -85 -87 0
-42 -81 -43 -85 -87 0
-52 -81 -53 -85 -87 0
-61 -81 -62 -85 -87 0
-76 -82 -83 -85 -88 0
-77 -82 -84 -85 -88 0
-6 -82 -7 -85 -88 0
-19 -82 -20 -85 -88 0
-31 -82 -32 -85 -88 0
-42 -82 -43 -85 -88 0
-52 -82 -53 -85 -88 0
-61 -82 -62 -85 -88 0
-77 -83 -84 -85 -89 0
-6 -83 -7 -85 -89 0
-19 -83 -20 -85 -89 0
-31 -83 -32 -85 -89 0
-42 -83 -43 -85 -89 0
-52 -83 -53 -85 -89 0
-61 -83 -62 -85 -89 0
-6 -84 -7 -85 -90 0
-19 -84 -20 -85 -90 0
-31 -84 -32 -85 -90 0
-42 -84 -43 -85 -90 0
-52 -84 -53 -85 -90 0
-61 -84 -62 -85 -90 0
-19 -7 -20 -85 -8 0
-31 -7 -32 -85 -8 0
-42 -7 -43 -85 -8 0
-52 -7 -53 -85 -8 0
-61 -7 -62 -85 -8 0
-31 -20 -32 -85 -21 0
-42 -20 -43 -85 -21 0
-52 -20 -53 -85 -21 0
-61 -20 -62 -85 -21 0
-42 -32 -43 -85 -33 0
-52 -32 -53 -85 -33 0
-61 -32 -62 -85 -33 0
-52 -43 -53 -85 -44 0
-61 -43 -62 -85 -44 0
-61 -53 -62 -85 -54 0
-75 -81 -82 -86 -87 0
-76 -81 -83 -86 -87 0
-77 -81 -84 -86 -87 0
-6 -81 -7 -86 -87 0
-19 -81 -20 -86 -87 0
-31 -81 -32 -86 -87 0
-42 -81 -43 -86 -87 0
-52 -81 -53 -86 -87 0
-61 -81 -62 -86 -87 0
-76 -82 -83 -86 -88 0
-77 -82 -84 -86 -88 0
-6 -82 -7 -86 -88 0
-19 -82 -20 -86 -88 0
-31 -82 -32 -86 -88 0
-42 -82 -43 -86 -88 0
-52 -82 -53 -86 -88 0
-61 -82 -62 -86 -88 0
-77 -83 -84 -86 -89 0
-6 -83 -7 -86 -89 0
-19 -83 -20 -86 -89 0
-31 -83 -32 -86 -89 0
-42 -83 -43 -86 -89 0
-52 -83 -53 -86 -89 0
-61 -83 -62 -86 -89 0
-6 -84 -7 -86 -90 0
-19 -84 -20 -86 -90 0
-31 -84 -32 -86 -90 0
-42 -84 -43 -86 -90 0
-52 -84 -53 -86 -90 0
-61 -84 -62 -86 -90 0
-19 -7 -20 -86 -8 0
-31 -7 -32 -86 -8 0
-42 -7 -43 -86 -8 0
-52 -7 -53 -86 -8 0
-61 -7 -62 -86 -8 0
-31 -20 -32 -86 -21 0
-42 -20 -43 -86 -21 0
-52 -20 -53 -86 -21 0
-61 -20 -62 -86 -21 0
-42 -32 -43 -86 -33 0
-52 -32 -53 -86 -33 0
-61 -32 -62 -86 -33 0
-52 -43 -53 -86 -44 0
-61 -43 -62 -86 -44 0
-61 -53 -62 -86 -54 0
-76 -82 -83 -87 -88 0
-77 -82 -84 -87 -88 0
-6 -82 -7 -87 -88 0
-19 -82 -20 -87 -88 0
-31 -82 -32 -87 -88 0
-42 -82 -43 -87 -88 0
-52 -82 -53 -87 -88 0
-61 -82 -62 -87 -88 0
-77 -83 -84 -87 -89 0
-6 -83 -7 -87 -89 0
-19 -83 -20 -87 -89 0
-31 -83 -32 -87 -89 0
-42 -83 -43 -87 -89 0
-52 -83 -53 -87 -89 0
-61 -83 -62 -87 -89 0
-6 -84 -7 -87 -90 0
-19 -84 -20 -87 -90 0
-31 -84 -32 -87 -90 0
-42 -84 -43 -87 -90 0
-52 -84 -53 -87 -90 0
-61 -84 -62 -87 -90 0
-19 -7 -20 -87 -8 0
-31 -7 -32 -87 -8 0
-42 -7 -43 -87 -8 0
-52 -7 -53 -87 -8 0
-61 -7 -62 -87 -8 0
-31 -20 -32 -87 -21 0
-42 -20 -43 -87 -21 0
-52 -20 -53 -87 -21 0
-61 -20 -62 -87 -21 0
-42 -32 -43 -87 -33 0
-52 -32 -53 -87 -33 0
-61 -32 -62 -87 -33 0
-52 -43 -53 -87 -44 0
-61 -43 -62 -87 -44 0
-61 -53 -62 -87 -54 0
-77 -83 -84 -88 -89 0
-6 -83 -7 -88 -89 0
-19 -83 -20 -88 -89 0
-31 -83 -32 -88 -89 0
-42 -83 -43 -88 -89 0
-52 -83 -53 -88 -89 0
-61 -83 -62 -88 -89 0
-6 -84 -7 -88 -90 0
-19 -84 -20 -88 -90 0
-31 -84 -32 -88 -90 0
-42 -84 -43 -88 -90 0
-52 -84 -53 -88 -90 0
-61 -84 -62 -88 -90 0
-19 -7 -20 -88 -8 0
-31 -7 -32 -88 -8 0
-42 -7 -43 -88 -8 0
-52 -7 -53 -88 -8 0
-61 -7 -62 -88 -8 0
-31 -20 -32 -88 -21 0
-42 -20 -43 -88 -21 0
-52 -20 -53 -88 -21 0
-61 -20 -62 -88 -21 0
-42 -32 -43 -88 -33 0
-52 -32 -53 -88 -33 0
-61 -32 -62 -88 -33 0
-52 -43 -53 -88 -44 0
-61 -43 -62 -88 -44 0
-61 -53 -62 -88 -54 0
-6 -84 -7 -89 -90 0
-19 -84 -20 -89 -90 0
-31 -84 -32 -89 -90 0
-42 -84 -43 -89 -90 0
-52 -84 -53 -89 -90 0
-61 -84 -62 -89 -90 0
-19 -7 -20 -89 -8 0
-31 -7 -32 -89 -8 0
-42 -7 -43 -89 -8 0
-52 -7 -53 -89 -8 0
-61 -7 -62 -89 -8 0
-31 -20 -32 -89 -21 0
-42 -20 -43 -89 -21 0
-52 -20 -53 -89 -21 0
-61 -20 -62 -89 -21 0
-42 -32 -43 -89 -33 0
-52 -32 -53 -89 -33 0
-61 -32 -62 -89 -33 0
-52 -43 -53 -89 -44 0
-61 -43 -62 -89 -44 0
-61 -53 -62 -89 -54 0
-19 -7 -20 -90 -8 0
-31 -7 -32 -90 -8 0
-42 -7 -43 -90 -8 0
-52 -7 -53 -90 -8 0
-61 -7 -62 -90 -8 0
-31 -20 -32 -90 -21 0
-42 -20 -43 -90 -21 0
-52 -20 -53 -90 -21 0
-61 -20 -62 -90 -21 0
-42 -32 -43 -90 -33 0
-52 -32 -53 -90 -33 0
-61 -32 -62 -90 -33 0
-52 -43 -53 -90 -44 0
-61 -43 -62 -90 -44 0
-61 -53 -62 -90 -54 0
-31 -20 -32 -8 -21 0
-42 -20 -43 -8 -21 0
-52 -20 -53 -8 -21 0
-61 -20 -62 -8 -21 0
-42 -32 -43 -8 -33 0
-52 -32 -53 -8 -33 0
-61 -32 -62 -8 -33 0
-52 -43 -53 -8 -44 0
-61 -43 -62 -8 -44 0
-61 -53 -62 -8 -54 0
-42 -32 -43 -21 -33 0
-52 -32 -53 -21 -33 0
-61 -32 -62 -21 -33 0
-52 -43 -53 -21 -44 0
-61 -43 -62 -21 -44 0
-61 -53 -62 -21 -54 0
-52 -43 -53 -33 -44 0
-61 -43 -62 -33 -44 0
-61 -53 -62 -33 -54 0
-61 -53 -62 -44 -54 0
-75 -81 -82 -91 -92 0
-76 -81 -83 -91 -92 0
-77 -81 -84 -91 -92 0
-6 -81 -7 -91 -92 0
-19 -81 -20 -91 -92 0
-31 -81 -32 -91 -92 0
-42 -81 -43 -91 -92 0
-52 -81 -53 -91 -92 0
-61 -81 -62 -91 -92 0
-76 -82 -83 -91 -93 0
-77 -82 -84 -91 -93 0
-6 -82 -7 -91 -93 0
-19 -82 -20 -91 -93 0
-31 -82 -32 -91 -93 0
-42 -82 -43 -91 -93 0
-52 -82 -53 -91 -93 0
-61 -82 -62 -91 -93 0
-77 -83 -84 -91 -94 0
-6 -83 -7 -91 -94 0
-19 -83 -20 -91 -94 0
-31 -83 -32 -91 -94 0
-42 -83 -43 -91 -94 0
-52 -83 -53 -91 -94 0
-61 -83 -62 -91 -94 0
-6 -84 -7 -91 -95 0
-19 -84 -20 -91 -95 0
-31 -84 -32 -91 -95 0
-42 -84 -43 -91 -95 0
-52 -84 -53 -91 -95 0
-61 -84 -62 -91 -95 0
-19 -7 -20 -91 -9 0
-31 -7 -32 -91 -9 0
-42 -7 -43 -91 -9 0
-52 -7 -53 -91 -9 0
-61 -7 -62 -91 -9 0
-31 -20 -32 -91 -22 0
-42 -20 -43 -91 -22 0
-52 -20 -53 -91 -22 0
-61 -20 -62 -91 -22 0
-42 -32 -43 -91 -34 0
-52 -32 -53 -91 -34 0
-61 -32 -62 -91 -34 0
-52 -43 -53 -91 -45 0
-61 -43 -62 -91 -45 0
-61 -53 -62 -91 -55 0
-76 -82 -83 -92 -93 0
-77 -82 -84 -92 -93 0
-6 -82 -7 -92 -93 0
-19 -82 -20 -92 -93 0
-31 -82 -32 -92 -93 0
-42 -82 -43 -92 -93 0
-52 -82 -53 -92 -93 0
-61 -82 -62 -92 -93 0
-77 -83 -84 -92 -94 0
-6 -83 -7 -92 -94 0
-19 -83 -20 -92 -94 0
-31 -83 -32 -92 -94 0
-42 -83 -43 -92 -94 0
-52 -83 -53 -92 -94 0
-61 -83 -62 -92 -94 0
-6 -84 -7 -92 -95 0
-19 -84 -20 -92 -95 0
-31 -84 -32 -92 -95 0
-42 -84 -43 -92 -95 0
-52 -84 -53 -92 -95 0
-61 -84 -62 -92 -95 0
-19 -7 -20 -92 -9 0
-31 -7 -32 -92 -9 0
-42 -7 -43 -92 -9 0
-52 -7 -53 -92 -9 0
-61 -7 -62 -92 -9 0
-31 -20 -32 -92 -22 0
-42 -20 -43 -92 -22 0
-52 -20 -53 -92 -22 0
-61 -20 -62 -92 -22 0
-42 -32 -43 -92 -34 0
-52 -32 -53 -92 -34 0
-61 -32 -62 -92 -34 0
-52 -43 -53 -92 -45 0
-61 -43 -62 -92 -45 0
-61 -53 -62 -92 -55 0
-77 -83 -84 -93 -94 0
-6 -83 -7 -93 -94 0
-19 -83 -20 -93 -94 0
-31 -83 -32 -93 -94 0
-42 -83 -43 -93 -94 0
-52 -83 -53 -93 -94 0
-61 -83 -62 -93 -94 0
-6 -84 -7 -93 -95 0
-19 -84 -20 -93 -95 0
-31 -84 -32 -93 -95 0
-42 -84 -43 -93 -95 0
-52 -84 -53 -93 -95 0
-61 -84 -62 -93 -95 0
-19 -7 -20 -93 -9 0
-31 -7 -32 -93 -9 0
-42 -7 -43 -93 -9 0
-52 -7 -53 -93 -9 0
-61 -7 -62 -93 -9 0
-31 -20 -32 -93 -22 0
-42 -20 -43 -93 -22 0
-52 -20 -53 -93 -22 0
-61 -20 -62 -93 -22 0
-42 -32 -43 -93 -34 0
-52 -32 -53 -93 -34 0
-61 -32 -62 -93 -34 0
-52 -43 -53 -93 -45 0
-61 -43 -62 -93 -45 0
-61 -53 -62 -93 -55 0
-6 -84 -7 -94 -95 0
-19 -84 -20 -94 -95 0
-31 -84 -32 -94 -95 0
-42 -84 -43 -94 -95 0
-52 -84 -53 -94 -95 0
-61 -84 -62 -94 -95 0
-19 -7 -20 -94 -9 0
-31 -7 -32 -94 -9 0
-42 -7 -43 -94 -9 0
-52 -7 -53 -94 -9 0
-61 -7 -62 -94 -9 0
-31 -20 -32 -94 -22 0
-42 -20 -43 -94 -22 0
-52 -20 -53 -94 -22 0
-61 -20 -62 -94 -22 0
-42 -32 -43 -94 -34 0
-52 -32 -53 -94 -34 0
-61 -32 -62 -94 -34 0
-52 -43 -53 -94 -45 0
-61 -43 -62 -94 -45 0
-61 -53 -62 -94 -55 0
-19 -7 -20 -95 -9 0
-31 -7 -32 -95 -9 0
-42 -7 -43 -95 -9 0
-52 -7 -53 -95 -9 0
-61 -7 -62 -95 -9 0
-31 -20 -32 -95 -22 0
-42 -20 -43 -95 -22 0
-52 -20 -53 -95 -22 0
-61 -20 -62 -95 -22 0
-42 -32 -43 -95 -34 0
-52 -32 -53 -95 -34 0
-61 -32 -62 -95 -34 0
-52 -43 -53 -95 -45 0
-61 -43 -62 -95 -45 0
-61 -53 -62 -95 -55 0
-31 -20 -32 -9 -22 0
-42 -20 -43 -9 -22 0
-52 -20 -53 -9 -22 0
-61 -20 -62 -9 -22 0
-42 -32 -43 -9 -34 0
-52 -32 -53 -9 -34 0
-61 -32 -62 -9 -34 0
-52 -43 -53 -9 -45 0
-61 -43 -62 -9 -45 0
-61 -53 -62 -9 -55 0
-42 -32 -43 -22 -34 0
-52 -32 -53 -22 -34 0
-61 -32 -62 -22 -34 0
-52 -43 -53 -22 -45 0
-61 -43 -62 -22 -45 0
-61 -53 -62 -22 -55 0
-52 -43 -53 -34 -45 0
-61 -43 -62 -34 -45 0
-61 -53 -62 -34 -55 0
-61 -53 -62 -45 -55 0
-76 -82 -83 -96 -97 0
-77 -82 -84 -96 -97 0
-6 -82 -7 -96 -97 0
-19 -82 -20 -96 -97 0
-31 -82 -32 -96 -97 0
-42 -82 -43 -96 -97 0
-52 -82 -53 -96 -97 0
-61 -82 -62 -96 -97 0
-77 -83 -84 -96 -98 0
-6 -83 -7 -96 -98 0
-19 -83 -20 -96 -98 0
-31 -83 -32 -96 -98 0
-42 -83 -43 -96 -98 0
-52 -83 -53 -96 -98 0
-61 -83 -62 -96 -98 0
-6 -84 -7 -96 -99 0
-19 -84 -20 -96 -99 0
-31 -84 -32 -96 -99 0
-42 -84 -43 -96 -99 0
-52 -84 -53 -96 -99 0
-61 -84 -62 -96 -99 0
-19 -7 -20 -96 -10 0
-31 -7 -32 -96 -10 0
-42 -7 -43 -96 -10 0
-52 -7 -53 -96 -10 0
-61 -7 -62 -96 -10 0
-31 -20 -32 -96 -23 0
-42 -20 -43 -96 -23 0
-52 -20 -53 -96 -23 0
-61 -20 -62 -96 -23 0
-42 -32 -43 -96 -35 0
-52 -32 -53 -96 -35 0
-61 -32 -62 -96 -35 0
-52 -43 -53 -96 -46 0
-61 -43 -62 -96 -46 0
-61 -53 -62 -96 -56 0
-77 -83 -84 -97 -98 0
-6 -83 -7 -97 -98 0
-19 -83 -20 -97 -98 0
-31 -83 -32 -97 -98 0
-42 -83 -43 -97 -98 0
-52 -83 -53 -97 -98 0
-61 -83 -62 -97 -98 0
-6 -84 -7 -97 -99 0
-19 -84 -20 -97 -99 0
-31 -84 -32 -97 -99 0
-42 -84 -43 -97 -99 0
-52 -84 -53 -97 -99 0
-61 -84 -62 -97 -99 0
-19 -7 -20 -97 -10 0
-31 -7 -32 -97 -10 0
-42 -7 -43 -97 -10 0
-52 -7 -53 -97 -10 0
-61 -7 -62 -97 -10 0
-31 -20 -32 -97 -23 0
-42 -20 -43 -97 -23 0
-52 -20 -53 -97 -23 0
-61 -20 -62 -97 -23 0
-42 -32 -43 -97 -35 0
-52 -32 -53 -97 -35 0
-61 -32 -62 -97 -35 0
-52 -43 -53 -97 -46 0
-61 -43 -62 -97 -46 0
-61 -53 -62 -97 -56 0
-6 -84 -7 -98 -99 0
-19 -84 -20 -98 -99 0
-31 -84 -32 -98 -99 0
-42 -84 -43 -98 -99 0
-52 -84 -53 -98 -99 0
-61 -84 -62 -98 -99 0
-19 -7 -20 -98 -10 0
-31 -7 -32 -98 -10 0
-42 -7 -43 -98 -10 0
-52 -7 -53 -98 -10 0
-61 -7 -62 -98 -10 0
-31 -20 -32 -98 -23 0
-42 -20 -43 -98 -23 0
-52 -20 -53 -98 -23 0
-61 -20 -62 -98 -23 0
-42 -32 -43 -98 -35 0
-52 -32 -53 -98 -35 0
-61 -32 -62 -98 -35 0
-52 -43 -53 -98 -46 0
-61 -43 -62 -98 -46 0
-61 -53 -62 -98 -56 0
-19 -7 -20 -99 -10 0
-31 -7 -32 -99 -10 0
-42 -7 -43 -99 -10 0
-52 -7 -53 -99 -10 0
-61 -7 -62 -99 -10 0
-31 -20 -32 -99 -23 0
-42 -20 -43 -99 -23 0
-52 -20 -53 -99 -23 0
-61 -20 -62 -99 -23 0
-42 -32 -43 -99 -35 0
-52 -32 -53 -99 -35 0
-61 -32 -62 -99 -35 0
-52 -43 -53 -99 -46 0
-61 -43 -62 -99 -46 0
-61 -53 -62 -99 -56 0
-31 -20 -32 -10 -23 0
-42 -20 -43 -10 -23 0
-52 -20 -53 -10 -23 0
-61 -20 -62 -10 -23 0
-42 -32 -43 -10 -35 0
-52 -32 -53 -10 -35 0
-61 -32 -62 -10 -35 0
-52 -43 -53 -10 -46 0
-61 -43 -62 -10 -46 0
-61 -53 -62 -10 -56 0
-42 -32 -43 -23 -35 0
-52 -32 -53 -23 -35 0
-61 -32 -62 -23 -35 0
-52 -43 -53 -23 -46 0
-61 -43 -62 -23 -46 0
-61 -53 -62 -23 -56 0
-52 -43 -53 -35 -46 0
-61 -43 -62 -35 -46 0
-61 -53 -62 -35 -56 0
-61 -53 -62 -46 -56 0
-77 -83 -84 -100 -101 0
-6 -83 -7 -100 -101 0
-19 -83 -20 -100 -101 0
-31 -83 -32 -100 -101 0
-42 -83 -43 -100 -101 0
-52 -83 -53 -100 -101 0
-61 -83 -62 -100 -101 0
-6 -84 -7 -100 -102 0
-19 -84 -20 -100 -102 0
-31 -84 -32 -100 -102 0
-42 -84 -43 -100 -102 0
-52 -84 -53 -100 -102 0
-61 -84 -62 -100 -102 0
-19 -7 -20 -100 -11 0
-31 -7 -32 -100 -11 0
-42 -7 -43 -100 -11 0
-52 -7 -53 -100 -11 0
-61 -7 -62 -100 -11 0
-31 -20 -32 -100 -24 0
-42 -20 -43 -100 -24 0
-52 -20 -53 -100 -24 0
-61 -20 -62 -100 -24 0
-42 -32 -43 -100 -36 0
-52 -32 -53 -100 -36 0
-61 -32 -62 -100 -36 0
-52 -43 -53 -100 -47 0
-61 -43 -62 -100 -47 0
-61 -53 -62 -100 -57 0
-6 -84 -7 -101 -102 0
-19 -84 -20 -101 -102 0
-31 -84 -32 -101 -102 0
-42 -84 -43 -101 -102 0
-52 -84 -53 -101 -102 0
-61 -84 -62 -101 -102 0
-19 -7 -20 -101 -11 0
-31 -7 -32 -101 -11 0
-42 -7 -43 -101 -11 0
-52 -7 -53 -101 -11 0
-61 -7 -62 -101 -11 0
-31 -20 -32 -101 -24 0
-42 -20 -43 -101 -24 0
-52 -20 -53 -101 -24 0
-61 -20 -62 -101 -24 0
-42 -32 -43 -101 -36 0
-52 -32 -53 -101 -36 0
-61 -32 -62 -101 -36 0
-52 -43 -53 -101 -47 0
-61 -43 -62 -101 -47 0
-61 -53 -62 -101 -57 0
-19 -7 -20 -102 -11 0
-31 -7 -32 -102 -11 0
-42 -7 -43 -102 -11 0
-52 -7 -53 -102 -11 0
-61 -7 -62 -102 -11 0
-31 -20 -32 -102 -24 0
-42 -20 -43 -102 -24 0
-52 -20 -53 -102 -24 0
-61 -20 -62 -102 -24 0
-42 -32 -43 -102 -36 0
-52 -32 -53 -102 -36 0
-61 -32 -62 -102 -36 0
-52 -43 -53 -102 -47 0
-61 -43 -62 -102 -47 0
-61 -53 -62 -102 -57 0
-31 -20 -32 -11 -24 0
-42 -20 -43 -11 -24 0
-52 -20 -53 -11 -24 0
-61 -20 -62 -11 -24 0
-42 -32 -43 -11 -36 0
-52 -32 -53 -11 -36 0
-61 -32 -62 -11 -36 0
-52 -43 -53 -11 -47 0
-61 -43 -62 -11 -47 0
-61 -53 -62 -11 -57 0
-42 -32 -43 -24 -36 0
-52 -32 -53 -24 -36 0
-61 -32 -62 -24 -36 0
-52 -43 -53 -24 -47 0
-61 -43 -62 -24 -47 0
-61 -53 -62 -24 -57 0
-52 -43 -53 -36 -47 0
-61 -43 -62 -36 -47 0
-61 -53 -62 -36 -57 0
-61 -53 -62 -47 -57 0
-6 -84 -7 -103 -104 0
-19 -84 -20 -103 -104 0
-31 -84 -32 -103 -104 0
-42 -84 -43 -103 -104 0
-52 -84 -53 -103 -104 0
-61 -84 -62 -103 -104 0
-19 -7 -20 -103 -12 0
-31 -7 -32 -103 -12 0
-42 -7 -43 -103 -12 0
-52 -7 -53 -103 -12 0
-61 -7 -62 -103 -12 0
-31 -20 -32 -103 -25 0
-42 -20 -43 -103 -25 0
-52 -20 -53 -103 -25 0
-61 -20 -62 -103 -25 0
-42 -32 -43 -103 -37 0
-52 -32 -53 -103 -37 0
-61 -32 -62 -103 -37 0
-52 -43 -53 -103 -48 0
-61 -43 -62 -103 -48 0
-61 -53 -62 -103 -58 0
-19 -7 -20 -104 -12 0
-31 -7 -32 -104 -12 0
-42 -7 -43 -104 -12 0
-52 -7 -53 -104 -12 0
-61 -7 -62 -104 -12 0
-31 -20 -32 -104 -25 0
-42 -20 -43 -104 -25 0
-52 -20 -53 -104 -25 0
-61 -20 -62 -104 -25 0
-42 -32 -43 -104 -37 0
-52 -32 -53 -104 -37 0
-61 -32 -62 -104 -37 0
-52 -43 -53 -104 -48 0
-61 -43 -62 -104 -48 0
-61 -53 -62 -104 -58 0
-31 -20 -32 -12 -25 0
-42 -20 -43 -12 -25 0
-52 -20 -53 -12 -25 0
-61 -20 -62 -12 -25 0
-42 -32 -43 -12 -37 0
-52 -32 -53 -12 -37 0
-61 -32 -62 -12 -37 0
-52 -43 -53 -12 -48 0
-61 -43 -62 -12 -48 0
-61 -53 -62 -12 -58 0
-42 -32 -43 -25 -37 0
-52 -32 -53 -25 -37 0
-61 -32 -62 -25 -37 0
-52 -43 -53 -25 -48 0
-61 -43 -62 -25 -48 0
-61 -53 -62 -25 -58 0
-52 -43 -53 -37 -48 0
-61 -43 -62 -37 -48 0
-61 -53 -62 -37 -58 0
-61 -53 -62 -48 -58 0
-19 -7 -20 -105 -13 0
-31 -7 -32 -105 -13 0
-42 -7 -43 -105 -13 0
-52 -7 -53 -105 -13 0
-61 -7 -62 -105 -13 0
-31 -20 -32 -105 -26 0
-42 -20 -43 -105 -26 0
-52 -20 -53 -105 -26 0
-61 -20 -62 -105 -26 0
-42 -32 -43 -105 -38 0
-52 -32 -53 -105 -38 0
-61 -32 -62 -105 -38 0
-52 -43 -53 -105 -49 0
-61 -43 -62 -105 -49 0
-61 -53 -62 -105 -59 0
-31 -20 -32 -13 -26 0
-42 -20 -43 -13 -26 0
-52 -20 -53 -13 -26 0
-61 -20 -62 -13 -26 0
-42 -32 -43 -13 -38 0
-52 -32 -53 -13 -38 0
-61 -32 -62 -13 -38 0
-52 -43 -53 -13 -49 0
-61 -43 -62 -13 -49 0
-61 -53 -62 -13 -59 0
-42 -32 -43 -26 -38 0
-52 -32 -53 -26 -38 0
-61 -32 -62 -26 -38 0
-52 -43 -53 -26 -49 0
-61 -43 -62 -26 -49 0
-61 -53 -62 -26 -59 0
-52 -43 -53 -38 -49 0
-61 -43 -62 -38 -49 0
-61 -53 -62 -38 -59 0
-61 -53 -62 -49 -59 0
-31 -20 -32 -14 -27 0
-42 -20 -43 -14 -27 0
-52 -20 -53 -14 -27 0
-61 -20 -62 -14 -27 0
-42 -32 -43 -14 -39 0
-52 -32 -53 -14 -39 0
-61 -32 -62 -14 -39 0
-52 -43 -53 -14 -50 0
-61 -43 -62 -14 -50 0
-61 -53 -62 -14 -60 0
-42 -32 -43 -27 -39 0
-52 -32 -53 -27 -39 0
-61 -32 -62 -27 -39 0
-52 -43 -53 -27 -50 0
-61 -43 -62 -27 -50 0
-61 -53 -62 -27 -60 0
-52 -43 -53 -39 -50 0
-61 -43 -62 -39 -50 0
-61 -53 -62 -39 -60 0
-61 -53 -62 -50 -60 0
-42 -32 -43 -1 -2 0
-52 -32 -53 -1 -2 0
-61 -32 -62 -1 -2 0
-52 -43 -53 -1 -3 0
-61 -43 -62 -1 -3 0
-61 -53 -62 -1 -4 0
-52 -43 -53 -2 -3 0
-61 -43 -62 -2 -3 0
-61 -53 -62 -2 -4 0
-61 -53 -62 -3 -4 0
-52 -43 -53 -15 -16 0
-61 -43 -62 -15 -16 0
-61 -53 -62 -15 -17 0
-61 -53 -62 -16 -17 0
-61 -53 -62 -28 -29 0
-75 -87 -88 -91 -92 0
-76 -87 -89 -91 -92 0
-77 -87 -90 -91 -92 0
-6 -87 -8 -91 -92 0
-19 -87 -21 -91 -92 0
-31 -87 -33 -91 -92 0
-42 -87 -44 -91 -92 0
-52 -87 -54 -91 -92 0
-61 -87 -63 -91 -92 0
-76 -88 -89 -91 -93 0
-77 -88 -90 -91 -93 0
-6 -88 -8 -91 -93 0
-19 -88 -21 -91 -93 0
-31 -88 -33 -91 -93 0
-42 -88 -44 -91 -93 0
-52 -88 -54 -91 -93 0
-61 -88 -63 -91 -93 0
-77 -89 -90 -91 -94 0
-6 -89 -8 -91 -94 0
-19 -89 -21 -91 -94 0
-31 -89 -33 -91 -94 0
-42 -89 -44 -91 -94 0
-52 -89 -54 -91 -94 0
-61 -89 -63 -91 -94 0
-6 -90 -8 -91 -95 0
-19 -90 -21 -91 -95 0
-31 -90 -33 -91 -95 0
-42 -90 -44 -91 -95 0
-52 -90 -54 -91 -95 0
-61 -90 -63 -91 -95 0
-19 -8 -21 -91 -9 0
-31 -8 -33 -91 -9 0
-42 -8 -44 -91 -9 0
-52 -8 -54 -91 -9 0
-61 -8 -63 -91 -9 0
-31 -21 -33 -91 -22 0
-42 -21 -44 -91 -22 0
-52 -21 -54 -91 -22 0
-61 -21 -63 -91 -22 0
-42 -33 -44 -91 -34 0
-52 -33 -54 -91 -34 0
-61 -33 -63 -91 -34 0
-52 -44 -54 -91 -45 0
-61 -44 -63 -91 -45 0
-61 -54 -63 -91 -55 0
-76 -88 -89 -92 -93 0
-77 -88 -90 -92 -93 0
-6 -88 -8 -92 -93 0
-19 -88 -21 -92 -93 0
-31 -88 -33 -92 -93 0
-42 -88 -44 -92 -93 0
-52 -88 -54 -92 -93 0
-61 -88 -63 -92 -93 0
-77 -89 -90 -92 -94 0
-6 -89 -8 -92 -94 0
-19 -89 -21 -92 -94 0
-31 -89 -33 -92 -94 0
-42 -89 -44 -92 -94 0
-52 -89 -54 -92 -94 0
-61 -89 -63 -92 -94 0
-6 -90 -8 -92 -95 0
-19 -90 -21 -92 -95 0
-31 -90 -33 -92 -95 0
-42 -90 -44 -92 -95 0
-52 -90 -54 -92 -95 0
-61 -90 -63 -92 -95 0
-19 -8 -21 -92 -9 0
-31 -8 -33 -92 -9 0
-42 -8 -44 -92 -9 0
-52 -8 -54 -92 -9 0
-61 -8 -63 -92 -9 0
-31 -21 -33 -92 -22 0
-42 -21 -44 -92 -22 0
-52 -21 -54 -92 -22 0
-61 -21 -63 -92 -22 0
-42 -33 -44 -92 -34 0
-52 -33 -54 -92 -34 0
-61 -33 -63 -92 -34 0
-52 -44 -54 -92 -45 0
-61 -44 -63 -92 -45 0
-61 -54 -63 -92 -55 0
-77 -89 -90 -93 -94 0
-6 -89 -8 -93 -94 0
-19 -89 -21 -93 -94 0
-31 -89 -33 -93 -94 0
-42 -89 -44 -93 -94 0
-52 -89 -54 -93 -94 0
-61 -89 -63 -93 -94 0
-6 -90 -8 -93 -95 0
-19 -90 -21 -93 -95 0
-31 -90 -33 -93 -95 0
-42 -90 -44 -93 -95 0
-52 -90 -54 -93 -95 0
-61 -90 -63 -93 -95 0
-19 -8 -21 -93 -9 0
-31 -8 -33 -93 -9 0
-42 -8 -44 -93 -9 0
-52 -8 -54 -93 -9 0
-61 -8 -63 -93 -9 0
-31 -21 -33 -93 -22 0
-42 -21 -44 -93 -22 0
-52 -21 -54 -93 -22 0
-61 -21 -63 -93 -22 0
-42 -33 -44 -93 -34 0
-52 -33 -54 -93 -34 0
-61 -33 -63 -93 -34 0
-52 -44 -54 -93 -45 0
-61 -44 -63 -93 -45 0
-61 -54 -63 -93 -55 0
-6 -90 -8 -94 -95 0
-19 -90 -21 -94 -95 0
-31 -90 -33 -94 -95 0
-42 -90 -44 -94 -95 0
-52 -90 -54 -94 -95 0
-61 -90 -63 -94 -95 0
-19 -8 -21 -94 -9 0
-31 -8 -33 -94 -9 0
-42 -8 -44 -94 -9 0
-52 -8 -54 -94 -9 0
-61 -8 -63 -94 -9 0
-31 -21 -33 -94 -22 0
-42 -21 -44 -94 -22 0
-52 -21 -54 -94 -22 0
-61 -21 -63 -94 -22 0
-42 -33 -44 -94 -34 0
-52 -33 -54 -94 -34 0
-61 -33 -63 -94 -34 0
-52 -44 -54 -94 -45 0
-61 -44 -63 -94 -45 0
-61 -54 -63 -94 -55 0
-19 -8 -21 -95 -9 0
-31 -8 -33 -95 -9 0
-42 -8 -44 -95 -9 0
-52 -8 -54 -95 -9 0
-61 -8 -63 -95 -9 0
-31 -21 -33 -95 -22 0
-42 -21 -44 -95 -22 0
-52 -21 -54 -95 -22 0
-61 -21 -63 -95 -22 0
-42 -33 -44 -95 -34 0
-52 -33 -54 -95 -34 0
-61 -33 -63 -95 -34 0
-52 -44 -54 -95 -45 0
-61 -44 -63 -95 -45 0
-61 -54 -63 -95 -55 0
-31 -21 -33 -9 -22 0
-42 -21 -44 -9 -22 0
-52 -21 -54 -9 -22 0
-61 -21 -63 -9 -22 0
-42 -33 -44 -9 -34 0
-52 -33 -54 -9 -34 0
-61 -33 -63 -9 -34 0
-52 -44 -54 -9 -45 0
-61 -44 -63 -9 -45 0
-61 -54 -63 -9 -55 0
-42 -33 -44 -22 -34 0
-52 -33 -54 -22 -34 0
-61 -33 -63 -22 -34 0
-52 -44 -54 -22 -45 0
-61 -44 -63 -22 -45 0
-61 -54 -63 -22 -55 0
-52 -44 -54 -34 -45 0
-61 -44 -63 -34 -45 0
-61 -54 -63 -34 -55 0
-61 -54 -63 -45 -55 0
-76 -88 -89 -96 -97 0
-77 -88 -90 -96 -97 0
-6 -88 -8 -96 -97 0
-19 -88 -21 -96 -97 0
-31 -88 -33 -96 -97 0
-42 -88 -44 -96 -97 0
-52 -88 -54 -96 -97 0
-61 -88 -63 -96 -97 0
-77 -89 -90 -96 -98 0
-6 -89 -8 -96 -98 0
-19 -89 -21 -96 -98 0
-31 -89 -33 -96 -98 0
-42 -89 -44 -96 -98 0
-52 -89 -54 -96 -98 0
-61 -89 -63 -96 -98 0
-6 -90 -8 -96 -99 0
-19 -90 -21 -96 -99 0
-31 -90 -33 -96 -99 0
-42 -90 -44 -96 -99 0
-52 -90 -54 -96 -99 0
-61 -90 -63 -96 -99 0
-19 -8 -21 -96 -10 0
-31 -8 -33 -96 -10 0
-42 -8 -44 -96 -10 0
-52 -8 -54 -96 -10 0
-61 -8 -63 -96 -10 0
-31 -21 -33 -96 -23 0
-42 -21 -44 -96 -23 0
-52 -21 -54 -96 -23 0
-61 -21 -63 -96 -23 0
-42 -33 -44 -96 -35 0
-52 -33 -54 -96 -35 0
-61 -33 -63 -96 -35 0
-52 -44 -54 -96 -46 0
-61 -44 -63 -96 -46 0
-61 -54 -63 -96 -56 0
-77 -89 -90 -97 -98 0
-6 -89 -8 -97 -98 0
-19 -89 -21 -97 -98 0
-31 -89 -33 -97 -98 0
-42 -89 -44 -97 -98 0
-52 -89 -54 -97 -98 0
-61 -89 -63 -97 -98 0
-6 -90 -8 -97 -99 0
-19 -90 -21 -97 -99 0
-31 -90 -33 -97 -99 0
-42 -90 -44 -97 -99 0
-52 -90 -54 -97 -99 0
-61 -90 -63 -97 -99 0
-19 -8 -21 -97 -10 0
-31 -8 -33 -97 -10 0
-42 -8 -44 -97 -10 0
-52 -8 -54 -97 -10 0
-61 -8 -63 -97 -10 0
-31 -21 -33 -97 -23 0
-42 -21 -44 -97 -23 0
-52 -21 -54 -97 -23 0
-61 -21 -63 -97 -23 0
-42 -33 -44 -97 -35 0
-52 -33 -54 -97 -35 0
-61 -33 -63 -97 -35 0
-52 -44 -54 -97 -46 0
-61 -44 -63 -97 -46 0
-61 -54 -63 -97 -56 0
-6 -90 -8 -98 -99 0
-19 -90 -21 -98 -99 0
-31 -90 -33 -98 -99 0
-42 -90 -44 -98 -99 0
-52 -90 -54 -98 -99 0
-61 -90 -63 -98 -99 0
-19 -8 -21 -98 -10 0
-31 -8 -33 -98 -10 0
-42 -8 -44 -98 -10 0
-52 -8 -54 -98 -10 0
-61 -8 -63 -98 -10 0
-31 -21 -33 -98 -23 0
-42 -21 -44 -98 -23 0
-52 -21 -54 -98 -23 0
-61 -21 -63 -98 -23 0
-42 -33 -44 -98 -35 0
-52 -33 -54 -98 -35 0
-61 -33 -63 -98 -35 0
-52 -44 -54 -98 -46 0
-61 -44 -63 -98 -46 0
-61 -54 -63 -98 -56 0
-19 -8 -21 -99 -10 0
-31 -8 -33 -99 -10 0
-42 -8 -44 -99 -10 0
-52 -8 -54 -99 -10 0
-61 -8 -63 -99 -10 0
-31 -21 -33 -99 -23 0
-42 -21 -44 -99 -23 0
-52 -21 -54 -99 -23 0
-61 -21 -63 -99 -23 0
-42 -33 -44 -99 -35 0
-52 -33 -54 -99 -35 0
-61 -33 -63 -99 -35 0
-52 -44 -54 -99 -46 0
-61 -44 -63 -99 -46 0
-61 -54 -63 -99 -56 0
-31 -21 -33 -10 -23 0
-42 -21 -44 -10 -23 0
-52 -21 -54 -10 -23 0
-61 -21 -63 -10 -23 0
-42 -33 -44 -10 -35 0
-52 -33 -54 -10 -35 0
-61 -33 -63 -10 -35 0
-52 -44 -54 -10 -46 0
-61 -44 -63 -10 -46 0
-61 -54 -63 -10 -56 0
-42 -33 -44 -23 -35 0
-52 -33 -54 -23 -35 0
-61 -33 -63 -23 -35 0
-52 -44 -54 -23 -46 0
-61 -44 -63 -23 -46 0
-61 -54 -63 -23 -56 0
-52 -44 -54 -35 -46 0
-61 -44 -63 -35 -46 0
-61 -54 -63 -35 -56 0
-61 -54 -63 -46 -56 0
-77 -89 -90 -100 -101 0
-6 -89 -8 -100 -101 0
-19 -89 -21 -100 -101 0
-31 -89 -33 -100 -101 0
-42 -89 -44 -100 -101 0
-52 -89 -54 -100 -101 0
-61 -89 -63 -100 -101 0
-6 -90 -8 -100 -102 0
-19 -90 -21 -100 -102 0
-31 -90 -33 -100 -102 0
-42 -90 -44 -100 -102 0
-52 -90 -54 -100 -102 0
-61 -90 -63 -100 -102 0
-19 -8 -21 -100 -11 0
-31 -8 -33 -100 -11 0
-42 -8 -44 -100 -11 0
-52 -8 -54 -100 -11 0
-61 -8 -63 -100 -11 0
-31 -21 -33 -100 -24 0
-42 -21 -44 -100 -24 0
-52 -21 -54 -100 -24 0
-61 -21 -63 -100 -24 0
-42 -33 -44 -100 -36 0
-52 -33 -54 -100 -36 0
-61 -33 -63 -100 -36 0
-52 -44 -54 -100 -47 0
-61 -44 -63 -100 -47 0
-61 -54 -63 -100 -57 0
-6 -90 -8 -101 -102 0
-19 -90 -21 -101 -102 0
-31 -90 -33 -101 -102 0
-42 -90 -44 -101 -102 0
-52 -90 -54 -101 -102 0
-61 -90 -63 -101 -102 0
-19 -8 -21 -101 -11 0
-31 -8 -33 -101 -11 0
-42 -8 -44 -101 -11 0
-52 -8 -54 -101 -11 0
-61 -8 -63 -101 -11 0
-31 -21 -33 -101 -24 0
-42 -21 -44 -101 -24 0
-52 -21 -54 -101 -24 0
-61 -21 -63 -101 -24 0
-42 -33 -44 -101 -36 0
-52 -33 -54 -101 -36 0
-61 -33 -63 -101 -36 0
-52 -44 -54 -101 -47 0
-61 -44 -63 -101 -47 0
-61 -54 -63 -101 -57 0
-19 -8 -21 -102 -11 0
-31 -8 -33 -102 -11 0
-42 -8 -44 -102 -11 0
-52 -8 -54 -102 -11 0
-61 -8 -63 -102 -11 0
-31 -21 -33 -102 -24 0
-42 -21 -44 -102 -24 0
-52 -21 -54 -102 -24 0
-61 -21 -63 -102 -24 0
-42 -33 -44 -102 -36 0
-52 -33 -54 -102 -36 0
-61 -33 -63 -102 -36 0
-52 -44 -54 -102 -47 0
-61 -44 -63 -102 -47 0
-61 -54 -63 -102 -57 0
-31 -21 -33 -11 -24 0
-42 -21 -44 -11 -24 0
-52 -21 -54 -11 -24 0
-61 -21 -63 -11 -24 0
-42 -33 -44 -11 -36 0
-52 -33 -54 -11 -36 0
-61 -33 -63 -11 -36 0
-52 -44 -54 -11 -47 0
-61 -44 -63 -11 -47 0
-61 -54 -63 -11 -57 0
-42 -33 -44 -24 -36 0
-52 -33 -54 -24 -36 0
-61 -33 -63 -24 -36 0
-52 -44 -54 -24 -47 0
-61 -44 -63 -24 -47 0
-61 -54 -63 -24 -57 0
-52 -44 -54 -36 -47 0
-61 -44 -63 -36 -47 0
-61 -54 -63 -36 -57 0
-61 -54 -63 -47 -57 0
-6 -90 -8 -103 -104 0
-19 -90 -21 -103 -104 0
-31 -90 -33 -103 -104 0
-42 -90 -44 -103 -104 0
-52 -90 -54 -103 -104 0
-61 -90 -63 -103 -104 0
-19 -8 -21 -103 -12 0
-31 -8 -33 -103 -12 0
-42 -8 -44 -103 -12 0
-52 -8 -54 -103 -12 0
-61 -8 -63 -103 -12 0
-31 -21 -33 -103 -25 0
-42 -21 -44 -103 -25 0
-52 -21 -54 -103 -25 0
-61 -21 -63 -103 -25 0
-42 -33 -44 -103 -37 0
-52 -33 -54 -103 -37 0
-61 -33 -63 -103 -37 0
-52 -44 -54 -103 -48 0
-61 -44 -63 -103 -48 0
-61 -54 -63 -103 -58 0
-19 -8 -21 -104 -12 0
-31 -8 -33 -104 -12 0
-42 -8 -44 -104 -12 0
-52 -8 -54 -104 -12 0
-61 -8 -63 -104 -12 0
-31 -21 -33 -104 -25 0
-42 -21 -44 -104 -25 0
-52 -21 -54 -104 -25 0
-61 -21 -63 -104 -25 0
-42 -33 -44 -104 -37 0
-52 -33 -54 -104 -37 0
-61 -33 -63 -104 -37 0
-52 -44 -54 -104 -48 0
-61 -44 -63 -104 -48 0
-61 -54 -63 -104 -58 0
-31 -21 -33 -12 -25 0
-42 -21 -44 -12 -25 0
-52 -21 -54 -12 -25 0
-61 -21 -63 -12 -25 0
-42 -33 -44 -12 -37 0
-52 -33 -54 -12 -37 0
-61 -33 -63 -12 -37 0
-52 -44 -54 -12 -48 0
-61 -44 -63 -12 -48 0
-61 -54 -63 -12 -58 0
-42 -33 -44 -25 -37 0
-52 -33 -54 -25 -37 0
-61 -33 -63 -25 -37 0
-52 -44 -54 -25 -48 0
-61 -44 -63 -25 -48 0
-61 -54 -63 -25 -58 0
-52 -44 -54 -37 -48 0
-61 -44 -63 -37 -48 0
-61 -54 -63 -37 -58 0
-61 -54 -63 -48 -58 0
-19 -8 -21 -105 -13 0
-31 -8 -33 -105 -13 0
-42 -8 -44 -105 -13 0
-52 -8 -54 -105 -13 0
-61 -8 -63 -105 -13 0
-31 -21 -33 -105 -26 0
-42 -21 -44 -105 -26 0
-52 -21 -54 -105 -26 0
-61 -21 -63 -105 -26 0
-42 -33 -44 -105 -38 0
-52 -33 -54 -105 -38 0
-61 -33 -63 -105 -38 0
-52 -44 -54 -105 -49 0
-61 -44 -63 -105 -49 0
-61 -54 -63 -105 -59 0
-31 -21 -33 -13 -26 0
-42 -21 -44 -13 -26 0
-52 -21 -54 -13 -26 0
-61 -21 -63 -13 -26 0
-42 -33 -44 -13 -38 0
-52 -33 -54 -13 -38 0
-61 -33 -63 -13 -38 0
-52 -44 -54 -13 -49 0
-61 -44 -63 -13 -49 0
-61 -54 -63 -13 -59 0
-42 -33 -44 -26 -38 0
-52 -33 -54 -26 -38 0
-61 -33 -63 -26 -38 0
-52 -44 -54 -26 -49 0
-61 -44 -63 -26 -49 0
-61 -54 -63 -26 -59 0
-52 -44 -54 -38 -49 0
-61 -44 -63 -38 -49 0
-61 -54 -63 -38 -59 0
-61 -54 -63 -49 -59 0
-31 -21 -33 -14 -27 0
-42 -21 -44 -14 -27 0
-52 -21 -54 -14 -27 0
-61 -21 -63 -14 -27 0
-42 -33 -44 -14 -39 0
-52 -33 -54 -14 -39 0
-61 -33 -63 -14 -39 0
-52 -44 -54 -14 -50 0
-61 -44 -63 -14 -50 0
-61 -54 -63 -14 -60 0
-42 -33 -44 -27 -39 0
-52 -33 -54 -27 -39 0
-61 -33 -63 -27 -39 0
-52 -44 -54 -27 -50 0
-61 -44 -63 -27 -50 0
-61 -54 -63 -27 -60 0
-52 -44 -54 -39 -50 0
-61 -44 -63 -39 -50 0
-61 -54 -63 -39 -60 0
-61 -54 -63 -50 -60 0
-42 -33 -44 -1 -2 0
-52 -33 -54 -1 -2 0
-61 -33 -63 -1 -2 0
-52 -44 -54 -1 -3 0
-61 -44 -63 -1 -3 0
-61 -54 -63 -1 -4 0
-52 -44 -54 -2 -3 0
-61 -44 -63 -2 -3 0
-61 -54 -63 -2 -4 0
-61 -54 -63 -3 -4 0
-52 -44 -54 -15 -16 0
-61 -44 -63 -15 -16 0
-61 -54 -63 -15 -17 0
-61 -54 -63 -16 -17 0
-61 -54 -63 -28 -29 0
-76 -93 -94 -96 -97 0
-77 -93 -95 -96 -97 0
-6 -93 -9 -96 -97 0
-19 -93 -22 -96 -97 0
-31 -93 -34 -96 -97 0
-42 -93 -45 -96 -97 0
-52 -93 -55 -96 -97 0
-61 -93 -64 -96 -97 0
-77 -94 -95 -96 -98 0
-6 -94 -9 -96 -98 0
-19 -94 -22 -96 -98 0
-31 -94 -34 -96 -98 0
-42 -94 -45 -96 -98 0
-52 -94 -55 -96 -98 0
-61 -94 -64 -96 -98 0
-6 -95 -9 -96 -99 0
-19 -95 -22 -96 -99 0
-31 -95 -34 -96 -99 0
-42 -95 -45 -96 -99 0
-52 -95 -55 -96 -99 0
-61 -95 -64 -96 -99 0
-19 -9 -22 -96 -10 0
-31 -9 -34 -96 -10 0
-42 -9 -45 -96 -10 0
-52 -9 -55 -96 -10 0
-61 -9 -64 -96 -10 0
-31 -22 -34 -96 -23 0
-42 -22 -45 -96 -23 0
-52 -22 -55 -96 -23 0
-61 -22 -64 -96 -23 0
-42 -34 -45 -96 -35 0
-52 -34 -55 -96 -35 0
-61 -34 -64 -96 -35 0
-52 -45 -55 -96 -46 0
-61 -45 -64 -96 -46 0
-61 -55 -64 -96 -56 0
-77 -94 -95 -97 -98 0
-6 -94 -9 -97 -98 0
-19 -94 -22 -97 -98 0
-31 -94 -34 -97 -98 0
-42 -94 -45 -97 -98 0
-52 -94 -55 -97 -98 0
-61 -94 -64 -97 -98 0
-6 -95 -9 -97 -99 0
-19 -95 -22 -97 -99 0
-31 -95 -34 -97 -99 0
-42 -95 -45 -97 -99 0
-52 -95 -55 -97 -99 0
-61 -95 -64 -97 -99 0
-19 -9 -22 -97 -10 0
-31 -9 -34 -97 -10 0
-42 -9 -45 -97 -10 0
-52 -9 -55 -97 -10 0
-61 -9 -64 -97 -10 0
-31 -22 -34 -97 -23 0
-42 -22 -45 -97 -23 0
-52 -22 -55 -97 -23 0
-61 -22 -64 -97 -23 0
-42 -34 -45 -97 -35 0
-52 -34 -55 -97 -35 0
-61 -34 -64 -97 -35 0
-52 -45 -55 -97 -46 0
-61 -45 -64 -97 -46 0
-61 -55 -64 -97 -56 0
-6 -95 -9 -98 -99 0
-19 -95 -22 -98 -99 0
-31 -95 -34 -98 -99 0
-42 -95 -45 -98 -99 0
-52 -95 -55 -98 -99 0
-61 -95 -64 -98 -99 0
-19 -9 -22 -98 -10 0
-31 -9 -34 -98 -10 0
-42 -9 -45 -98 -10 0
-52 -9 -55 -98 -10 0
-61 -9 -64 -98 -10 0
-31 -22 -34 -98 -23 0
-42 -22 -45 -98 -23 0
-52 -22 -55 -98 -23 0
-61 -22 -64 -98 -23 0
-42 -34 -45 -98 -35 0
-52 -34 -55 -98 -35 0
-61 -34 -64 -98 -35 0
-52 -45 -55 -98 -46 0
-61 -45 -64 -98 -46 0
-61 -55 -64 -98 -56 0
-19 -9 -22 -99 -10 0
-31 -9 -34 -99 -10 0
-42 -9 -45 -99 -10 0
-52 -9 -55 -99 -10 0
-61 -9 -64 -99 -10 0
-31 -22 -34 -99 -23 0
-42 -22 -45 -99 -23 0
-52 -22 -55 -99 -23 0
-61 -22 -64 -99 -23 0
-42 -34 -45 -99 -35 0
-52 -34 -55 -99 -35 0
-61 -34 -64 -99 -35 0
-52 -45 -55 -99 -46 0
-61 -45 -64 -99 -46 0
-61 -55 -64 -99 -56 0
-31 -22 -34 -10 -23 0
-42 -22 -45 -10 -23 0
-52 -22 -55 -10 -23 0
-61 -22 -64 -10 -23 0
-42 -34 -45 -10 -35 0
-52 -34 -55 -10 -35 0
-61 -34 -64 -10 -35 0
-52 -45 -55 -10 -46 0
-61 -45 -64 -10 -46 0
-61 -55 -64 -10 -56 0
-42 -34 -45 -23 -35 0
-52 -34 -55 -23 -35 0
-61 -34 -64 -23 -35 0
-52 -45 -55 -23 -46 0
-61 -45 -64 -23 -46 0
-61 -55 -64 -23 -56 0
-52 -45 -55 -35 -46 0
-61 -45 -64 -35 -46 0
-61 -55 -64 -35 -56 0
-61 -55 -64 -46 -56 0
-77 -94 -95 -100 -101 0
-6 -94 -9 -100 -101 0
-19 -94 -22 -100 -101 0
-31 -94 -34 -100 -101 0
-42 -94 -45 -100 -101 0
-52 -94 -55 -100 -101 0
-61 -94 -64 -100 -101 0
-6 -95 -9 -100 -102 0
-19 -95 -22 -100 -102 0
-31 -95 -34 -100 -102 0
-42 -95 -45 -100 -102 0
-52 -95 -55 -100 -102 0
-61 -95 -64 -100 -102 0
-19 -9 -22 -100 -11 0
-31 -9 -34 -100 -11 0
-42 -9 -45 -100 -11 0
-52 -9 -55 -100 -11 0
-61 -9 -64 -100 -11 0
-31 -22 -34 -100 -24 0
-42 -22 -45 -100 -24 0
-52 -22 -55 -100 -24 0
-61 -22 -64 -100 -24 0
-42 -34 -45 -100 -36 0
-52 -34 -55 -100 -36 0
-61 -34 -64 -100 -36 0
-52 -45 -55 -100 -47 0
-61 -45 -64 -100 -47 0
-61 -55 -64 -100 -57 0
-6 -95 -9 -101 -102 0
-19 -95 -22 -101 -102 0
-31 -95 -34 -101 -102 0
-42 -95 -45 -101 -102 0
-52 -95 -55 -101 -102 0
-61 -95 -64 -101 -102 0
-19 -9 -22 -101 -11 0
-31 -9 -34 -101 -11 0
-42 -9 -45 -101 -11 0
-52 -9 -55 -101 -11 0
-61 -9 -64 -101 -11 0
-31 -22 -34 -101 -24 0
-42 -22 -45 -101 -24 0
-52 -22 -55 -101 -24 0
-61 -22 -64 -101 -24 0
-42 -34 -45 -101 -36 0
-52 -34 -55 -101 -36 0
-61 -34 -64 -101 -36 0
-52 -45 -55 -101 -47 0
-61 -45 -64 -101 -47 0
-61 -55 -64 -101 -57 0
-19 -9 -22 -102 -11 0
-31 -9 -34 -102 -11 0
-42 -9 -45 -102 -11 0
-52 -9 -55 -102 -11 0
-61 -9 -64 -102 -11 0
-31 -22 -34 -102 -24 0
-42 -22 -45 -102 -24 0
-52 -22 -55 -102 -24 0
-61 -22 -64 -102 -24 0
-42 -34 -45 -102 -36 0
-52 -34 -55 -102 -36 0
-61 -34 -64 -102 -36 0
-52 -45 -55 -102 -47 0
-61 -45 -64 -102 -47 0
-61 -55 -64 -102 -57 0
-31 -22 -34 -11 -24 0
-42 -22 -45 -11 -24 0
-52 -22 -55 -11 -24 0
-61 -22 -64 -11 -24 0
-42 -34 -45 -11 -36 0
-52 -34 -55 -11 -36 0
-61 -34 -64 -11 -36 0
-52 -45 -55 -11 -47 0
-61 -45 -64 -11 -47 0
-61 -55 -64 -11 -57 0
-42 -34 -45 -24 -36 0
-52 -34 -55 -24 -36 0
-61 -34 -64 -24 -36 0
-52 -45 -55 -24 -47 0
-61 -45 -64 -24 -47 0
-61 -55 -64 -24 -57 0
-52 -45 -55 -36 -47 0
-61 -45 -64 -36 -47 0
-61 -55 -64 -36 -57 0
-61 -55 -64 -47 -57 0
-6 -95 -9 -103 -104 0
-19 -95 -22 -103 -104 0
-31 -95 -34 -103 -104 0
-42 -95 -45 -103 -104 0
-52 -95 -55 -103 -104 0
-61 -95 -64 -103 -104 0
-19 -9 -22 -103 -12 0
-31 -9 -34 -103 -12 0
-42 -9 -45 -103 -12 0
-52 -9 -55 -103 -12 0
-61 -9 -64 -103 -12 0
-31 -22 -34 -103 -25 0
-42 -22 -45 -103 -25 0
-52 -22 -55 -103 -25 0
-61 -22 -64 -103 -25 0
-42 -34 -45 -103 -37 0
-52 -34 -55 -103 -37 0
-61 -34 -64 -103 -37 0
-52 -45 -55 -103 -48 0
-61 -45 -64 -103 -48 0
-61 -55 -64 -103 -58 0
-19 -9 -22 -104 -12 0
-31 -9 -34 -104 -12 0
-42 -9 -45 -104 -12 0
-52 -9 -55 -104 -12 0
-61 -9 -64 -104 -12 0
-31 -22 -34 -104 -25 0
-42 -22 -45 -104 -25 0
-52 -22 -55 -104 -25 0
-61 -22 -64 -104 -25 0
-42 -34 -45 -104 -37 0
-52 -34 -55 -104 -37 0
-61 -34 -64 -104 -37 0
-52 -45 -55 -104 -48 0
-61 -45 -64 -104 -48 0
-61 -55 -64 -104 -58 0
-31 -22 -34 -12 -25 0
-42 -22 -45 -12 -25 0
-52 -22 -55 -12 -25 0
-61 -22 -64 -12 -25 0
-42 -34 -45 -12 -37 0
-52 -34 -55 -12 -37 0
-61 -34 -64 -12 -37 0
-52 -45 -55 -12 -48 0
-61 -45 -64 -12 -48 0
-61 -55 -64 -12 -58 0
-42 -34 -45 -25 -37 0
-52 -34 -55 -25 -37 0
-61 -34 -64 -25 -37 0
-52 -45 -55 -25 -48 0
-61 -45 -64 -25 -48 0
-61 -55 -64 -25 -58 0
-52 -45 -55 -37 -48 0
-61 -45 -64 -37 -48 0
-61 -55 -64 -37 -58 0
-61 -55 -64 -48 -58 0
-19 -9 -22 -105 -13 0
-31 -9 -34 -105 -13 0
-42 -9 -45 -105 -13 0
-52 -9 -55 -105 -13 0
-61 -9 -64 -105 -13 0
-31 -22 -34 -105 -26 0
-42 -22 -45 -105 -26 0
-52 -22 -55 -105 -26 0
-61 -22 -64 -105 -26 0
-42 -34 -45 -105 -38 0
-52 -34 -55 -105 -38 0
-61 -34 -64 -105 -38 0
-52 -45 -55 -105 -49 0
-61 -45 -64 -105 -49 0
-61 -55 -64 -105 -59 0
-31 -22 -34 -13 -26 0
-42 -22 -45 -13 -26 0
-52 -22 -55 -13 -26 0
-61 -22 -64 -13 -26 0
-42 -34 -45 -13 -38 0
-52 -34 -55 -13 -38 0
-61 -34 -64 -13 -38 0
-52 -45 -55 -13 -49 0
-61 -45 -64 -13 -49 0
-61 -55 -64 -13 -59 0
-42 -34 -45 -26 -38 0
-52 -34 -55 -26 -38 0
-61 -34 -64 -26 -38 0
-52 -45 -55 -26 -49 0
-61 -45 -64 -26 -49 0
-61 -55 -64 -26 -59 0
-52 -45 -55 -38 -49 0
-61 -45 -64 -38 -49 0
-61 -55 -64 -38 -59 0
-61 -55 -64 -49 -59 0
-31 -22 -34 -14 -27 0
-42 -22 -45 -14 -27 0
-52 -22 -55 -14 -27 0
-61 -22 -64 -14 -27 0
-42 -34 -45 -14 -39 0
-52 -34 -55 -14 -39 0
-61 -34 -64 -14 -39 0
-52 -45 -55 -14 -50 0
-61 -45 -64 -14 -50 0
-61 -55 -64 -14 -60 0
-42 -34 -45 -27 -39 0
-52 -34 -55 -27 -39 0
-61 -34 -64 -27 -39 0
-52 -45 -55 -27 -50 0
-61 -45 -64 -27 -50 0
-61 -55 -64 -27 -60 0
-52 -45 -55 -39 -50 0
-61 -45 -64 -39 -50 0
-61 -55 -64 -39 -60 0
-61 -55 -64 -50 -60 0
-42 -34 -45 -1 -2 0
-52 -34 -55 -1 -2 0
-61 -34 -64 -1 -2 0
-52 -45 -55 -1 -3 0
-61 -45 -64 -1 -3 0
-61 -55 -64 -1 -4 0
-52 -45 -55 -2 -3 0
-61 -45 -64 -2 -3 0
-61 -55 -64 -2 -4 0
-61 -55 -64 -3 -4 0
-52 -45 -55 -15 -16 0
-61 -45 -64 -15 -16 0
-61 -55 -64 -15 -17 0
-61 -55 -64 -16 -17 0
-61 -55 -64 -28 -29 0
-77 -98 -99 -100 -101 0
-6 -98 -10 -100 -101 0
-19 -98 -23 -100 -101 0
-31 -98 -35 -100 -101 0
-42 -98 -46 -100 -101 0
-52 -98 -56 -100 -101 0
-61 -98 -65 -100 -101 0
-6 -99 -10 -100 -102 0
-19 -99 -23 -100 -102 0
-31 -99 -35 -100 -102 0
-42 -99 -46 -100 -102 0
-52 -99 -56 -100 -102 0
-61 -99 -65 -100 -102 0
-19 -10 -23 -100 -11 0
-31 -10 -35 -100 -11 0
-42 -10 -46 -100 -11 0
-52 -10 -56 -100 -11 0
-61 -10 -65 -100 -11 0
-31 -23 -35 -100 -24 0
-42 -23 -46 -100 -24 0
-52 -23 -56 -100 -24 0
-61 -23 -65 -100 -24 0
-42 -35 -46 -100 -36 0
-52 -35 -56 -100 -36 0
-61 -35 -65 -100 -36 0
-52 -46 -56 -100 -47 0
-61 -46 -65 -100 -47 0
-61 -56 -65 -100 -57 0
-6 -99 -10 -101 -102 0
-19 -99 -23 -101 -102 0
-31 -99 -35 -101 -102 0
-42 -99 -46 -101 -102 0
-52 -99 -56 -101 -102 0
-61 -99 -65 -101 -102 0
-19 -10 -23 -101 -11 0
-31 -10 -35 -101 -11 0
-42 -10 -46 -101 -11 0
-52 -10 -56 -101 -11 0
-61 -10 -65 -101 -11 0
-31 -23 -35 -101 -24 0
-42 -23 -46 -101 -24 0
-52 -23 -56 -101 -24 0
-61 -23 -65 -101 -24 0
-42 -35 -46 -101 -36 0
-52 -35 -56 -101 -36 0
-61 -35 -65 -101 -36 0
-52 -46 -56 -101 -47 0
-61 -46 -65 -101 -47 0
-61 -56 -65 -101 -57 0
-19 -10 -23 -102 -11 0
-31 -10 -35 -102 -11 0
-42 -10 -46 -102 -11 0
-52 -10 -56 -102 -11 0
-61 -10 -65 -102 -11 0
-31 -23 -35 -102 -24 0
-42 -23 -46 -102 -24 0
-52 -23 -56 -102 -24 0
-61 -23 -65 -102 -24 0
-42 -35 -46 -102 -36 0
-52 -35 -56 -102 -36 0
-61 -35 -65 -102 -36 0
-52 -46 -56 -102 -47 0
-61 -46 -65 -102 -47 0
-61 -56 -65 -102 -57 0
-31 -23 -35 -11 -24 0
-42 -23 -46 -11 -24 0
-52 -23 -56 -11 -24 0
-61 -23 -65 -11 -24 0
-42 -35 -46 -11 -36 0
-52 -35 -56 -11 -36 0
-61 -35 -65 -11 -36 0
-52 -46 -56 -11 -47 0
-61 -46 -65 -11 -47 0
-61 -56 -65 -11 -57 0
-42 -35 -46 -24 -36 0
-52 -35 -56 -24 -36 0
-61 -35 -65 -24 -36 0
-52 -46 -56 -24 -47 0
-61 -46 -65 -24 -47 0
-61 -56 -65 -24 -57 0
-52 -46 -56 -36 -47 0
-61 -46 -65 -36 -47 0
-61 -56 -65 -36 -57 0
-61 -56 -65 -47 -57 0
-6 -99 -10 -103 -104 0
-19 -99 -23 -103 -104 0
-31 -99 -35 -103 -104 0
-42 -99 -46 -103 -104 0
-52 -99 -56 -103 -104 0
-61 -99 -65 -103 -104 0
-19 -10 -23 -103 -12 0
-31 -10 -35 -103 -12 0
-42 -10 -46 -103 -12 0
-52 -10 -56 -103 -12 0
-61 -10 -65 -103 -12 0
-31 -23 -35 -103 -25 0
-42 -23 -46 -103 -25 0
-52 -23 -56 -103 -25 0
-61 -23 -65 -103 -25 0
-42 -35 -46 -103 -37 0
-52 -35 -56 -103 -37 0
-61 -35 -65 -103 -37 0
-52 -46 -56 -103 -48 0
-61 -46 -65 -103 -48 0
-61 -56 -65 -103 -58 0
-19 -10 -23 -104 -12 0
-31 -10 -35 -104 -12 0
-42 -10 -46 -104 -12 0
-52 -10 -56 -104 -12 0
-61 -10 -65 -104 -12 0
-31 -23 -35 -104 -25 0
-42 -23 -46 -104 -25 0
-52 -23 -56 -104 -25 0
-61 -23 -65 -104 -25 0
-42 -35 -46 -104 -37 0
-52 -35 -56 -104 -37 0
-61 -35 -65 -104 -37 0
-52 -46 -56 -104 -48 0
-61 -46 -65 -104 -48 0
-61 -56 -65 -104 -58 0
-31 -23 -35 -12 -25 0
-42 -23 -46 -12 -25 0
-52 -23 -56 -12 -25 0
-61 -23 -65 -12 -25 0
-42 -35 -46 -12 -37 0
-52 -35 -56 -12 -37 0
-61 -35 -65 -12 -37 0
-52 -46 -56 -12 -48 0
-61 -46 -65 -12 -48 0
-61 -56 -65 -12 -58 0
-42 -35 -46 -25 -37 0
-52 -35 -56 -25 -37 0
-61 -35 -65 -25 -37 0
-52 -46 -56 -25 -48 0
-61 -46 -65 -25 -48 0
-61 -56 -65 -25 -58 0
-52 -46 -56 -37 -48 0
-61 -46 -65 -37 -48 0
-61 -56 -65 -37 -58 0
-61 -56 -65 -48 -58 0
-19 -10 -23 -105 -13 0
-31 -10 -35 -105 -13 0
-42 -10 -46 -105 -13 0
-52 -10 -56 -105 -13 0
-61 -10 -65 -105 -13 0
-31 -23 -35 -105 -26 0
-42 -23 -46 -105 -26 0
-52 -23 -56 -105 -26 0
-61 -23 -65 -105 -26 0
-42 -35 -46 -105 -38 0
-52 -35 -56 -105 -38 0
-61 -35 -65 -105 -38 0
-52 -46 -56 -105 -49 0
-61 -46 -65 -105 -49 0
-61 -56 -65 -105 -59 0
-31 -23 -35 -13 -26 0
-42 -23 -46 -13 -26 0
-52 -23 -56 -13 -26 0
-61 -23 -65 -13 -26 0
-42 -35 -46 -13 -38 0
-52 -35 -56 -13 -38 0
-61 -35 -65 -13 -38 0
-52 -46 -56 -13 -49 0
-61 -46 -65 -13 -49 0
-61 -56 -65 -13 -59 0
-42 -35 -46 -26 -38 0
-52 -35 -56 -26 -38 0
-61 -35 -65 -26 -38 0
-52 -46 -56 -26 -49 0
-61 -46 -65 -26 -49 0
-61 -56 -65 -26 -59 0
-52 -46 -56 -38 -49 0
-61 -46 -65 -38 -49 0
-61 -56 -65 -38 -59 0
-61 -56 -65 -49 -59 0
-31 -23 -35 -14 -27 0
-42 -23 -46 -14 -27 0
-52 -23 -56 -14 -27 0
-61 -23 -65 -14 -27 0
-42 -35 -46 -14 -39 0
-52 -35 -56 -14 -39 0
-61 -35 -65 -14 -39 0
-52 -46 -56 -14 -50 0
-61 -46 -65 -14 -50 0
-61 -56 -65 -14 -60 0
-42 -35 -46 -27 -39 0
-52 -35 -56 -27 -39 0
-61 -35 -65 -27 -39 0
-52 -46 -56 -27 -50 0
-61 -46 -65 -27 -50 0
-61 -56 -65 -27 -60 0
-52 -46 -56 -39 -50 0
-61 -46 -65 -39 -50 0
-61 -56 -65 -39 -60 0
-61 -56 -65 -50 -60 0
-42 -35 -46 -1 -2 0
-52 -35 -56 -1 -2 0
-61 -35 -65 -1 -2 0
-52 -46 -56 -1 -3 0
-61 -46 -65 -1 -3 0
-61 -56 -65 -1 -4 0
-52 -46 -56 -2 -3 0
-61 -46 -65 -2 -3 0
-61 -56 -65 -2 -4 0
-61 -56 -65 -3 -4 0
-52 -46 -56 -15 -16 0
-61 -46 -65 -15 -16 0
-61 -56 -65 -15 -17 0
-61 -56 -65 -16 -17 0
-61 -56 -65 -28 -29 0
-6 -102 -11 -103 -104 0
-19 -102 -24 -103 -104 0
-31 -102 -36 -103 -104 0
-42 -102 -47 -103 -104 0
-52 -102 -57 -103 -104 0
-61 -102 -66 -103 -104 0
-19 -11 -24 -103 -12 0
-31 -11 -36 -103 -12 0
-42 -11 -47 -103 -12 0
-52 -11 -57 -103 -12 0
-61 -11 -66 -103 -12 0
-31 -24 -36 -103 -25 0
-42 -24 -47 -103 -25 0
-52 -24 -57 -103 -25 0
-61 -24 -66 -103 -25 0
-42 -36 -47 -103 -37 0
-52 -36 -57 -103 -37 0
-61 -36 -66 -103 -37 0
-52 -47 -57 -103 -48 0
-61 -47 -66 -103 -48 0
-61 -57 -66 -103 -58 0
-19 -11 -24 -104 -12 0
-31 -11 -36 -104 -12 0
-42 -11 -47 -104 -12 0
-52 -11 -57 -104 -12 0
-61 -11 -66 -104 -12 0
-31 -24 -36 -104 -25 0
-42 -24 -47 -104 -25 0
-52 -24 -57 -104 -25 0
-61 -24 -66 -104 -25 0
-42 -36 -47 -104 -37 0
-52 -36 -57 -104 -37 0
-61 -36 -66 -104 -37 0
-52 -47 -57 -104 -48 0
-61 -47 -66 -104 -48 0
-61 -57 -66 -104 -58 0
-31 -24 -36 -12 -25 0
-42 -24 -47 -12 -25 0
-52 -24 -57 -12 -25 0
-61 -24 -66 -12 -25 0
-42 -36 -47 -12 -37 0
-52 -36 -57 -12 -37 0
-61 -36 -66 -12 -37 0
-52 -47 -57 -12 -48 0
-61 -47 -66 -12 -48 0
-61 -57 -66 -12 -58 0
-42 -36 -47 -25 -37 0
-52 -36 -57 -25 -37 0
-61 -36 -66 -25 -37 0
-52 -47 -57 -25 -48 0
-61 -47 -66 -25 -48 0
-61 -57 -66 -25 -58 0
-52 -47 -57 -37 -48 0
-61 -47 -66 -37 -48 0
-61 -57 -66 -37 -58 0
-61 -57 -66 -48 -58 0
-19 -11 -24 -105 -13 0
-31 -11 -36 -105 -13 0
-42 -11 -47 -105 -13 0
-52 -11 -57 -105 -13 0
-61 -11 -66 -105 -13 0
-31 -24 -36 -105 -26 0
-42 -24 -47 -105 -26 0
-52 -24 -57 -105 -26 0
-61 -24 -66 -105 -26 0
-42 -36 -47 -105 -38 0
-52 -36 -57 -105 -38 0
-61 -36 -66 -105 -38 0
-52 -47 -57 -105 -49 0
-61 -47 -66 -105 -49 0
-61 -57 -66 -105 -59 0
-31 -24 -36 -13 -26 0
-42 -24 -47 -13 -26 0
-52 -24 -57 -13 -26 0
-61 -24 -66 -13 -26 0
-42 -36 -47 -13 -38 0
-52 -36 -57 -13 -38 0
-61 -36 -66 -13 -38 0
-52 -47 -57 -13 -49 0
-61 -47 -66 -13 -49 0
-61 -57 -66 -13 -59 0
-42 -36 -47 -26 -38 0
-52 -36 -57 -26 -38 0
-61 -36 -66 -26 -38 0
-52 -47 -57 -26 -49 0
-61 -47 -66 -26 -49 0
-61 -57 -66 -26 -59 0
-52 -47 -57 -38 -49 0
-61 -47 -66 -38 -49 0
-61 -57 -66 -38 -59 0
-61 -57 -66 -49 -59 0
-31 -24 -36 -14 -27 0
-42 -24 -47 -14 -27 0
-52 -24 -57 -14 -27 0
-61 -24 -66 -14 -27 0
-42 -36 -47 -14 -39 0
-52 -36 -57 -14 -39 0
-61 -36 -66 -14 -39 0
-52 -47 -57 -14 -50 0
-61 -47 -66 -14 -50 0
-61 -57 -66 -14 -60 0
-42 -36 -47 -27 -39 0
-52 -36 -57 -27 -39 0
-61 -36 -66 -27 -39 0
-52 -47 -57 -27 -50 0
-61 -47 -66 -27 -50 0
-61 -57 -66 -27 -60 0
-52 -47 -57 -39 -50 0
-61 -47 -66 -39 -50 0
-61 -57 -66 -39 -60 0
-61 -57 -66 -50 -60 0
-42 -36 -47 -1 -2 0
-52 -36 -57 -1 -2 0
-61 -36 -66 -1 -2 0
-52 -47 -57 -1 -3 0
-61 -47 -66 -1 -3 0
-61 -57 -66 -1 -4 0
-52 -47 -57 -2 -3 0
-61 -47 -66 -2 -3 0
-61 -57 -66 -2 -4 0
-61 -57 -66 -3 -4 0
-52 -47 -57 -15 -16 0
-61 -47 -66 -15 -16 0
-61 -57 -66 -15 -17 0
-61 -57 -66 -16 -17 0
-61 -57 -66 -28 -29 0
-19 -12 -25 -105 -13 0
-31 -12 -37 -105 -13 0
-42 -12 -48 -105 -13 0
-52 -12 -58 -105 -13 0
-61 -12 -67 -105 -13 0
-31 -25 -37 -105 -26 0
-42 -25 -48 -105 -26 0
-52 -25 -58 -105 -26 0
-61 -25 -67 -105 -26 0
-42 -37 -48 -105 -38 0
-52 -37 -58 -105 -38 0
-61 -37 -67 -105 -38 0
-52 -48 -58 -105 -49 0
-61 -48 -67 -105 -49 0
-61 -58 -67 -105 -59 0
-31 -25 -37 -13 -26 0
-42 -25 -48 -13 -26 0
-52 -25 -58 -13 -26 0
-61 -25 -67 -13 -26 0
-42 -37 -48 -13 -38 0
-52 -37 -58 -13 -38 0
-61 -37 -67 -13 -38 0
-52 -48 -58 -13 -49 0
-61 -48 -67 -13 -49 0
-61 -58 -67 -13 -59 0
-42 -37 -48 -26 -38 0
-52 -37 -58 -26 -38 0
-61 -37 -67 -26 -38 0
-52 -48 -58 -26 -49 0
-61 -48 -67 -26 -49 0
-61 -58 -67 -26 -59 0
-52 -48 -58 -38 -49 0
-61 -48 -67 -38 -49 0
-61 -58 -67 -38 -59 0
-61 -58 -67 -49 -59 0
-31 -25 -37 -14 -27 0
-42 -25 -48 -14 -27 0
-52 -25 -58 -14 -27 0
-61 -25 -67 -14 -27 0
-42 -37 -48 -14 -39 0
-52 -37 -58 -14 -39 0
-61 -37 -67 -14 -39 0
-52 -48 -58 -14 -50 0
-61 -48 -67 -14 -50 0
-61 -58 -67 -14 -60 0
-42 -37 -48 -27 -39 0
-52 -37 -58 -27 -39 0
-61 -37 -67 -27 -39 0
-52 -48 -58 -27 -50 0
-61 -48 -67 -27 -50 0
-61 -58 -67 -27 -60 0
-52 -48 -58 -39 -50 0
-61 -48 -67 -39 -50 0
-61 -58 -67 -39 -60 0
-61 -58 -67 -50 -60 0
-42 -37 -48 -1 -2 0
-52 -37 -58 -1 -2 0
-61 -37 -67 -1 -2 0
-52 -48 -58 -1 -3 0
-61 -48 -67 -1 -3 0
-61 -58 -67 -1 -4 0
-52 -48 -58 -2 -3 0
-61 -48 -67 -2 -3 0
-61 -58 -67 -2 -4 0
-61 -58 -67 -3 -4 0
-52 -48 -58 -15 -16 0
-61 -48 -67 -15 -16 0
-61 -58 -67 -15 -17 0
-61 -58 -67 -16 -17 0
-61 -58 -67 -28 -29 0
-31 -26 -38 -14 -27 0
-42 -26 -49 -14 -27 0
-52 -26 -59 -14 -27 0
-61 -26 -68 -14 -27 0
-42 -38 -49 -14 -39 0
-52 -38 -59 -14 -39 0
-61 -38 -68 -14 -39 0
-52 -49 -59 -14 -50 0
-61 -49 -68 -14 -50 0
-61 -59 -68 -14 -60 0
-42 -38 -49 -27 -39 0
-52 -38 -59 -27 -39 0
-61 -38 -68 -27 -39 0
-52 -49 -59 -27 -50 0
-61 -49 -68 -27 -50 0
-61 -59 -68 -27 -60 0
-52 -49 -59 -39 -50 0
-61 -49 -68 -39 -50 0
-61 -59 -68 -39 -60 0
-61 -59 -68 -50 -60 0
-42 -38 -49 -1 -2 0
-52 -38 -59 -1 -2 0
-61 -38 -68 -1 -2 0
-52 -49 -59 -1 -3 0
-61 -49 -68 -1 -3 0
-61 -59 -68 -1 -4 0
-52 -49 -59 -2 -3 0
-61 -49 -68 -2 -3 0
-61 -59 -68 -2 -4 0
-61 -59 -68 -3 -4 0
-52 -49 -59 -15 -16 0
-61 -49 -68 -15 -16 0
-61 -59 -68 -15 -17 0
-61 -59 -68 -16 -17 0
-61 -59 -68 -28 -29 0
-42 -39 -50 -1 -2 0
-52 -39 -60 -1 -2 0
-61 -39 -69 -1 -2 0
-52 -50 -60 -1 -3 0
-61 -50 -69 -1 -3 0
-61 -60 -69 -1 -4 0
-52 -50 -60 -2 -3 0
-61 -50 -69 -2 -3 0
-61 -60 -69 -2 -4 0
-61 -60 -69 -3 -4 0
-52 -50 -60 -15 -16 0
-61 -50 -69 -15 -16 0
-61 -60 -69 -15 -17 0
-61 -60 -69 -16 -17 0
-61 -60 -69 -28 -29 0
-52 -3 -4 -15 -16 0
-61 -3 -5 -15 -16 0
-61 -4 -5 -15 -17 0
-61 -4 -5 -16 -17 0
-61 -4 -5 -28 -29 0
-61 -17 -18 -28 -29 0
-82 -87 -88 -91 -92 0
-83 -87 -89 -91 -92 0
-84 -87 -90 -91 -92 0
-7 -87 -8 -91 -92 0
-20 -87 -21 -91 -92 0
-32 -87 -33 -91 -92 0
-43 -87 -44 -91 -92 0
-53 -87 -54 -91 -92 0
-62 -87 -63 -91 -92 0
-70 -87 -71 -91 -92 0
-83 -88 -89 -91 -93 0
-84 -88 -90 -91 -93 0
-7 -88 -8 -91 -93 0
-20 -88 -21 -91 -93 0
-32 -88 -33 -91 -93 0
-43 -88 -44 -91 -93 0
-53 -88 -54 -91 -93 0
-62 -88 -63 -91 -93 0
-70 -88 -71 -91 -93 0
-84 -89 -90 -91 -94 0
-7 -89 -8 -91 -94 0
-20 -89 -21 -91 -94 0
-32 -89 -33 -91 -94 0
-43 -89 -44 -91 -94 0
-53 -89 -54 -91 -94 0
-62 -89 -63 -91 -94 0
-70 -89 -71 -91 -94 0
-7 -90 -8 -91 -95 0
-20 -90 -21 -91 -95 0
-32 -90 -33 -91 -95 0
-43 -90 -44 -91 -95 0
-53 -90 -54 -91 -95 0
-62 -90 -63 -91 -95 0
-70 -90 -71 -91 -95 0
-20 -8 -21 -91 -9 0
-32 -8 -33 -91 -9 0
-43 -8 -44 -91 -9 0
-53 -8 -54 -91 -9 0
-62 -8 -63 -91 -9 0
-70 -8 -71 -91 -9 0
-32 -21 -33 -91 -22 0
-43 -21 -44 -91 -22 0
-53 -21 -54 -91 -22 0
-62 -21 -63 -91 -22 0
-70 -21 -71 -91 -22 0
-43 -33 -44 -91 -34 0
-53 -33 -54 -91 -34 0
-62 -33 -63 -91 -34 0
-70 -33 -71 -91 -34 0
-53 -44 -54 -91 -45 0
-62 -44 -63 -91 -45 0
-70 -44 -71 -91 -45 0
-62 -54 -63 -91 -55 0
-70 -54 -71 -91 -55 0
-70 -63 -71 -91 -64 0
-83 -88 -89 -92 -93 0
-84 -88 -90 -92 -93 0
-7 -88 -8 -92 -93 0
-20 -88 -21 -92 -93 0
-32 -88 -33 -92 -93 0
-43 -88 -44 -92 -93 0
-53 -88 -54 -92 -93 0
-62 -88 -63 -92 -93 0
-70 -88 -71 -92 -93 0
-84 -89 -90 -92 -94 0
-7 -89 -8 -92 -94 0
-20 -89 -21 -92 -94 0
-32 -89 -33 -92 -94 0
-43 -89 -44 -92 -94 0
-53 -89 -54 -92 -94 0
-62 -89 -63 -92 -94 0
-70 -89 -71 -92 -94 0
-7 -90 -8 -92 -95 0
-20 -90 -21 -92 -95 0
-32 -90 -33 -92 -95 0
-43 -90 -44 -92 -95 0
-53 -90 -54 -92 -95 0
-62 -90 -63 -92 -95 0
-70 -90 -71 -92 -95 0
-20 -8 -21 -92 -9 0
-32 -8 -33 -92 -9 0
-43 -8 -44 -92 -9 0
-53 -8 -54 -92 -9 0
-62 -8 -63 -92 -9 0
-70 -8 -71 -92 -9 0
-32 -21 -33 -92 -22 0
-43 -21 -44 -92 -22 0
-53 -21 -54 -92 -22 0
-62 -21 -63 -92 -22 0
-70 -21 -71 -92 -22 0
-43 -33 -44 -92 -34 0
-53 -33 -54 -92 -34 0
-62 -33 -63 -92 -34 0
-70 -33 -71 -92 -34 0
-53 -44 -54 -92 -45 0
-62 -44 -63 -92 -45 0
-70 -44 -71 -92 -45 0
-62 -54 -63 -92 -55 0
-70 -54 -71 -92 -55 0
-70 -63 -71 -92 -64 0
-84 -89 -90 -93 -94 0
-7 -89 -8 -93 -94 0
-20 -89 -21 -93 -94 0
-32 -89 -33 -93 -94 0
-43 -89 -44 -93 -94 0
-53 -89 -54 -93 -94 0
-62 -89 -63 -93 -94 0
-70 -89 -71 -93 -94 0
-7 -90 -8 -93 -95 0
-20 -90 -21 -93 -95 0
-32 -90 -33 -93 -95 0
-43 -90 -44 -93 -95 0
-53 -90 -54 -93 -95 0
-62 -90 -63 -93 -95 0
-70 -90 -71 -93 -95 0
-20 -8 -21 -93 -9 0
-32 -8 -33 -93 -9 0
-43 -8 -44 -93 -9 0
-53 -8 -54 -93 -9 0
-62 -8 -63 -93 -9 0
-70 -8 -71 -93 -9 0
-32 -21 -33 -93 -22 0
-43 -21 -44 -93 -22 0
-53 -21 -54 -93 -22 0
-62 -21 -63 -93 -22 0
-70 -21 -71 -93 -22 0
-43 -33 -44 -93 -34 0
-53 -33 -54 -93 -34 0
-62 -33 -63 -93 -34 0
-70 -33 -71 -93 -34 0
-53 -44 -54 -93 -45 0
-62 -44 -63 -93 -45 0
-70 -44 -71 -93 -45 0
-62 -54 -63 -93 -55 0
-70 -54 -71 -93 -55 0
-70 -63 -71 -93 -64 0
-7 -90 -8 -94 -95 0
-20 -90 -21 -94 -95 0
-32 -90 -33 -94 -95 0
-43 -90 -44 -94 -95 0
-53 -90 -54 -94 -95 0
-62 -90 -63 -94 -95 0
-70 -90 -71 -94 -95 0
-20 -8 -21 -94 -9 0
-32 -8 -33 -94 -9 0
-43 -8 -44 -94 -9 0
-53 -8 -54 -94 -9 0
-62 -8 -63 -94 -9 0
-70 -8 -71 -94 -9 0
-32 -21 -33 -94 -22 0
-43 -21 -44 -94 -22 0
-53 -21 -54 -94 -22 0
-62 -21 -63 -94 -22 0
-70 -21 -71 -94 -22 0
-43 -33 -44 -94 -34 0
-53 -33 -54 -94 -34 0
-62 -33 -63 -94 -34 0
-70 -33 -71 -94 -34 0
-53 -44 -54 -94 -45 0
-62 -44 -63 -94 -45 0
-70 -44 -71 -94 -45 0
-62 -54 -63 -94 -55 0
-70 -54 -71 -94 -55 0
-70 -63 -71 -94 -64 0
-20 -8 -21 -95 -9 0
-32 -8 -33 -95 -9 0
-43 -8 -44 -95 -9 0
-53 -8 -54 -95 -9 0
-62 -8 -63 -95 -9 0
-70 -8 -71 -95 -9 0
-32 -21 -33 -95 -22 0
-43 -21 -44 -95 -22 0
-53 -21 -54 -95 -22 0
-62 -21 -63 -95 -22 0
-70 -21 -71 -95 -22 0
-43 -33 -44 -95 -34 0
-53 -33 -54 -95 -34 0
-62 -33 -63 -95 -34 0
-70 -33 -71 -95 -34 0
-53 -44 -54 -95 -45 0
-62 -44 -63 -95 -45 0
-70 -44 -71 -95 -45 0
-62 -54 -63 -95 -55 0
-70 -54 -71 -95 -55 0
-70 -63 -71 -95 -64 0
-32 -21 -33 -9 -22 0
-43 -21 -44 -9 -22 0
-53 -21 -54 -9 -22 0
-62 -21 -63 -9 -22 0
-70 -21 -71 -9 -22 0
-43 -33 -44 -9 -34 0
-53 -33 -54 -9 -34 0
-62 -33 -63 -9 -34 0
-70 -33 -71 -9 -34 0
-53 -44 -54 -9 -45 0
-62 -44 -63 -9 -45 0
-70 -44 -71 -9 -45 0
-62 -54 -63 -9 -55 0
-70 -54 -71 -9 -55 0
-70 -63 -71 -9 -64 0
-43 -33 -44 -22 -34 0
-53 -33 -54 -22 -34 0
-62 -33 -63 -22 -34 0
-70 -33 -71 -22 -34 0
-53 -44 -54 -22 -45 0
-62 -44 -63 -22 -45 0
-70 -44 -71 -22 -45 0
-62 -54 -63 -22 -55 0
-70 -54 -71 -22 -55 0
-70 -63 -71 -22 -64 0
-53 -44 -54 -34 -45 0
-62 -44 -63 -34 -45 0
-70 -44 -71 -34 -45 0
-62 -54 -63 -34 -55 0
-70 -54 -71 -34 -55 0
-70 -63 -71 -34 -64 0
-62 -54 -63 -45 -55 0
-70 -54 -71 -45 -55 0
-70 -63 -71 -45 -64 0
-70 -63 -71 -55 -64 0
-83 -88 -89 -96 -97 0
-84 -88 -90 -96 -97 0
-7 -88 -8 -96 -97 0
-20 -88 -21 -96 -97 0
-32 -88 -33 -96 -97 0
-43 -88 -44 -96 -97 0
-53 -88 -54 -96 -97 0
-62 -88 -63 -96 -97 0
-70 -88 -71 -96 -97 0
-84 -89 -90 -96 -98 0
-7 -89 -8 -96 -98 0
-20 -89 -21 -96 -98 0
-32 -89 -33 -96 -98 0
-43 -89 -44 -96 -98 0
-53 -89 -54 -96 -98 0
-62 -89 -63 -96 -98 0
-70 -89 -71 -96 -98 0
-7 -90 -8 -96 -99 0
-20 -90 -21 -96 -99 0
-32 -90 -33 -96 -99 0
-43 -90 -44 -96 -99 0
-53 -90 -54 -96 -99 0
-62 -90 -63 -96 -99 0
-70 -90 -71 -96 -99 0
-20 -8 -21 -96 -10 0
-32 -8 -33 -96 -10 0
-43 -8 -44 -96 -10 0
-53 -8 -54 -96 -10 0
-62 -8 -63 -96 -10 0
-70 -8 -71 -96 -10 0
-32 -21 -33 -96 -23 0
-43 -21 -44 -96 -23 0
-53 -21 -54 -96 -23 0
-62 -21 -63 -96 -23 0
-70 -21 -71 -96 -23 0
-43 -33 -44 -96 -35 0
-53 -33 -54 -96 -35 0
-62 -33 -63 -96 -35 0
-70 -33 -71 -96 -35 0
-53 -44 -54 -96 -46 0
-62 -44 -63 -96 -46 0
-70 -44 -71 -96 -46 0
-62 -54 -63 -96 -56 0
-70 -54 -71 -96 -56 0
-70 -63 -71 -96 -65 0
-84 -89 -90 -97 -98 0
-7 -89 -8 -97 -98 0
-20 -89 -21 -97 -98 0
-32 -89 -33 -97 -98 0
-43 -89 -44 -97 -98 0
-53 -89 -54 -97 -98 0
-62 -89 -63 -97 -98 0
-70 -89 -71 -97 -98 0
-7 -90 -8 -97 -99 0
-20 -90 -21 -97 -99 0
-32 -90 -33 -97 -99 0
-43 -90 -44 -97 -99 0
-53 -90 -54 -97 -99 0
-62 -90 -63 -97 -99 0
-70 -90 -71 -97 -99 0
-20 -8 -21 -97 -10 0
-32 -8 -33 -97 -10 0
-43 -8 -44 -97 -10 0
-53 -8 -54 -97 -10 0
-62 -8 -63 -97 -10 0
-70 -8 -71 -97 -10 0
-32 -21 -33 -97 -23 0
-43 -21 -44 -97 -23 0
-53 -21 -54 -97 -23 0
-62 -21 -63 -97 -23 0
-70 -21 -71 -97 -23 0
-43 -33 -44 -97 -35 0
-53 -33 -54 -97 -35 0
-62 -33 -63 -97 -35 0
-70 -33 -71 -97 -35 0
-53 -44 -54 -97 -46 0
-62 -44 -63 -97 -46 0
-70 -44 -71 -97 -46 0
-62 -54 -63 -97 -56 0
-70 -54 -71 -97 -56 0
-70 -63 -71 -97 -65 0
-7 -90 -8 -98 -99 0
-20 -90 -21 -98 -99 0
-32 -90 -33 -98 -99 0
-43 -90 -44 -98 -99 0
-53 -90 -54 -98 -99 0
-62 -90 -63 -98 -99 0
-70 -90 -71 -98 -99 0
-20 -8 -21 -98 -10 0
-32 -8 -33 -98 -10 0
-43 -8 -44 -98 -10 0
-53 -8 -54 -98 -10 0
-62 -8 -63 -98 -10 0
-70 -8 -71 -98 -10 0
-32 -21 -33 -98 -23 0
-43 -21 -44 -98 -23 0
-53 -21 -54 -98 -23 0
-62 -21 -63 -98 -23 0
-70 -21 -71 -98 -23 0
-43 -33 -44 -98 -35 0
-53 -33 -54 -98 -35 0
-62 -33 -63 -98 -35 0
-70 -33 -71 -98 -35 0
-53 -44 -54 -98 -46 0
-62 -44 -63 -98 -46 0
-70 -44 -71 -98 -46 0
-62 -54 -63 -98 -56 0
-70 -54 -71 -98 -56 0
-70 -63 -71 -98 -65 0
-20 -8 -21 -99 -10 0
-32 -8 -33 -99 -10 0
-43 -8 -44 -99 -10 0
-53 -8 -54 -99 -10 0
-62 -8 -63 -99 -10 0
-70 -8 -71 -99 -10 0
-32 -21 -33 -99 -23 0
-43 -21 -44 -99 -23 0
-53 -21 -54 -99 -23 0
-62 -21 -63 -99 -23 0
-70 -21 -71 -99 -23 0
-43 -33 -44 -99 -35 0
-53 -33 -54 -99 -35 0
-62 -33 -63 -99 -35 0
-70 -33 -71 -99 -35 0
-53 -44 -54 -99 -46 0
-62 -44 -63 -99 -46 0
-70 -44 -71 -99 -46 0
-62 -54 -63 -99 -56 0
-70 -54 -71 -99 -56 0
-70 -63 -71 -99 -65 0
-32 -21 -33 -10 -23 0
-43 -21 -44 -10 -23 0
-53 -21 -54 -10 -23 0
-62 -21 -63 -10 -23 0
-70 -21 -71 -10 -23 0
-43 -33 -44 -10 -35 0
-53 -33 -54 -10 -35 0
-62 -33 -63 -10 -35 0
-70 -33 -71 -10 -35 0
-53 -44 -54 -10 -46 0
-62 -44 -63 -10 -46 0
-70 -44 -71 -10 -46 0
-62 -54 -63 -10 -56 0
-70 -54 -71 -10 -56 0
-70 -63 -71 -10 -65 0
-43 -33 -44 -23 -35 0
-53 -33 -54 -23 -35 0
-62 -33 -63 -23 -35 0
-70 -33 -71 -23 -35 0
-53 -44 -54 -23 -46 0
-62 -44 -63 -23 -46 0
-70 -44 -71 -23 -46 0
-62 -54 -63 -23 -56 0
-70 -54 -71 -23 -56 0
-70 -63 -71 -23 -65 0
-53 -44 -54 -35 -46 0
-62 -44 -63 -35 -46 0
-70 -44 -71 -35 -46 0
-62 -54 -63 -35 -56 0
-70 -54 -71 -35 -56 0
-70 -63 -71 -35 -65 0
-62 -54 -63 -46 -56 0
-70 -54 -71 -46 -56 0
-70 -63 -71 -46 -65 0
-70 -63 -71 -56 -65 0
-84 -89 -90 -100 -101 0
-7 -89 -8 -100 -101 0
-20 -89 -21 -100 -101 0
-32 -89 -33 -100 -101 0
-43 -89 -44 -100 -101 0
-53 -89 -54 -100 -101 0
-62 -89 -63 -100 -101 0
-70 -89 -71 -100 -101 0
-7 -90 -8 -100 -102 0
-20 -90 -21 -100 -102 0
-32 -90 -33 -100 -102 0
-43 -90 -44 -100 -102 0
-53 -90 -54 -100 -102 0
-62 -90 -63 -100 -102 0
-70 -90 -71 -100 -102 0
-20 -8 -21 -100 -11 0
-32 -8 -33 -100 -11 0
-43 -8 -44 -100 -11 0
-53 -8 -54 -100 -11 0
-62 -8 -63 -100 -11 0
-70 -8 -71 -100 -11 0
-32 -21 -33 -100 -24 0
-43 -21 -44 -100 -24 0
-53 -21 -54 -100 -24 0
-62 -21 -63 -100 -24 0
-70 -21 -71 -100 -24 0
-43 -33 -44 -100 -36 0
-53 -33 -54 -100 -36 0
-62 -33 -63 -100 -36 0
-70 -33 -71 -100 -36 0
-53 -44 -54 -100 -47 0
-62 -44 -63 -100 -47 0
-70 -44 -71 -100 -47 0
-62 -54 -63 -100 -57 0
-70 -54 -71 -100 -57 0
-70 -63 -71 -100 -66 0
-7 -90 -8 -101 -102 0
-20 -90 -21 -101 -102 0
-32 -90 -33 -101 -102 0
-43 -90 -44 -101 -102 0
-53 -90 -54 -101 -102 0
-62 -90 -63 -101 -102 0
-70 -90 -71 -101 -102 0
-20 -8 -21 -101 -11 0
-32 -8 -33 -101 -11 0
-43 -8 -44 -101 -11 0
-53 -8 -54 -101 -11 0
-62 -8 -63 -101 -11 0
-70 -8 -71 -101 -11 0
-32 -21 -33 -101 -24 0
-43 -21 -44 -101 -24 0
-53 -21 -54 -101 -24 0
-62 -21 -63 -101 -24 0
-70 -21 -71 -101 -24 0
-43 -33 -44 -101 -36 0
-53 -33 -54 -101 -36 0
-62 -33 -63 -101 -36 0
-70 -33 -71 -101 -36 0
-53 -44 -54 -101 -47 0
-62 -44 -63 -101 -47 0
-70 -44 -71 -101 -47 0
-62 -54 -63 -101 -57 0
-70 -54 -71 -101 -57 0
-70 -63 -71 -101 -66 0
-20 -8 -21 -102 -11 0
-32 -8 -33 -102 -11 0
-43 -8 -44 -102 -11 0
-53 -8 -54 -102 -11 0
-62 -8 -63 -102 -11 0
-70 -8 -71 -102 -11 0
-32 -21 -33 -102 -24 0
-43 -21 -44 -102 -24 0
-53 -21 -54 -102 -24 0
-62 -21 -63 -102 -24 0
-70 -21 -71 -102 -24 0
-43 -33 -44 -102 -36 0
-53 -33 -54 -102 -36 0
-62 -33 -63 -102 -36 0
-70 -33 -71 -102 -36 0
-53 -44 -54 -102 -47 0
-62 -44 -63 -102 -47 0
-70 -44 -71 -102 -47 0
-62 -54 -63 -102 -57 0
-70 -54 -71 -102 -57 0
-70 -63 -71 -102 -66 0
-32 -21 -33 -11 -24 0
-43 -21 -44 -11 -24 0
-53 -21 -54 -11 -24 0
-62 -21 -63 -11 -24 0
-70 -21 -71 -11 -24 0
-43 -33 -44 -11 -36 0
-53 -33 -54 -11 -36 0
-62 -33 -63 -11 -36 0
-70 -33 -71 -11 -36 0
-53 -44 -54 -11 -47 0
-62 -44 -63 -11 -47 0
-70 -44 -71 -11 -47 0
-62 -54 -63 -11 -57 0
-70 -54 -71 -11 -57 0
-70 -63 -71 -11 -66 0
-43 -33 -44 -24 -36 0
-53 -33 -54 -24 -36 0
-62 -33 -63 -24 -36 0
-70 -33 -71 -24 -36 0
-53 -44 -54 -24 -47 0
-62 -44 -63 -24 -47 0
-70 -44 -71 -24 -47 0
-62 -54 -63 -24 -57 0
-70 -54 -71 -24 -57 0
-70 -63 -71 -24 -66 0
-53 -44 -54 -36 -47 0
-62 -44 -63 -36 -47 0
-70 -44 -71 -36 -47 0
-62 -54 -63 -36 -57 0
-70 -54 -71 -36 -57 0
-70 -63 -71 -36 -66 0
-62 -54 -63 -47 -57 0
-70 -54 -71 -47 -57 0
-70 -63 -71 -47 -66 0
-70 -63 -71 -57 -66 0
-7 -90 -8 -103 -104 0
-20 -90 -21 -103 -104 0
-32 -90 -33 -103 -104 0
-43 -90 -44 -103 -104 0
-53 -90 -54 -103 -104 0
-62 -90 -63 -103 -104 0
-70 -90 -71 -103 -104 0
-20 -8 -21 -103 -12 0
-32 -8 -33 -103 -12 0
-43 -8 -44 -103 -12 0
-53 -8 -54 -103 -12 0
-62 -8 -63 -103 -12 0
-70 -8 -71 -103 -12 0
-32 -21 -33 -103 -25 0
-43 -21 -44 -103 -25 0
-53 -21 -54 -103 -25 0
-62 -21 -63 -103 -25 0
-70 -21 -71 -103 -25 0
-43 -33 -44 -103 -37 0
-53 -33 -54 -103 -37 0
-62 -33 -63 -103 -37 0
-70 -33 -71 -103 -37 0
-53 -44 -54 -103 -48 0
-62 -44 -63 -103 -48 0
-70 -44 -71 -103 -48 0
-62 -54 -63 -103 -58 0
-70 -54 -71 -103 -58 0
-70 -63 -71 -103 -67 0
-20 -8 -21 -104 -12 0
-32 -8 -33 -104 -12 0
-43 -8 -44 -104 -12 0
-53 -8 -54 -104 -12 0
-62 -8 -63 -104 -12 0
-70 -8 -71 -104 -12 0
-32 -21 -33 -104 -25 0
-43 -21 -44 -104 -25 0
-53 -21 -54 -104 -25 0
-62 -21 -63 -104 -25 0
-70 -21 -71 -104 -25 0
-43 -33 -44 -104 -37 0
-53 -33 -54 -104 -37 0
-62 -33 -63 -104 -37 0
-70 -33 -71 -104 -37 0
-53 -44 -54 -104 -48 0
-62 -44 -63 -104 -48 0
-70 -44 -71 -104 -48 0
-62 -54 -63 -104 -58 0
-70 -54 -71 -104 -58 0
-70 -63 -71 -104 -67 0
-32 -21 -33 -12 -25 0
-43 -21 -44 -12 -25 0
-53 -21 -54 -12 -25 0
-62 -21 -63 -12 -25 0
-70 -21 -71 -12 -25 0
-43 -33 -44 -12 -37 0
-53 -33 -54 -12 -37 0
-62 -33 -63 -12 -37 0
-70 -33 -71 -12 -37 0
-53 -44 -54 -12 -48 0
-62 -44 -63 -12 -48 0
-70 -44 -71 -12 -48 0
-62 -54 -63 -12 -58 0
-70 -54 -71 -12 -58 0
-70 -63 -71 -12 -67 0
-43 -33 -44 -25 -37 0
-53 -33 -54 -25 -37 0
-62 -33 -63 -25 -37 0
-70 -33 -71 -25 -37 0
-53 -44 -54 -25 -48 0
-62 -44 -63 -25 -48 0
-70 -44 -71 -25 -48 0
-62 -54 -63 -25 -58 0
-70 -54 -71 -25 -58 0
-70 -63 -71 -25 -67 0
-53 -44 -54 -37 -48 0
-62 -44 -63 -37 -48 0
-70 -44 -71 -37 -48 0
-62 -54 -63 -37 -58 0
-70 -54 -71 -37 -58 0
-70 -63 -71 -37 -67 0
-62 -54 -63 -48 -58 0
-70 -54 -71 -48 -58 0
-70 -63 -71 -48 -67 0
-70 -63 -71 -58 -67 0
-20 -8 -21 -105 -13 0
-32 -8 -33 -105 -13 0
-43 -8 -44 -105 -13 0
-53 -8 -54 -105 -13 0
-62 -8 -63 -105 -13 0
-70 -8 -71 -105 -13 0
-32 -21 -33 -105 -26 0
-43 -21 -44 -105 -26 0
-53 -21 -54 -105 -26 0
-62 -21 -63 -105 -26 0
-70 -21 -71 -105 -26 0
-43 -33 -44 -105 -38 0
-53 -33 -54 -105 -38 0
-62 -33 -63 -105 -38 0
-70 -33 -71 -105 -38 0
-53 -44 -54 -105 -49 0
-62 -44 -63 -105 -49 0
-70 -44 -71 -105 -49 0
-62 -54 -63 -105 -59 0
-70 -54 -71 -105 -59 0
-70 -63 -71 -105 -68 0
-32 -21 -33 -13 -26 0
-43 -21 -44 -13 -26 0
-53 -21 -54 -13 -26 0
-62 -21 -63 -13 -26 0
-70 -21 -71 -13 -26 0
-43 -33 -44 -13 -38 0
-53 -33 -54 -13 -38 0
-62 -33 -63 -13 -38 0
-70 -33 -71 -13 -38 0
-53 -44 -54 -13 -49 0
-62 -44 -63 -13 -49 0
-70 -44 -71 -13 -49 0
-62 -54 -63 -13 -59 0
-70 -54 -71 -13 -59 0
-70 -63 -71 -13 -68 0
-43 -33 -44 -26 -38 0
-53 -33 -54 -26 -38 0
-62 -33 -63 -26 -38 0
-70 -33 -71 -26 -38 0
-53 -44 -54 -26 -49 0
-62 -44 -63 -26 -49 0
-70 -44 -71 -26 -49 0
-62 -54 -63 -26 -59 0
-70 -54 -71 -26 -59 0
-70 -63 -71 -26 -68 0
-53 -44 -54 -38 -49 0
-62 -44 -63 -38 -49 0
-70 -44 -71 -38 -49 0
-62 -54 -63 -38 -59 0
-70 -54 -71 -38 -59 0
-70 -63 -71 -38 -68 0
-62 -54 -63 -49 -59 0
-70 -54 -71 -49 -59 0
-70 -63 -71 -49 -68 0
-70 -63 -71 -59 -68 0
-32 -21 -33 -14 -27 0
-43 -21 -44 -14 -27 0
-53 -21 -54 -14 -27 0
-62 -21 -63 -14 -27 0
-70 -21 -71 -14 -27 0
-43 -33 -44 -14 -39 0
-53 -33 -54 -14 -39 0
-62 -33 -63 -14 -39 0
-70 -33 -71 -14 -39 0
-53 -44 -54 -14 -50 0
-62 -44 -63 -14 -50 0
-70 -44 -71 -14 -50 0
-62 -54 -63 -14 -60 0
-70 -54 -71 -14 -60 0
-70 -63 -71 -14 -69 0
-43 -33 -44 -27 -39 0
-53 -33 -54 -27 -39 0
-62 -33 -63 -27 -39 0
-70 -33 -71 -27 -39 0
-53 -44 -54 -27 -50 0
-62 -44 -63 -27 -50 0
-70 -44 -71 -27 -50 0
-62 -54 -63 -27 -60 0
-70 -54 -71 -27 -60 0
-70 -63 -71 -27 -69 0
-53 -44 -54 -39 -50 0
-62 -44 -63 -39 -50 0
-70 -44 -71 -39 -50 0
-62 -54 -63 -39 -60 0
-70 -54 -71 -39 -60 0
-70 -63 -71 -39 -69 0
-62 -54 -63 -50 -60 0
-70 -54 -71 -50 -60 0
-70 -63 -71 -50 -69 0
-70 -63 -71 -60 -69 0
-43 -33 -44 -1 -2 0
-53 -33 -54 -1 -2 0
-62 -33 -63 -1 -2 0
-70 -33 -71 -1 -2 0
-53 -44 -54 -1 -3 0
-62 -44 -63 -1 -3 0
-70 -44 -71 -1 -3 0
-62 -54 -63 -1 -4 0
-70 -54 -71 -1 -4 0
-70 -63 -71 -1 -5 0
-53 -44 -54 -2 -3 0
-62 -44 -63 -2 -3 0
-70 -44 -71 -2 -3 0
-62 -54 -63 -2 -4 0
-70 -54 -71 -2 -4 0
-70 -63 -71 -2 -5 0
-62 -54 -63 -3 -4 0
-70 -54 -71 -3 -4 0
-70 -63 -71 -3 -5 0
-70 -63 -71 -4 -5 0
-53 -44 -54 -15 -16 0
-62 -44 -63 -15 -16 0
-70 -44 -71 -15 -16 0
-62 -54 -63 -15 -17 0
-70 -54 -71 -15 -17 0
-70 -63 -71 -15 -18 0
-62 -54 -63 -16 -17 0
-70 -54 -71 -16 -17 0
-70 -63 -71 -16 -18 0
-70 -63 -71 -17 -18 0
-62 -54 -63 -28 -29 0
-70 -54 -71 -28 -29 0
-70 -63 -71 -28 -30 0
-70 -63 -71 -29 -30 0
-70 -63 -71 -40 -41 0
-83 -93 -94 -96 -97 0
-84 -93 -95 -96 -97 0
-7 -93 -9 -96 -97 0
-20 -93 -22 -96 -97 0
-32 -93 -34 -96 -97 0
-43 -93 -45 -96 -97 0
-53 -93 -55 -96 -97 0
-62 -93 -64 -96 -97 0
-70 -93 -72 -96 -97 0
-84 -94 -95 -96 -98 0
-7 -94 -9 -96 -98 0
-20 -94 -22 -96 -98 0
-32 -94 -34 -96 -98 0
-43 -94 -45 -96 -98 0
-53 -94 -55 -96 -98 0
-62 -94 -64 -96 -98 0
-70 -94 -72 -96 -98 0
-7 -95 -9 -96 -99 0
-20 -95 -22 -96 -99 0
-32 -95 -34 -96 -99 0
-43 -95 -45 -96 -99 0
-53 -95 -55 -96 -99 0
-62 -95 -64 -96 -99 0
-70 -95 -72 -96 -99 0
-20 -9 -22 -96 -10 0
-32 -9 -34 -96 -10 0
-43 -9 -45 -96 -10 0
-53 -9 -55 -96 -10 0
-62 -9 -64 -96 -10 0
-70 -9 -72 -96 -10 0
-32 -22 -34 -96 -23 0
-43 -22 -45 -96 -23 0
-53 -22 -55 -96 -23 0
-62 -22 -64 -96 -23 0
-70 -22 -72 -96 -23 0
-43 -34 -45 -96 -35 0
-53 -34 -55 -96 -35 0
-62 -34 -64 -96 -35 0
-70 -34 -72 -96 -35 0
-53 -45 -55 -96 -46 0
-62 -45 -64 -96 -46 0
-70 -45 -72 -96 -46 0
-62 -55 -64 -96 -56 0
-70 -55 -72 -96 -56 0
-70 -64 -72 -96 -65 0
-84 -94 -95 -97 -98 0
-7 -94 -9 -97 -98 0
-20 -94 -22 -97 -98 0
-32 -94 -34 -97 -98 0
-43 -94 -45 -97 -98 0
-53 -94 -55 -97 -98 0
-62 -94 -64 -97 -98 0
-70 -94 -72 -97 -98 0
-7 -95 -9 -97 -99 0
-20 -95 -22 -97 -99 0
-32 -95 -34 -97 -99 0
-43 -95 -45 -97 -99 0
-53 -95 -55 -97 -99 0
-62 -95 -64 -97 -99 0
-70 -95 -72 -97 -99 0
-20 -9 -22 -97 -10 0
-32 -9 -34 -97 -10 0
-43 -9 -45 -97 -10 0
-53 -9 -55 -97 -10 0
-62 -9 -64 -97 -10 0
-70 -9 -72 -97 -10 0
-32 -22 -34 -97 -23 0
-43 -22 -45 -97 -23 0
-53 -22 -55 -97 -23 0
-62 -22 -64 -97 -23 0
-70 -22 -72 -97 -23 0
-43 -34 -45 -97 -35 0
-53 -34 -55 -97 -35 0
-62 -34 -64 -97 -35 0
-70 -34 -72 -97 -35 0
-53 -45 -55 -97 -46 0
-62 -45 -64 -97 -46 0
-70 -45 -72 -97 -46 0
-62 -55 -64 -97 -56 0
-70 -55 -72 -97 -56 0
-70 -64 -72 -97 -65 0
-7 -95 -9 -98 -99 0
-20 -95 -22 -98 -99 0
-32 -95 -34 -98 -99 0
-43 -95 -45 -98 -99 0
-53 -95 -55 -98 -99 0
-62 -95 -64 -98 -99 0
-70 -95 -72 -98 -99 0
-20 -9 -22 -98 -10 0
-32 -9 -34 -98 -10 0
-43 -9 -45 -98 -10 0
-53 -9 -55 -98 -10 0
-62 -9 -64 -98 -10 0
-70 -9 -72 -98 -10 0
-32 -22 -34 -98 -23 0
-43 -22 -45 -98 -23 0
-53 -22 -55 -98 -23 0
-62 -22 -64 -98 -23 0
-70 -22 -72 -98 -23 0
-43 -34 -45 -98 -35 0
-53 -34 -55 -98 -35 0
-62 -34 -64 -98 -35 0
-70 -34 -72 -98 -35 0
-53 -45 -55 -98 -46 0
-62 -45 -64 -98 -46 0
-70 -45 -72 -98 -46 0
-62 -55 -64 -98 -56 0
-70 -55 -72 -98 -56 0
-70 -64 -72 -98 -65 0
-20 -9 -22 -99 -10 0
-32 -9 -34 -99 -10 0
-43 -9 -45 -99 -10 0
-53 -9 -55 -99 -10 0
-62 -9 -64 -99 -10 0
-70 -9 -72 -99 -10 0
-32 -22 -34 -99 -23 0
-43 -22 -45 -99 -23 0
-53 -22 -55 -99 -23 0
-62 -22 -64 -99 -23 0
-70 -22 -72 -99 -23 0
-43 -34 -45 -99 -35 0
-53 -34 -55 -99 -35 0
-62 -34 -64 -99 -35 0
-70 -34 -72 -99 -35 0
-53 -45 -55 -99 -46 0
-62 -45 -64 -99 -46 0
-70 -45 -72 -99 -46 0
-62 -55 -64 -99 -56 0
-70 -55 -72 -99 -56 0
-70 -64 -72 -99 -65 0
-32 -22 -34 -10 -23 0
-43 -22 -45 -10 -23 0
-53 -22 -55 -10 -23 0
-62 -22 -64 -10 -23 0
-70 -22 -72 -10 -23 0
-43 -34 -45 -10 -35 0
-53 -34 -55 -10 -35 0
-62 -34 -64 -10 -35 0
-70 -34 -72 -10 -35 0
-53 -45 -55 -10 -46 0
-62 -45 -64 -10 -46 0
-70 -45 -72 -10 -46 0
-62 -55 -64 -10 -56 0
-70 -55 -72 -10 -56 0
-70 -64 -72 -10 -65 0
-43 -34 -45 -23 -35 0
-53 -34 -55 -23 -35 0
-62 -34 -64 -23 -35 0
-70 -34 -72 -23 -35 0
-53 -45 -55 -23 -46 0
-62 -45 -64 -23 -46 0
-70 -45 -72 -23 -46 0
-62 -55 -64 -23 -56 0
-70 -55 -72 -23 -56 0
-70 -64 -72 -23 -65 0
-53 -45 -55 -35 -46 0
-62 -45 -64 -35 -46 0
-70 -45 -72 -35 -46 0
-62 -55 -64 -35 -56 0
-70 -55 -72 -35 -56 0
-70 -64 -72 -35 -65 0
-62 -55 -64 -46 -56 0
-70 -55 -72 -46 -56 0
-70 -64 -72 -46 -65 0
-70 -64 -72 -56 -65 0
-84 -94 -95 -100 -101 0
-7 -94 -9 -100 -101 0
-20 -94 -22 -100 -101 0
-32 -94 -34 -100 -101 0
-43 -94 -45 -100 -101 0
-53 -94 -55 -100 -101 0
-62 -94 -64 -100 -101 0
-70 -94 -72 -100 -101 0
-7 -95 -9 -100 -102 0
-20 -95 -22 -100 -102 0
-32 -95 -34 -100 -102 0
-43 -95 -45 -100 -102 0
-53 -95 -55 -100 -102 0
-62 -95 -64 -100 -102 0
-70 -95 -72 -100 -102 0
-20 -9 -22 -100 -11 0
-32 -9 -34 -100 -11 0
-43 -9 -45 -100 -11 0
-53 -9 -55 -100 -11 0
-62 -9 -64 -100 -11 0
-70 -9 -72 -100 -11 0
-32 -22 -34 -100 -24 0
-43 -22 -45 -100 -24 0
-53 -22 -55 -100 -24 0
-62 -22 -64 -100 -24 0
-70 -22 -72 -100 -24 0
-43 -34 -45 -100 -36 0
-53 -34 -55 -100 -36 0
-62 -34 -64 -100 -36 0
-70 -34 -72 -100 -36 0
-53 -45 -55 -100 -47 0
-62 -45 -64 -100 -47 0
-70 -45 -72 -100 -47 0
-62 -55 -64 -100 -57 0
-70 -55 -72 -100 -57 0
-70 -64 -72 -100 -66 0
-7 -95 -9 -101 -102 0
-20 -95 -22 -101 -102 0
-32 -95 -34 -101 -102 0
-43 -95 -45 -101 -102 0
-53 -95 -55 -101 -102 0
-62 -95 -64 -101 -102 0
-70 -95 -72 -101 -102 0
-20 -9 -22 -101 -11 0
-32 -9 -34 -101 -11 0
-43 -9 -45 -101 -11 0
-53 -9 -55 -101 -11 0
-62 -9 -64 -101 -11 0
-70 -9 -72 -101 -11 0
-32 -22 -34 -101 -24 0
-43 -22 -45 -101 -24 0
-53 -22 -55 -101 -24 0
-62 -22 -64 -101 -24 0
-70 -22 -72 -101 -24 0
-43 -34 -45 -101 -36 0
-53 -34 -55 -101 -36 0
-62 -34 -64 -101 -36 0
-70 -34 -72 -101 -36 0
-53 -45 -55 -101 -47 0
-62 -45 -64 -101 -47 0
-70 -45 -72 -101 -47 0
-62 -55 -64 -101 -57 0
-70 -55 -72 -101 -57 0
-70 -64 -72 -101 -66 0
-20 -9 -22 -102 -11 0
-32 -9 -34 -102 -11 0
-43 -9 -45 -102 -11 0
-53 -9 -55 -102 -11 0
-62 -9 -64 -102 -11 0
-70 -9 -72 -102 -11 0
-32 -22 -34 -102 -24 0
-43 -22 -45 -102 -24 0
-53 -22 -55 -102 -24 0
-62 -22 -64 -102 -24 0
-70 -22 -72 -102 -24 0
-43 -34 -45 -102 -36 0
-53 -34 -55 -102 -36 0
-62 -34 -64 -102 -36 0
-70 -34 -72 -102 -36 0
-53 -45 -55 -102 -47 0
-62 -45 -64 -102 -47 0
-70 -45 -72 -102 -47 0
-62 -55 -64 -102 -57 0
-70 -55 -72 -102 -57 0
-70 -64 -72 -102 -66 0
-32 -22 -34 -11 -24 0
-43 -22 -45 -11 -24 0
-53 -22 -55 -11 -24 0
-62 -22 -64 -11 -24 0
-70 -22 -72 -11 -24 0
-43 -34 -45 -11 -36 0
-53 -34 -55 -11 -36 0
-62 -34 -64 -11 -36 0
-70 -34 -72 -11 -36 0
-53 -45 -55 -11 -47 0
-62 -45 -64 -11 -47 0
-70 -45 -72 -11 -47 0
-62 -55 -64 -11 -57 0
-70 -55 -72 -11 -57 0
-70 -64 -72 -11 -66 0
-43 -34 -45 -24 -36 0
-53 -34 -55 -24 -36 0
-62 -34 -64 -24 -36 0
-70 -34 -72 -24 -36 0
-53 -45 -55 -24 -47 0
-62 -45 -64 -24 -47 0
-70 -45 -72 -24 -47 0
-62 -55 -64 -24 -57 0
-70 -55 -72 -24 -57 0
-70 -64 -72 -24 -66 0
-53 -45 -55 -36 -47 0
-62 -45 -64 -36 -47 0
-70 -45 -72 -36 -47 0
-62 -55 -64 -36 -57 0
-70 -55 -72 -36 -57 0
-70 -64 -72 -36 -66 0
-62 -55 -64 -47 -57 0
-70 -55 -72 -47 -57 0
-70 -64 -72 -47 -66 0
-70 -64 -72 -57 -66 0
-7 -95 -9 -103 -104 0
-20 -95 -22 -103 -104 0
-32 -95 -34 -103 -104 0
-43 -95 -45 -103 -104 0
-53 -95 -55 -103 -104 0
-62 -95 -64 -103 -104 0
-70 -95 -72 -103 -104 0
-20 -9 -22 -103 -12 0
-32 -9 -34 -103 -12 0
-43 -9 -45 -103 -12 0
-53 -9 -55 -103 -12 0
-62 -9 -64 -103 -12 0
-70 -9 -72 -103 -12 0
-32 -22 -34 -103 -25 0
-43 -22 -45 -103 -25 0
-53 -22 -55 -103 -25 0
-62 -22 -64 -103 -25 0
-70 -22 -72 -103 -25 0
-43 -34 -45 -103 -37 0
-53 -34 -55 -103 -37 0
-62 -34 -64 -103 -37 0
-70 -34 -72 -103 -37 0
-53 -45 -55 -103 -48 0
-62 -45 -64 -103 -48 0
-70 -45 -72 -103 -48 0
-62 -55 -64 -103 -58 0
-70 -55 -72 -103 -58 0
-70 -64 -72 -103 -67 0
-20 -9 -22 -104 -12 0
-32 -9 -34 -104 -12 0
-43 -9 -45 -104 -12 0
-53 -9 -55 -104 -12 0
-62 -9 -64 -104 -12 0
-70 -9 -72 -104 -12 0
-32 -22 -34 -104 -25 0
-43 -22 -45 -104 -25 0
-53 -22 -55 -104 -25 0
-62 -22 -64 -104 -25 0
-70 -22 -72 -104 -25 0
-43 -34 -45 -104 -37 0
-53 -34 -55 -104 -37 0
-62 -34 -64 -104 -37 0
-70 -34 -72 -104 -37 0
-53 -45 -55 -104 -48 0
-62 -45 -64 -104 -48 0
-70 -45 -72 -104 -48 0
-62 -55 -64 -104 -58 0
-70 -55 -72 -104 -58 0
-70 -64 -72 -104 -67 0
-32 -22 -34 -12 -25 0
-43 -22 -45 -12 -25 0
-53 -22 -55 -12 -25 0
-62 -22 -64 -12 -25 0
-70 -22 -72 -12 -25 0
-43 -34 -45 -12 -37 0
-53 -34 -55 -12 -37 0
-62 -34 -64 -12 -37 0
-70 -34 -72 -12 -37 0
-53 -45 -55 -12 -48 0
-62 -45 -64 -12 -48 0
-70 -45 -72 -12 -48 0
-62 -55 -64 -12 -58 0
-70 -55 -72 -12 -58 0
-70 -64 -72 -12 -67 0
-43 -34 -45 -25 -37 0
-53 -34 -55 -25 -37 0
-62 -34 -64 -25 -37 0
-70 -34 -72 -25 -37 0
-53 -45 -55 -25 -48 0
-62 -45 -64 -25 -48 0
-70 -45 -72 -25 -48 0
-62 -55 -64 -25 -58 0
-70 -55 -72 -25 -58 0
-70 -64 -72 -25 -67 0
-53 -45 -55 -37 -48 0
-62 -45 -64 -37 -48 0
-70 -45 -72 -37 -48 0
-62 -55 -64 -37 -58 0
-70 -55 -72 -37 -58 0
-70 -64 -72 -37 -67 0
-62 -55 -64 -48 -58 0
-70 -55 -72 -48 -58 0
-70 -64 -72 -48 -67 0
-70 -64 -72 -58 -67 0
-20 -9 -22 -105 -13 0
-32 -9 -34 -105 -13 0
-43 -9 -45 -105 -13 0
-53 -9 -55 -105 -13 0
-62 -9 -64 -105 -13 0
-70 -9 -72 -105 -13 0
-32 -22 -34 -105 -26 0
-43 -22 -45 -105 -26 0
-53 -22 -55 -105 -26 0
-62 -22 -64 -105 -26 0
-70 -22 -72 -105 -26 0
-43 -34 -45 -105 -38 0
-53 -34 -55 -105 -38 0
-62 -34 -64 -105 -38 0
-70 -34 -72 -105 -38 0
-53 -45 -55 -105 -49 0
-62 -45 -64 -105 -49 0
-70 -45 -72 -105 -49 0
-62 -55 -64 -105 -59 0
-70 -55 -72 -105 -59 0
-70 -64 -72 -105 -68 0
-32 -22 -34 -13 -26 0
-43 -22 -45 -13 -26 0
-53 -22 -55 -13 -26 0
-62 -22 -64 -13 -26 0
-70 -22 -72 -13 -26 0
-43 -34 -45 -13 -38 0
-53 -34 -55 -13 -38 0
-62 -34 -64 -13 -38 0
-70 -34 -72 -13 -38 0
-53 -45 -55 -13 -49 0
-62 -45 -64 -13 -49 0
-70 -45 -72 -13 -49 0
-62 -55 -64 -13 -59 0
-70 -55 -72 -13 -59 0
-70 -64 -72 -13 -68 0
-43 -34 -45 -26 -38 0
-53 -34 -55 -26 -38 0
-62 -34 -64 -26 -38 0
-70 -34 -72 -26 -38 0
-53 -45 -55 -26 -49 0
-62 -45 -64 -26 -49 0
-70 -45 -72 -26 -49 0
-62 -55 -64 -26 -59 0
-70 -55 -72 -26 -59 0
-70 -64 -72 -26 -68 0
-53 -45 -55 -38 -49 0
-62 -45 -64 -38 -49 0
-70 -45 -72 -38 -49 0
-62 -55 -64 -38 -59 0
-70 -55 -72 -38 -59 0
-70 -64 -72 -38 -68 0
-62 -55 -64 -49 -59 0
-70 -55 -72 -49 -59 0
-70 -64 -72 -49 -68 0
-70 -64 -72 -59 -68 0
-32 -22 -34 -14 -27 0
-43 -22 -45 -14 -27 0
-53 -22 -55 -14 -27 0
-62 -22 -64 -14 -27 0
-70 -22 -72 -14 -27 0
-43 -34 -45 -14 -39 0
-53 -34 -55 -14 -39 0
-62 -34 -64 -14 -39 0
-70 -34 -72 -14 -39 0
-53 -45 -55 -14 -50 0
-62 -45 -64 -14 -50 0
-70 -45 -72 -14 -50 0
-62 -55 -64 -14 -60 0
-70 -55 -72 -14 -60 0
-70 -64 -72 -14 -69 0
-43 -34 -45 -27 -39 0
-53 -34 -55 -27 -39 0
-62 -34 -64 -27 -39 0
-70 -34 -72 -27 -39 0
-53 -45 -55 -27 -50 0
-62 -45 -64 -27 -50 0
-70 -45 -72 -27 -50 0
-62 -55 -64 -27 -60 0
-70 -55 -72 -27 -60 0
-70 -64 -72 -27 -69 0
-53 -45 -55 -39 -50 0
-62 -45 -64 -39 -50 0
-70 -45 -72 -39 -50 0
-62 -55 -64 -39 -60 0
-70 -55 -72 -39 -60 0
-70 -64 -72 -39 -69 0
-62 -55 -64 -50 -60 0
-70 -55 -72 -50 -60 0
-70 -64 -72 -50 -69 0
-70 -64 -72 -60 -69 0
-43 -34 -45 -1 -2 0
-53 -34 -55 -1 -2 0
-62 -34 -64 -1 -2 0
-70 -34 -72 -1 -2 0
-53 -45 -55 -1 -3 0
-62 -45 -64 -1 -3 0
-70 -45 -72 -1 -3 0
-62 -55 -64 -1 -4 0
-70 -55 -72 -1 -4 0
-70 -64 -72 -1 -5 0
-53 -45 -55 -2 -3 0
-62 -45 -64 -2 -3 0
-70 -45 -72 -2 -3 0
-62 -55 -64 -2 -4 0
-70 -55 -72 -2 -4 0
-70 -64 -72 -2 -5 0
-62 -55 -64 -3 -4 0
-70 -55 -72 -3 -4 0
-70 -64 -72 -3 -5 0
-70 -64 -72 -4 -5 0
-53 -45 -55 -15 -16 0
-62 -45 -64 -15 -16 0
-70 -45 -72 -15 -16 0
-62 -55 -64 -15 -17 0
-70 -55 -72 -15 -17 0
-70 -64 -72 -15 -18 0
-62 -55 -64 -16 -17 0
-70 -55 -72 -16 -17 0
-70 -64 -72 -16 -18 0
-70 -64 -72 -17 -18 0
-62 -55 -64 -28 -29 0
-70 -55 -72 -28 -29 0
-70 -64 -72 -28 -30 0
-70 -64 -72 -29 -30 0
-70 -64 -72 -40 -41 0
-84 -98 -99 -100 -101 0
-7 -98 -10 -100 -101 0
-20 -98 -23 -100 -101 0
-32 -98 -35 -100 -101 0
-43 -98 -46 -100 -101 0
-53 -98 -56 -100 -101 0
-62 -98 -65 -100 -101 0
-70 -98 -73 -100 -101 0
-7 -99 -10 -100 -102 0
-20 -99 -23 -100 -102 0
-32 -99 -35 -100 -102 0
-43 -99 -46 -100 -102 0
-53 -99 -56 -100 -102 0
-62 -99 -65 -100 -102 0
-70 -99 -73 -100 -102 0
-20 -10 -23 -100 -11 0
-32 -10 -35 -100 -11 0
-43 -10 -46 -100 -11 0
-53 -10 -56 -100 -11 0
-62 -10 -65 -100 -11 0
-70 -10 -73 -100 -11 0
-32 -23 -35 -100 -24 0
-43 -23 -46 -100 -24 0
-53 -23 -56 -100 -24 0
-62 -23 -65 -100 -24 0
-70 -23 -73 -100 -24 0
-43 -35 -46 -100 -36 0
-53 -35 -56 -100 -36 0
-62 -35 -65 -100 -36 0
-70 -35 -73 -100 -36 0
-53 -46 -56 -100 -47 0
-62 -46 -65 -100 -47 0
-70 -46 -73 -100 -47 0
-62 -56 -65 -100 -57 0
-70 -56 -73 -100 -57 0
-70 -65 -73 -100 -66 0
-7 -99 -10 -101 -102 0
-20 -99 -23 -101 -102 0
-32 -99 -35 -101 -102 0
-43 -99 -46 -101 -102 0
-53 -99 -56 -101 -102 0
-62 -99 -65 -101 -102 0
-70 -99 -73 -101 -102 0
-20 -10 -23 -101 -11 0
-32 -10 -35 -101 -11 0
-43 -10 -46 -101 -11 0
-53 -10 -56 -101 -11 0
-62 -10 -65 -101 -11 0
-70 -10 -73 -101 -11 0
-32 -23 -35 -101 -24 0
-43 -23 -46 -101 -24 0
-53 -23 -56 -101 -24 0
-62 -23 -65 -101 -24 0
-70 -23 -73 -101 -24 0
-43 -35 -46 -101 -36 0
-53 -35 -56 -101 -36 0
-62 -35 -65 -101 -36 0
-70 -35 -73 -101 -36 0
-53 -46 -56 -101 -47 0
-62 -46 -65 -101 -47 0
-70 -46 -73 -101 -47 0
-62 -56 -65 -101 -57 0
-70 -56 -73 -101 -57 0
-70 -65 -73 -101 -66 0
-20 -10 -23 -102 -11 0
-32 -10 -35 -102 -11 0
-43 -10 -46 -102 -11 0
-53 -10 -56 -102 -11 0
-62 -10 -65 -102 -11 0
-70 -10 -73 -102 -11 0
-32 -23 -35 -102 -24 0
-43 -23 -46 -102 -24 0
-53 -23 -56 -102 -24 0
-62 -23 -65 -102 -24 0
-70 -23 -73 -102 -24 0
-43 -35 -46 -102 -36 0
-53 -35 -56 -102 -36 0
-62 -35 -65 -102 -36 0
-70 -35 -73 -102 -36 0
-53 -46 -56 -102 -47 0
-62 -46 -65 -102 -47 0
-70 -46 -73 -102 -47 0
-62 -56 -65 -102 -57 0
-70 -56 -73 -102 -57 0
-70 -65 -73 -102 -66 0
-32 -23 -35 -11 -24 0
-43 -23 -46 -11 -24 0
-53 -23 -56 -11 -24 0
-62 -23 -65 -11 -24 0
-70 -23 -73 -11 -24 0
-43 -35 -46 -11 -36 0
-53 -35 -56 -11 -36 0
-62 -35 -65 -11 -36 0
-70 -35 -73 -11 -36 0
-53 -46 -56 -11 -47 0
-62 -46 -65 -11 -47 0
-70 -46 -73 -11 -47 0
-62 -56 -65 -11 -57 0
-70 -56 -73 -11 -57 0
-70 -65 -73 -11 -66 0
-43 -35 -46 -24 -36 0
-53 -35 -56 -24 -36 0
-62 -35 -65 -24 -36 0
-70 -35 -73 -24 -36 0
-53 -46 -56 -24 -47 0
-62 -46 -65 -24 -47 0
-70 -46 -73 -24 -47 0
-62 -56 -65 -24 -57 0
-70 -56 -73 -24 -57 0
-70 -65 -73 -24 -66 0
-53 -46 -56 -36 -47 0
-62 -46 -65 -36 -47 0
-70 -46 -73 -36 -47 0
-62 -56 -65 -36 -57 0
-70 -56 -73 -36 -57 0
-70 -65 -73 -36 -66 0
-62 -56 -65 -47 -57 0
-70 -56 -73 -47 -57 0
-70 -65 -73 -47 -66 0
-70 -65 -73 -57 -66 0
-7 -99 -10 -103 -104 0
-20 -99 -23 -103 -104 0
-32 -99 -35 -103 -104 0
-43 -99 -46 -103 -104 0
-53 -99 -56 -103 -104 0
-62 -99 -65 -103 -104 0
-70 -99 -73 -103 -104 0
-20 -10 -23 -103 -12 0
-32 -10 -35 -103 -12 0
-43 -10 -46 -103 -12 0
-53 -10 -56 -103 -12 0
-62 -10 -65 -103 -12 0
-70 -10 -73 -103 -12 0
-32 -23 -35 -103 -25 0
-43 -23 -46 -103 -25 0
-53 -23 -56 -103 -25 0
-62 -23 -65 -103 -25 0
-70 -23 -73 -103 -25 0
-43 -35 -46 -103 -37 0
-53 -35 -56 -103 -37 0
-62 -35 -65 -103 -37 0
-70 -35 -73 -103 -37 0
-53 -46 -56 -103 -48 0
-62 -46 -65 -103 -48 0
-70 -46 -73 -103 -48 0
-62 -56 -65 -103 -58 0
-70 -56 -73 -103 -58 0
-70 -65 -73 -103 -67 0
-20 -10 -23 -104 -12 0
-32 -10 -35 -104 -12 0
-43 -10 -46 -104 -12 0
-53 -10 -56 -104 -12 0
-62 -10 -65 -104 -12 0
-70 -10 -73 -104 -12 0
-32 -23 -35 -104 -25 0
-43 -23 -46 -104 -25 0
-53 -23 -56 -104 -25 0
-62 -23 -65 -104 -25 0
-70 -23 -73 -104 -25 0
-43 -35 -46 -104 -37 0
-53 -35 -56 -104 -37 0
-62 -35 -65 -104 -37 0
-70 -35 -73 -104 -37 0
-53 -46 -56 -104 -48 0
-62 -46 -65 -104 -48 0
-70 -46 -73 -104 -48 0
-62 -56 -65 -104 -58 0
-70 -56 -73 -104 -58 0
-70 -65 -73 -104 -67 0
-32 -23 -35 -12 -25 0
-43 -23 -46 -12 -25 0
-53 -23 -56 -12 -25 0
-62 -23 -65 -12 -25 0
-70 -23 -73 -12 -25 0
-43 -35 -46 -12 -37 0
-53 -35 -56 -12 -37 0
-62 -35 -65 -12 -37 0
-70 -35 -73 -12 -37 0
-53 -46 -56 -12 -48 0
-62 -46 -65 -12 -48 0
-70 -46 -73 -12 -48 0
-62 -56 -65 -12 -58 0
-70 -56 -73 -12 -58 0
-70 -65 -73 -12 -67 0
-43 -35 -46 -25 -37 0
-53 -35 -56 -25 -37 0
-62 -35 -65 -25 -37 0
-70 -35 -73 -25 -37 0
-53 -46 -56 -25 -48 0
-62 -46 -65 -25 -48 0
-70 -46 -73 -25 -48 0
-62 -56 -65 -25 -58 0
-70 -56 -73 -25 -58 0
-70 -65 -73 -25 -67 0
-53 -46 -56 -37 -48 0
-62 -46 -65 -37 -48 0
-70 -46 -73 -37 -48 0
-62 -56 -65 -37 -58 0
-70 -56 -73 -37 -58 0
-70 -65 -73 -37 -67 0
-62 -56 -65 -48 -58 0
-70 -56 -73 -48 -58 0
-70 -65 -73 -48 -67 0
-70 -65 -73 -58 -67 0
-20 -10 -23 -105 -13 0
-32 -10 -35 -105 -13 0
-43 -10 -46 -105 -13 0
-53 -10 -56 -105 -13 0
-62 -10 -65 -105 -13 0
-70 -10 -73 -105 -13 0
-32 -23 -35 -105 -26 0
-43 -23 -46 -105 -26 0
-53 -23 -56 -105 -26 0
-62 -23 -65 -105 -26 0
-70 -23 -73 -105 -26 0
-43 -35 -46 -105 -38 0
-53 -35 -56 -105 -38 0
-62 -35 -65 -105 -38 0
-70 -35 -73 -105 -38 0
-53 -46 -56 -105 -49 0
-62 -46 -65 -105 -49 0
-70 -46 -73 -105 -49 0
-62 -56 -65 -105 -59 0
-70 -56 -73 -105 -59 0
-70 -65 -73 -105 -68 0
-32 -23 -35 -13 -26 0
-43 -23 -46 -13 -26 0
-53 -23 -56 -13 -26 0
-62 -23 -65 -13 -26 0
-70 -23 -73 -13 -26 0
-43 -35 -46 -13 -38 0
-53 -35 -56 -13 -38 0
-62 -35 -65 -13 -38 0
-70 -35 -73 -13 -38 0
-53 -46 -56 -13 -49 0
-62 -46 -65 -13 -49 0
-70 -46 -73 -13 -49 0
-62 -56 -65 -13 -59 0
-70 -56 -73 -13 -59 0
-70 -65 -73 -13 -68 0
-43 -35 -46 -26 -38 0
-53 -35 -56 -26 -38 0
-62 -35 -65 -26 -38 0
-70 -35 -73 -26 -38 0
-53 -46 -56 -26 -49 0
-62 -46 -65 -26 -49 0
-70 -46 -73 -26 -49 0
-62 -56 -65 -26 -59 0
-70 -56 -73 -26 -59 0
-70 -65 -73 -26 -68 0
-53 -46 -56 -38 -49 0
-62 -46 -65 -38 -49 0
-70 -46 -73 -38 -49 0
-62 -56 -65 -38 -59 0
-70 -56 -73 -38 -59 0
-70 -65 -73 -38 -68 0
-62 -56 -65 -49 -59 0
-70 -56 -73 -49 -59 0
-70 -65 -73 -49 -68 0
-70 -65 -73 -59 -68 0
-32 -23 -35 -14 -27 0
-43 -23 -46 -14 -27 0
-53 -23 -56 -14 -27 0
-62 -23 -65 -14 -27 0
-70 -23 -73 -14 -27 0
-43 -35 -46 -14 -39 0
-53 -35 -56 -14 -39 0
-62 -35 -65 -14 -39 0
-70 -35 -73 -14 -39 0
-53 -46 -56 -14 -50 0
-62 -46 -65 -14 -50 0
-70 -46 -73 -14 -50 0
-62 -56 -65 -14 -60 0
-70 -56 -73 -14 -60 0
-70 -65 -73 -14 -69 0
-43 -35 -46 -27 -39 0
-53 -35 -56 -27 -39 0
-62 -35 -65 -27 -39 0
-70 -35 -73 -27 -39 0
-53 -46 -56 -27 -50 0
-62 -46 -65 -27 -50 0
-70 -46 -73 -27 -50 0
-62 -56 -65 -27 -60 0
-70 -56 -73 -27 -60 0
-70 -65 -73 -27 -69 0
-53 -46 -56 -39 -50 0
-62 -46 -65 -39 -50 0
-70 -46 -73 -39 -50 0
-62 -56 -65 -39 -60 0
-70 -56 -73 -39 -60 0
-70 -65 -73 -39 -69 0
-62 -56 -65 -50 -60 0
-70 -56 -73 -50 -60 0
-70 -65 -73 -50 -69 0
-70 -65 -73 -60 -69 0
-43 -35 -46 -1 -2 0
-53 -35 -56 -1 -2 0
-62 -35 -65 -1 -2 0
-70 -35 -73 -1 -2 0
-53 -46 -56 -1 -3 0
-62 -46 -65 -1 -3 0
-70 -46 -73 -1 -3 0
-62 -56 -65 -1 -4 0
-70 -56 -73 -1 -4 0
-70 -65 -73 -1 -5 0
-53 -46 -56 -2 -3 0
-62 -46 -65 -2 -3 0
-70 -46 -73 -2 -3 0
-62 -56 -65 -2 -4 0
-70 -56 -73 -2 -4 0
-70 -65 -73 -2 -5 0
-62 -56 -65 -3 -4 0
-70 -56 -73 -3 -4 0
-70 -65 -73 -3 -5 0
-70 -65 -73 -4 -5 0
-53 -46 -56 -15 -16 0
-62 -46 -65 -15 -16 0
-70 -46 -73 -15 -16 0
-62 -56 -65 -15 -17 0
-70 -56 -73 -15 -17 0
-70 -65 -73 -15 -18 0
-62 -56 -65 -16 -17 0
-70 -56 -73 -16 -17 0
-70 -65 -73 -16 -18 0
-70 -65 -73 -17 -18 0
-62 -56 -65 -28 -29 0
-70 -56 -73 -28 -29 0
-70 -65 -73 -28 -30 0
-70 -65 -73 -29 -30 0
-70 -65 -73 -40 -41 0
-7 -102 -11 -103 -104 0
-20 -102 -24 -103 -104 0
-32 -102 -36 -103 -104 0
-43 -102 -47 -103 -104 0
-53 -102 -57 -103 -104 0
-62 -102 -66 -103 -104 0
-70 -102 -74 -103 -104 0
-20 -11 -24 -103 -12 0
-32 -11 -36 -103 -12 0
-43 -11 -47 -103 -12 0
-53 -11 -57 -103 -12 0
-62 -11 -66 -103 -12 0
-70 -11 -74 -103 -12 0
-32 -24 -36 -103 -25 0
-43 -24 -47 -103 -25 0
-53 -24 -57 -103 -25 0
-62 -24 -66 -103 -25 0
-70 -24 -74 -103 -25 0
-43 -36 -47 -103 -37 0
-53 -36 -57 -103 -37 0
-62 -36 -66 -103 -37 0
-70 -36 -74 -103 -37 0
-53 -47 -57 -103 -48 0
-62 -47 -66 -103 -48 0
-70 -47 -74 -103 -48 0
-62 -57 -66 -103 -58 0
-70 -57 -74 -103 -58 0
-70 -66 -74 -103 -67 0
-20 -11 -24 -104 -12 0
-32 -11 -36 -104 -12 0
-43 -11 -47 -104 -12 0
-53 -11 -57 -104 -12 0
-62 -11 -66 -104 -12 0
-70 -11 -74 -104 -12 0
-32 -24 -36 -104 -25 0
-43 -24 -47 -104 -25 0
-53 -24 -57 -104 -25 0
-62 -24 -66 -104 -25 0
-70 -24 -74 -104 -25 0
-43 -36 -47 -104 -37 0
-53 -36 -57 -104 -37 0
-62 -36 -66 -104 -37 0
-70 -36 -74 -104 -37 0
-53 -47 -57 -104 -48 0
-62 -47 -66 -104 -48 0
-70 -47 -74 -104 -48 0
-62 -57 -66 -104 -58 0
-70 -57 -74 -104 -58 0
-70 -66 -74 -104 -67 0
-32 -24 -36 -12 -25 0
-43 -24 -47 -12 -25 0
-53 -24 -57 -12 -25 0
-62 -24 -66 -12 -25 0
-70 -24 -74 -12 -25 0
-43 -36 -47 -12 -37 0
-53 -36 -57 -12 -37 0
-62 -36 -66 -12 -37 0
-70 -36 -74 -12 -37 0
-53 -47 -57 -12 -48 0
-62 -47 -66 -12 -48 0
-70 -47 -74 -12 -48 0
-62 -57 -66 -12 -58 0
-70 -57 -74 -12 -58 0
-70 -66 -74 -12 -67 0
-43 -36 -47 -25 -37 0
-53 -36 -57 -25 -37 0
-62 -36 -66 -25 -37 0
-70 -36 -74 -25 -37 0
-53 -47 -57 -25 -48 0
-62 -47 -66 -25 -48 0
-70 -47 -74 -25 -48 0
-62 -57 -66 -25 -58 0
-70 -57 -74 -25 -58 0
-70 -66 -74 -25 -67 0
-53 -47 -57 -37 -48 0
-62 -47 -66 -37 -48 0
-70 -47 -74 -37 -48 0
-62 -57 -66 -37 -58 0
-70 -57 -74 -37 -58 0
-70 -66 -74 -37 -67 0
-62 -57 -66 -48 -58 0
-70 -57 -74 -48 -58 0
-70 -66 -74 -48 -67 0
-70 -66 -74 -58 -67 0
-20 -11 -24 -105 -13 0
-32 -11 -36 -105 -13 0
-43 -11 -47 -105 -13 0
-53 -11 -57 -105 -13 0
-62 -11 -66 -105 -13 0
-70 -11 -74 -105 -13 0
-32 -24 -36 -105 -26 0
-43 -24 -47 -105 -26 0
-53 -24 -57 -105 -26 0
-62 -24 -66 -105 -26 0
-70 -24 -74 -105 -26 0
-43 -36 -47 -105 -38 0
-53 -36 -57 -105 -38 0
-62 -36 -66 -105 -38 0
-70 -36 -74 -105 -38 0
-53 -47 -57 -105 -49 0
-62 -47 -66 -105 -49 0
-70 -47 -74 -105 -49 0
-62 -57 -66 -105 -59 0
-70 -57 -74 -105 -59 0
-70 -66 -74 -105 -68 0
-32 -24 -36 -13 -26 0
-43 -24 -47 -13 -26 0
-53 -24 -57 -13 -26 0
-62 -24 -66 -13 -26 0
-70 -24 -74 -13 -26 0
-43 -36 -47 -13 -38 0
-53 -36 -57 -13 -38 0
-62 -36 -66 -13 -38 0
-70 -36 -74 -13 -38 0
-53 -47 -57 -13 -49 0
-62 -47 -66 -13 -49 0
-70 -47 -74 -13 -49 0
-62 -57 -66 -13 -59 0
-70 -57 -74 -13 -59 0
-70 -66 -74 -13 -68 0
-43 -36 -47 -26 -38 0
-53 -36 -57 -26 -38 0
-62 -36 -66 -26 -38 0
-70 -36 -74 -26 -38 0
-53 -47 -57 -26 -49 0
-62 -47 -66 -26 -49 0
-70 -47 -74 -26 -49 0
-62 -57 -66 -26 -59 0
-70 -57 -74 -26 -59 0
-70 -66 -74 -26 -68 0
-53 -47 -57 -38 -49 0
-62 -47 -66 -38 -49 0
-70 -47 -74 -38 -49 0
-62 -57 -66 -38 -59 0
-70 -57 -74 -38 -59 0
-70 -66 -74 -38 -68 0
-62 -57 -66 -49 -59 0
-70 -57 -74 -49 -59 0
-70 -66 -74 -49 -68 0
-70 -66 -74 -59 -68 0
-32 -24 -36 -14 -27 0
-43 -24 -47 -14 -27 0
-53 -24 -57 -14 -27 0
-62 -24 -66 -14 -27 0
-70 -24 -74 -14 -27 0
-43 -36 -47 -14 -39 0
-53 -36 -57 -14 -39 0
-62 -36 -66 -14 -39 0
-70 -36 -74 -14 -39 0
-53 -47 -57 -14 -50 0
-62 -47 -66 -14 -50 0
-70 -47 -74 -14 -50 0
-62 -57 -66 -14 -60 0
-70 -57 -74 -14 -60 0
-70 -66 -74 -14 -69 0
-43 -36 -47 -27 -39 0
-53 -36 -57 -27 -39 0
-62 -36 -66 -27 -39 0
-70 -36 -74 -27 -39 0
-53 -47 -57 -27 -50 0
-62 -47 -66 -27 -50 0
-70 -47 -74 -27 -50 0
-62 -57 -66 -27 -60 0
-70 -57 -74 -27 -60 0
-70 -66 -74 -27 -69 0
-53 -47 -57 -39 -50 0
-62 -47 -66 -39 -50 0
-70 -47 -74 -39 -50 0
-62 -57 -66 -39 -60 0
-70 -57 -74 -39 -60 0
-70 -66 -74 -39 -69 0
-62 -57 -66 -50 -60 0
-70 -57 -74 -50 -60 0
-70 -66 -74 -50 -69 0
-70 -66 -74 -60 -69 0
-43 -36 -47 -1 -2 0
-53 -36 -57 -1 -2 0
-62 -36 -66 -1 -2 0
-70 -36 -74 -1 -2 0
-53 -47 -57 -1 -3 0
-62 -47 -66 -1 -3 0
-70 -47 -74 -1 -3 0
-62 -57 -66 -1 -4 0
-70 -57 -74 -1 -4 0
-70 -66 -74 -1 -5 0
-53 -47 -57 -2 -3 0
-62 -47 -66 -2 -3 0
-70 -47 -74 -2 -3 0
-62 -57 -66 -2 -4 0
-70 -57 -74 -2 -4 0
-70 -66 -74 -2 -5 0
-62 -57 -66 -3 -4 0
-70 -57 -74 -3 -4 0
-70 -66 -74 -3 -5 0
-70 -66 -74 -4 -5 0
-53 -47 -57 -15 -16 0
-62 -47 -66 -15 -16 0
-70 -47 -74 -15 -16 0
-62 -57 -66 -15 -17 0
-70 -57 -74 -15 -17 0
-70 -66 -74 -15 -18 0
-62 -57 -66 -16 -17 0
-70 -57 -74 -16 -17 0
-70 -66 -74 -16 -18 0
-70 -66 -74 -17 -18 0
-62 -57 -66 -28 -29 0
-70 -57 -74 -28 -29 0
-70 -66 -74 -28 -30 0
-70 -66 -74 -29 -30 0
-70 -66 -74 -40 -41 0
-20 -12 -25 -105 -13 0
-32 -12 -37 -105 -13 0
-43 -12 -48 -105 -13 0
-53 -12 -58 -105 -13 0
-62 -12 -67 -105 -13 0
-70 -12 -75 -105 -13 0
-32 -25 -37 -105 -26 0
-43 -25 -48 -105 -26 0
-53 -25 -58 -105 -26 0
-62 -25 -67 -105 -26 0
-70 -25 -75 -105 -26 0
-43 -37 -48 -105 -38 0
-53 -37 -58 -105 -38 0
-62 -37 -67 -105 -38 0
-70 -37 -75 -105 -38 0
-53 -48 -58 -105 -49 0
-62 -48 -67 -105 -49 0
-70 -48 -75 -105 -49 0
-62 -58 -67 -105 -59 0
-70 -58 -75 -105 -59 0
-70 -67 -75 -105 -68 0
-32 -25 -37 -13 -26 0
-43 -25 -48 -13 -26 0
-53 -25 -58 -13 -26 0
-62 -25 -67 -13 -26 0
-70 -25 -75 -13 -26 0
-43 -37 -48 -13 -38 0
-53 -37 -58 -13 -38 0
-62 -37 -67 -13 -38 0
-70 -37 -75 -13 -38 0
-53 -48 -58 -13 -49 0
-62 -48 -67 -13 -49 0
-70 -48 -75 -13 -49 0
-62 -58 -67 -13 -59 0
-70 -58 -75 -13 -59 0
-70 -67 -75 -13 -68 0
-43 -37 -48 -26 -38 0
-53 -37 -58 -26 -38 0
-62 -37 -67 -26 -38 0
-70 -37 -75 -26 -38 0
-53 -48 -58 -26 -49 0
-62 -48 -67 -26 -49 0
-70 -48 -75 -26 -49 0
-62 -58 -67 -26 -59 0
-70 -58 -75 -26 -59 0
-70 -67 -75 -26 -68 0
-53 -48 -58 -38 -49 0
-62 -48 -67 -38 -49 0
-70 -48 -75 -38 -49 0
-62 -58 -67 -38 -59 0
-70 -58 -75 -38 -59 0
-70 -67 -75 -38 -68 0
-62 -58 -67 -49 -59 0
-70 -58 -75 -49 -59 0
-70 -67 -75 -49 -68 0
-70 -67 -75 -59 -68 0
-32 -25 -37 -14 -27 0
-43 -25 -48 -14 -27 0
-53 -25 -58 -14 -27 0
-62 -25 -67 -14 -27 0
-70 -25 -75 -14 -27 0
-43 -37 -48 -14 -39 0
-53 -37 -58 -14 -39 0
-62 -37 -67 -14 -39 0
-70 -37 -75 -14 -39 0
-53 -48 -58 -14 -50 0
-62 -48 -67 -14 -50 0
-70 -48 -75 -14 -50 0
-62 -58 -67 -14 -60 0
-70 -58 -75 -14 -60 0
-70 -67 -75 -14 -69 0
-43 -37 -48 -27 -39 0
-53 -37 -58 -27 -39 0
-62 -37 -67 -27 -39 0
-70 -37 -75 -27 -39 0
-53 -48 -58 -27 -50 0
-62 -48 -67 -27 -50 0
-70 -48 -75 -27 -50 0
-62 -58 -67 -27 -60 0
-70 -58 -75 -27 -60 0
-70 -67 -75 -27 -69 0
-53 -48 -58 -39 -50 0
-62 -48 -67 -39 -50 0
-70 -48 -75 -39 -50 0
-62 -58 -67 -39 -60 0
-70 -58 -75 -39 -60 0
-70 -67 -75 -39 -69 0
-62 -58 -67 -50 -60 0
-70 -58 -75 -50 -60 0
-70 -67 -75 -50 -69 0
-70 -67 -75 -60 -69 0
-43 -37 -48 -1 -2 0
-53 -37 -58 -1 -2 0
-62 -37 -67 -1 -2 0
-70 -37 -75 -1 -2 0
-53 -48 -58 -1 -3 0
-62 -48 -67 -1 -3 0
-70 -48 -75 -1 -3 0
-62 -58 -67 -1 -4 0
-70 -58 -75 -1 -4 0
-70 -67 -75 -1 -5 0
-53 -48 -58 -2 -3 0
-62 -48 -67 -2 -3 0
-70 -48 -75 -2 -3 0
-62 -58 -67 -2 -4 0
-70 -58 -75 -2 -4 0
-70 -67 -75 -2 -5 0
-62 -58 -67 -3 -4 0
-70 -58 -75 -3 -4 0
-70 -67 -75 -3 -5 0
-70 -67 -75 -4 -5 0
-53 -48 -58 -15 -16 0
-62 -48 -67 -15 -16 0
-70 -48 -75 -15 -16 0
-62 -58 -67 -15 -17 0
-70 -58 -75 -15 -17 0
-70 -67 -75 -15 -18 0
-62 -58 -67 -16 -17 0
-70 -58 -75 -16 -17 0
-70 -67 -75 -16 -18 0
-70 -67 -75 -17 -18 0
-62 -58 -67 -28 -29 0
-70 -58 -75 -28 -29 0
-70 -67 -75 -28 -30 0
-70 -67 -75 -29 -30 0
-70 -67 -75 -40 -41 0
-32 -26 -38 -14 -27 0
-43 -26 -49 -14 -27 0
-53 -26 -59 -14 -27 0
-62 -26 -68 -14 -27 0
-70 -26 -76 -14 -27 0
-43 -38 -49 -14 -39 0
-53 -38 -59 -14 -39 0
-62 -38 -68 -14 -39 0
-70 -38 -76 -14 -39 0
-53 -49 -59 -14 -50 0
-62 -49 -68 -14 -50 0
-70 -49 -76 -14 -50 0
-62 -59 -68 -14 -60 0
-70 -59 -76 -14 -60 0
-70 -68 -76 -14 -69 0
-43 -38 -49 -27 -39 0
-53 -38 -59 -27 -39 0
-62 -38 -68 -27 -39 0
-70 -38 -76 -27 -39 0
-53 -49 -59 -27 -50 0
-62 -49 -68 -27 -50 0
-70 -49 -76 -27 -50 0
-62 -59 -68 -27 -60 0
-70 -59 -76 -27 -60 0
-70 -68 -76 -27 -69 0
-53 -49 -59 -39 -50 0
-62 -49 -68 -39 -50 0
-70 -49 -76 -39 -50 0
-62 -59 -68 -39 -60 0
-70 -59 -76 -39 -60 0
-70 -68 -76 -39 -69 0
-62 -59 -68 -50 -60 0
-70 -59 -76 -50 -60 0
-70 -68 -76 -50 -69 0
-70 -68 -76 -60 -69 0
-43 -38 -49 -1 -2 0
-53 -38 -59 -1 -2 0
-62 -38 -68 -1 -2 0
-70 -38 -76 -1 -2 0
-53 -49 -59 -1 -3 0
-62 -49 -68 -1 -3 0
-70 -49 -76 -1 -3 0
-62 -59 -68 -1 -4 0
-70 -59 -76 -1 -4 0
-70 -68 -76 -1 -5 0
-53 -49 -59 -2 -3 0
-62 -49 -68 -2 -3 0
-70 -49 -76 -2 -3 0
-62 -59 -68 -2 -4 0
-70 -59 -76 -2 -4 0
-70 -68 -76 -2 -5 0
-62 -59 -68 -3 -4 0
-70 -59 -76 -3 -4 0
-70 -68 -76 -3 -5 0
-70 -68 -76 -4 -5 0
-53 -49 -59 -15 -16 0
-62 -49 -68 -15 -16 0
-70 -49 -76 -15 -16 0
-62 -59 -68 -15 -17 0
-70 -59 -76 -15 -17 0
-70 -68 -76 -15 -18 0
-62 -59 -68 -16 -17 0
-70 -59 -76 -16 -17 0
-70 -68 -76 -16 -18 0
-70 -68 -76 -17 -18 0
-62 -59 -68 -28 -29 0
-70 -59 -76 -28 -29 0
-70 -68 -76 -28 -30 0
-70 -68 -76 -29 -30 0
-70 -68 -76 -40 -41 0
-43 -39 -50 -1 -2 0
-53 -39 -60 -1 -2 0
-62 -39 -69 -1 -2 0
-70 -39 -77 -1 -2 0
-53 -50 -60 -1 -3 0
-62 -50 -69 -1 -3 0
-70 -50 -77 -1 -3 0
-62 -60 -69 -1 -4 0
-70 -60 -77 -1 -4 0
-70 -69 -77 -1 -5 0
-53 -50 -60 -2 -3 0
-62 -50 -69 -2 -3 0
-70 -50 -77 -2 -3 0
-62 -60 -69 -2 -4 0
-70 -60 -77 -2 -4 0
-70 -69 -77 -2 -5 0
-62 -60 -69 -3 -4 0
-70 -60 -77 -3 -4 0
-70 -69 -77 -3 -5 0
-70 -69 -77 -4 -5 0
-53 -50 -60 -15 -16 0
-62 -50 -69 -15 -16 0
-70 -50 -77 -15 -16 0
-62 -60 -69 -15 -17 0
-70 -60 -77 -15 -17 0
-70 -69 -77 -15 -18 0
-62 -60 -69 -16 -17 0
-70 -60 -77 -16 -17 0
-70 -69 -77 -16 -18 0
-70 -69 -77 -17 -18 0
-62 -60 -69 -28 -29 0
-70 -60 -77 -28 -29 0
-70 -69 -77 -28 -30 0
-70 -69 -77 -29 -30 0
-70 -69 -77 -40 -41 0
-53 -3 -4 -15 -16 0
-62 -3 -5 -15 -16 0
-70 -3 -6 -15 -16 0
-62 -4 -5 -15 -17 0
-70 -4 -6 -15 -17 0
-70 -5 -6 -15 -18 0
-62 -4 -5 -16 -17 0
-70 -4 -6 -16 -17 0
-70 -5 -6 -16 -18 0
-70 -5 -6 -17 -18 0
-62 -4 -5 -28 -29 0
-70 -4 -6 -28 -29 0
-70 -5 -6 -28 -30 0
-70 -5 -6 -29 -30 0
-70 -5 -6 -40 -41 0
-62 -17 -18 -28 -29 0
-70 -17 -19 -28 -29 0
-70 -18 -19 -28 -30 0
-70 -18 -19 -29 -30 0
-70 -18 -19 -40 -41 0
-70 -30 -31 -40 -41 0
-89 -93 -94 -96 -97 0
-90 -93 -95 -96 -97 0
-8 -93 -9 -96 -97 0
-21 -93 -22 -96 -97 0
-33 -93 -34 -96 -97 0
-44 -93 -45 -96 -97 0
-54 -93 -55 -96 -97 0
-63 -93 -64 -96 -97 0
-71 -93 -72 -96 -97 0
-78 -93 -79 -96 -97 0
-90 -94 -95 -96 -98 0
-8 -94 -9 -96 -98 0
-21 -94 -22 -96 -98 0
-33 -94 -34 -96 -98 0
-44 -94 -45 -96 -98 0
-54 -94 -55 -96 -98 0
-63 -94 -64 -96 -98 0
-71 -94 -72 -96 -98 0
-78 -94 -79 -96 -98 0
-8 -95 -9 -96 -99 0
-21 -95 -22 -96 -99 0
-33 -95 -34 -96 -99 0
-44 -95 -45 -96 -99 0
-54 -95 -55 -96 -99 0
-63 -95 -64 -96 -99 0
-71 -95 -72 -96 -99 0
-78 -95 -79 -96 -99 0
-21 -9 -22 -96 -10 0
-33 -9 -34 -96 -10 0
-44 -9 -45 -96 -10 0
-54 -9 -55 -96 -10 0
-63 -9 -64 -96 -10 0
-71 -9 -72 -96 -10 0
-78 -9 -79 -96 -10 0
-33 -22 -34 -96 -23 0
-44 -22 -45 -96 -23 0
-54 -22 -55 -96 -23 0
-63 -22 -64 -96 -23 0
-71 -22 -72 -96 -23 0
-78 -22 -79 -96 -23 0
-44 -34 -45 -96 -35 0
-54 -34 -55 -96 -35 0
-63 -34 -64 -96 -35 0
-71 -34 -72 -96 -35 0
-78 -34 -79 -96 -35 0
-54 -45 -55 -96 -46 0
-63 -45 -64 -96 -46 0
-71 -45 -72 -96 -46 0
-78 -45 -79 -96 -46 0
-63 -55 -64 -96 -56 0
-71 -55 -72 -96 -56 0
-78 -55 -79 -96 -56 0
-71 -64 -72 -96 -65 0
-78 -64 -79 -96 -65 0
-78 -72 -79 -96 -73 0
-90 -94 -95 -97 -98 0
-8 -94 -9 -97 -98 0
-21 -94 -22 -97 -98 0
-33 -94 -34 -97 -98 0
-44 -94 -45 -97 -98 0
-54 -94 -55 -97 -98 0
-63 -94 -64 -97 -98 0
-71 -94 -72 -97 -98 0
-78 -94 -79 -97 -98 0
-8 -95 -9 -97 -99 0
-21 -95 -22 -97 -99 0
-33 -95 -34 -97 -99 0
-44 -95 -45 -97 -99 0
-54 -95 -55 -97 -99 0
-63 -95 -64 -97 -99 0
-71 -95 -72 -97 -99 0
-78 -95 -79 -97 -99 0
-21 -9 -22 -97 -10 0
-33 -9 -34 -97 -10 0
-44 -9 -45 -97 -10 0
-54 -9 -55 -97 -10 0
-63 -9 -64 -97 -10 0
-71 -9 -72 -97 -10 0
-78 -9 -79 -97 -10 0
-33 -22 -34 -97 -23 0
-44 -22 -45 -97 -23 0
-54 -22 -55 -97 -23 0
-63 -22 -64 -97 -23 0
-71 -22 -72 -97 -23 0
-78 -22 -79 -97 -23 0
-44 -34 -45 -97 -35 0
-54 -34 -55 -97 -35 0
-63 -34 -64 -97 -35 0
-71 -34 -72 -97 -35 0
-78 -34 -79 -97 -35 0
-54 -45 -55 -97 -46 0
-63 -45 -64 -97 -46 0
-71 -45 -72 -97 -46 0
-78 -45 -79 -97 -46 0
-63 -55 -64 -97 -56 0
-71 -55 -72 -97 -56 0
-78 -55 -79 -97 -56 0
-71 -64 -72 -97 -65 0
-78 -64 -79 -97 -65 0
-78 -72 -79 -97 -73 0
-8 -95 -9 -98 -99 0
-21 -95 -22 -98 -99 0
-33 -95 -34 -98 -99 0
-44 -95 -45 -98 -99 0
-54 -95 -55 -98 -99 0
-63 -95 -64 -98 -99 0
-71 -95 -72 -98 -99 0
-78 -95 -79 -98 -99 0
-21 -9 -22 -98 -10 0
-33 -9 -34 -98 -10 0
-44 -9 -45 -98 -10 0
-54 -9 -55 -98 -10 0
-63 -9 -64 -98 -10 0
-71 -9 -72 -98 -10 0
-78 -9 -79 -98 -10 0
-33 -22 -34 -98 -23 0
-44 -22 -45 -98 -23 0
-54 -22 -55 -98 -23 0
-63 -22 -64 -98 -23 0
-71 -22 -72 -98 -23 0
-78 -22 -79 -98 -23 0
-44 -34 -45 -98 -35 0
-54 -34 -55 -98 -35 0
-63 -34 -64 -98 -35 0
-71 -34 -72 -98 -35 0
-78 -34 -79 -98 -35 0
-54 -45 -55 -98 -46 0
-63 -45 -64 -98 -46 0
-71 -45 -72 -98 -46 0
-78 -45 -79 -98 -46 0
-63 -55 -64 -98 -56 0
-71 -55 -72 -98 -56 0
-78 -55 -79 -98 -56 0
-71 -64 -72 -98 -65 0
-78 -64 -79 -98 -65 0
-78 -72 -79 -98 -73 0
-21 -9 -22 -99 -10 0
-33 -9 -34 -99 -10 0
-44 -9 -45 -99 -10 0
-54 -9 -55 -99 -10 0
-63 -9 -64 -99 -10 0
-71 -9 -72 -99 -10 0
-78 -9 -79 -99 -10 0
-33 -22 -34 -99 -23 0
-44 -22 -45 -99 -23 0
-54 -22 -55 -99 -23 0
-63 -22 -64 -99 -23 0
-71 -22 -72 -99 -23 0
-78 -22 -79 -99 -23 0
-44 -34 -45 -99 -35 0
-54 -34 -55 -99 -35 0
-63 -34 -64 -99 -35 0
-71 -34 -72 -99 -35 0
-78 -34 -79 -99 -35 0
-54 -45 -55 -99 -46 0
-63 -45 -64 -99 -46 0
-71 -45 -72 -99 -46 0
-78 -45 -79 -99 -46 0
-63 -55 -64 -99 -56 0
-71 -55 -72 -99 -56 0
-78 -55 -79 -99 -56 0
-71 -64 -72 -99 -65 0
-78 -64 -79 -99 -65 0
-78 -72 -79 -99 -73 0
-33 -22 -34 -10 -23 0
-44 -22 -45 -10 -23 0
-54 -22 -55 -10 -23 0
-63 -22 -64 -10 -23 0
-71 -22 -72 -10 -23 0
-78 -22 -79 -10 -23 0
-44 -34 -45 -10 -35 0
-54 -34 -55 -10 -35 0
-63 -34 -64 -10 -35 0
-71 -34 -72 -10 -35 0
-78 -34 -79 -10 -35 0
-54 -45 -55 -10 -46 0
-63 -45 -64 -10 -46 0
-71 -45 -72 -10 -46 0
-78 -45 -79 -10 -46 0
-63 -55 -64 -10 -56 0
-71 -55 -72 -10 -56 0
-78 -55 -79 -10 -56 0
-71 -64 -72 -10 -65 0
-78 -64 -79 -10 -65 0
-78 -72 -79 -10 -73 0
-44 -34 -45 -23 -35 0
-54 -34 -55 -23 -35 0
-63 -34 -64 -23 -35 0
-71 -34 -72 -23 -35 0
-78 -34 -79 -23 -35 0
-54 -45 -55 -23 -46 0
-63 -45 -64 -23 -46 0
-71 -45 -72 -23 -46 0
-78 -45 -79 -23 -46 0
-63 -55 -64 -23 -56 0
-71 -55 -72 -23 -56 0
-78 -55 -79 -23 -56 0
-71 -64 -72 -23 -65 0
-78 -64 -79 -23 -65 0
-78 -72 -79 -23 -73 0
-54 -45 -55 -35 -46 0
-63 -45 -64 -35 -46 0
-71 -45 -72 -35 -46 0
-78 -45 -79 -35 -46 0
-63 -55 -64 -35 -56 0
-71 -55 -72 -35 -56 0
-78 -55 -79 -35 -56 0
-71 -64 -72 -35 -65 0
-78 -64 -79 -35 -65 0
-78 -72 -79 -35 -73 0
-63 -55 -64 -46 -56 0
-71 -55 -72 -46 -56 0
-78 -55 -79 -46 -56 0
-71 -64 -72 -46 -65 0
-78 -64 -79 -46 -65 0
-78 -72 -79 -46 -73 0
-71 -64 -72 -56 -65 0
-78 -64 -79 -56 -65 0
-78 -72 -79 -56 -73 0
-78 -72 -79 -65 -73 0
-90 -94 -95 -100 -101 0
-8 -94 -9 -100 -101 0
-21 -94 -22 -100 -101 0
-33 -94 -34 -100 -101 0
-44 -94 -45 -100 -101 0
-54 -94 -55 -100 -101 0
-63 -94 -64 -100 -101 0
-71 -94 -72 -100 -101 0
-78 -94 -79 -100 -101 0
-8 -95 -9 -100 -102 0
-21 -95 -22 -100 -102 0
-33 -95 -34 -100 -102 0
-44 -95 -45 -100 -102 0
-54 -95 -55 -100 -102 0
-63 -95 -64 -100 -102 0
-71 -95 -72 -100 -102 0
-78 -95 -79 -100 -102 0
-21 -9 -22 -100 -11 0
-33 -9 -34 -100 -11 0
-44 -9 -45 -100 -11 0
-54 -9 -55 -100 -11 0
-63 -9 -64 -100 -11 0
-71 -9 -72 -100 -11 0
-78 -9 -79 -100 -11 0
-33 -22 -34 -100 -24 0
-44 -22 -45 -100 -24 0
-54 -22 -55 -100 -24 0
-63 -22 -64 -100 -24 0
-71 -22 -72 -100 -24 0
-78 -22 -79 -100 -24 0
-44 -34 -45 -100 -36 0
-54 -34 -55 -100 -36 0
-63 -34 -64 -100 -36 0
-71 -34 -72 -100 -36 0
-78 -34 -79 -100 -36 0
-54 -45 -55 -100 -47 0
-63 -45 -64 -100 -47 0
-71 -45 -72 -100 -47 0
-78 -45 -79 -100 -47 0
-63 -55 -64 -100 -57 0
-71 -55 -72 -100 -57 0
-78 -55 -79 -100 -57 0
-71 -64 -72 -100 -66 0
-78 -64 -79 -100 -66 0
-78 -72 -79 -100 -74 0
-8 -95 -9 -101 -102 0
-21 -95 -22 -101 -102 0
-33 -95 -34 -101 -102 0
-44 -95 -45 -101 -102 0
-54 -95 -55 -101 -102 0
-63 -95 -64 -101 -102 0
-71 -95 -72 -101 -102 0
-78 -95 -79 -101 -102 0
-21 -9 -22 -101 -11 0
-33 -9 -34 -101 -11 0
-44 -9 -45 -101 -11 0
-54 -9 -55 -101 -11 0
-63 -9 -64 -101 -11 0
-71 -9 -72 -101 -11 0
-78 -9 -79 -101 -11 0
-33 -22 -34 -101 -24 0
-44 -22 -45 -101 -24 0
-54 -22 -55 -101 -24 0
-63 -22 -64 -101 -24 0
-71 -22 -72 -101 -24 0
-78 -22 -79 -101 -24 0
-44 -34 -45 -101 -36 0
-54 -34 -55 -101 -36 0
-63 -34 -64 -101 -36 0
-71 -34 -72 -101 -36 0
-78 -34 -79 -101 -36 0
-54 -45 -55 -101 -47 0
-63 -45 -64 -101 -47 0
-71 -45 -72 -101 -47 0
-78 -45 -79 -101 -47 0
-63 -55 -64 -101 -57 0
-71 -55 -72 -101 -57 0
-78 -55 -79 -101 -57 0
-71 -64 -72 -101 -66 0
-78 -64 -79 -101 -66 0
-78 -72 -79 -101 -74 0
-21 -9 -22 -102 -11 0
-33 -9 -34 -102 -11 0
-44 -9 -45 -102 -11 0
-54 -9 -55 -102 -11 0
-63 -9 -64 -102 -11 0
-71 -9 -72 -102 -11 0
-78 -9 -79 -102 -11 0
-33 -22 -34 -102 -24 0
-44 -22 -45 -102 -24 0
-54 -22 -55 -102 -24 0
-63 -22 -64 -102 -24 0
-71 -22 -72 -102 -24 0
-78 -22 -79 -102 -24 0
-44 -34 -45 -102 -36 0
-54 -34 -55 -102 -36 0
-63 -34 -64 -102 -36 0
-71 -34 -72 -102 -36 0
-78 -34 -79 -102 -36 0
-54 -45 -55 -102 -47 0
-63 -45 -64 -102 -47 0
-71 -45 -72 -102 -47 0
-78 -45 -79 -102 -47 0
-63 -55 -64 -102 -57 0
-71 -55 -72 -102 -57 0
-78 -55 -79 -102 -57 0
-71 -64 -72 -102 -66 0
-78 -64 -79 -102 -66 0
-78 -72 -79 -102 -74 0
-33 -22 -34 -11 -24 0
-44 -22 -45 -11 -24 0
-54 -22 -55 -11 -24 0
-63 -22 -64 -11 -24 0
-71 -22 -72 -11 -24 0
-78 -22 -79 -11 -24 0
-44 -34 -45 -11 -36 0
-54 -34 -55 -11 -36 0
-63 -34 -64 -11 -36 0
-71 -34 -72 -11 -36 0
-78 -34 -79 -11 -36 0
-54 -45 -55 -11 -47 0
-63 -45 -64 -11 -47 0
-71 -45 -72 -11 -47 0
-78 -45 -79 -11 -47 0
-63 -55 -64 -11 -57 0
-71 -55 -72 -11 -57 0
-78 -55 -79 -11 -57 0
-71 -64 -72 -11 -66 0
-78 -64 -79 -11 -66 0
-78 -72 -79 -11 -74 0
-44 -34 -45 -24 -36 0
-54 -34 -55 -24 -36 0
-63 -34 -64 -24 -36 0
-71 -34 -72 -24 -36 0
-78 -34 -79 -24 -36 0
-54 -45 -55 -24 -47 0
-63 -45 -64 -24 -47 0
-71 -45 -72 -24 -47 0
-78 -45 -79 -24 -47 0
-63 -55 -64 -24 -57 0
-71 -55 -72 -24 -57 0
-78 -55 -79 -24 -57 0
-71 -64 -72 -24 -66 0
-78 -64 -79 -24 -66 0
-78 -72 -79 -24 -74 0
-54 -45 -55 -36 -47 0
-63 -45 -64 -36 -47 0
-71 -45 -72 -36 -47 0
-78 -45 -79 -36 -47 0
-63 -55 -64 -36 -57 0
-71 -55 -72 -36 -57 0
-78 -55 -79 -36 -57 0
-71 -64 -72 -36 -66 0
-78 -64 -79 -36 -66 0
-78 -72 -79 -36 -74 0
-63 -55 -64 -47 -57 0
-71 -55 -72 -47 -57 0
-78 -55 -79 -47 -57 0
-71 -64 -72 -47 -66 0
-78 -64 -79 -47 -66 0
-78 -72 -79 -47 -74 0
-71 -64 -72 -57 -66 0
-78 -64 -79 -57 -66 0
-78 -72 -79 -57 -74 0
-78 -72 -79 -66 -74 0
-8 -95 -9 -103 -104 0
-21 -95 -22 -103 -104 0
-33 -95 -34 -103 -104 0
-44 -95 -45 -103 -104 0
-54 -95 -55 -103 -104 0
-63 -95 -64 -103 -104 0
-71 -95 -72 -103 -104 0
-78 -95 -79 -103 -104 0
-21 -9 -22 -103 -12 0
-33 -9 -34 -103 -12 0
-44 -9 -45 -103 -12 0
-54 -9 -55 -103 -12 0
-63 -9 -64 -103 -12 0
-71 -9 -72 -103 -12 0
-78 -9 -79 -103 -12 0
-33 -22 -34 -103 -25 0
-44 -22 -45 -103 -25 0
-54 -22 -55 -103 -25 0
-63 -22 -64 -103 -25 0
-71 -22 -72 -103 -25 0
-78 -22 -79 -103 -25 0
-44 -34 -45 -103 -37 0
-54 -34 -55 -103 -37 0
-63 -34 -64 -103 -37 0
-71 -34 -72 -103 -37 0
-78 -34 -79 -103 -37 0
-54 -45 -55 -103 -48 0
-63 -45 -64 -103 -48 0
-71 -45 -72 -103 -48 0
-78 -45 -79 -103 -48 0
-63 -55 -64 -103 -58 0
-71 -55 -72 -103 -58 0
-78 -55 -79 -103 -58 0
-71 -64 -72 -103 -67 0
-78 -64 -79 -103 -67 0
-78 -72 -79 -103 -75 0
-21 -9 -22 -104 -12 0
-33 -9 -34 -104 -12 0
-44 -9 -45 -104 -12 0
-54 -9 -55 -104 -12 0
-63 -9 -64 -104 -12 0
-71 -9 -72 -104 -12 0
-78 -9 -79 -104 -12 0
-33 -22 -34 -104 -25 0
-44 -22 -45 -104 -25 0
-54 -22 -55 -104 -25 0
-63 -22 -64 -104 -25 0
-71 -22 -72 -104 -25 0
-78 -22 -79 -104 -25 0
-44 -34 -45 -104 -37 0
-54 -34 -55 -104 -37 0
-63 -34 -64 -104 -37 0
-71 -34 -72 -104 -37 0
-78 -34 -79 -104 -37 0
-54 -45 -55 -104 -48 0
-63 -45 -64 -104 -48 0
-71 -45 -72 -104 -48 0
-78 -45 -79 -104 -48 0
-63 -55 -64 -104 -58 0
-71 -55 -72 -104 -58 0
-78 -55 -79 -104 -58 0
-71 -64 -72 -104 -67 0
-78 -64 -79 -104 -67 0
-78 -72 -79 -104 -75 0
-33 -22 -34 -12 -25 0
-44 -22 -45 -12 -25 0
-54 -22 -55 -12 -25 0
-63 -22 -64 -12 -25 0
-71 -22 -72 -12 -25 0
-78 -22 -79 -12 -25 0
-44 -34 -45 -12 -37 0
-54 -34 -55 -12 -37 0
-63 -34 -64 -12 -37 0
-71 -34 -72 -12 -37 0
-78 -34 -79 -12 -37 0
-54 -45 -55 -12 -48 0
-63 -45 -64 -12 -48 0
-71 -45 -72 -12 -48 0
-78 -45 -79 -12 -48 0
-63 -55 -64 -12 -58 0
-71 -55 -72 -12 -58 0
-78 -55 -79 -12 -58 0
-71 -64 -72 -12 -67 0
-78 -64 -79 -12 -67 0
-78 -72 -79 -12 -75 0
-44 -34 -45 -25 -37 0
-54 -34 -55 -25 -37 0
-63 -34 -64 -25 -37 0
-71 -34 -72 -25 -37 0
-78 -34 -79 -25 -37 0
-54 -45 -55 -25 -48 0
-63 -45 -64 -25 -48 0
-71 -45 -72 -25 -48 0
-78 -45 -79 -25 -48 0
-63 -55 -64 -25 -58 0
-71 -55 -72 -25 -58 0
-78 -55 -79 -25 -58 0
-71 -64 -72 -25 -67 0
-78 -64 -79 -25 -67 0
-78 -72 -79 -25 -75 0
-54 -45 -55 -37 -48 0
-63 -45 -64 -37 -48 0
-71 -45 -72 -37 -48 0
-78 -45 -79 -37 -48 0
-63 -55 -64 -37 -58 0
-71 -55 -72 -37 -58 0
-78 -55 -79 -37 -58 0
-71 -64 -72 -37 -67 0
-78 -64 -79 -37 -67 0
-78 -72 -79 -37 -75 0
-63 -55 -64 -48 -58 0
-71 -55 -72 -48 -58 0
-78 -55 -79 -48 -58 0
-71 -64 -72 -48 -67 0
-78 -64 -79 -48 -67 0
-78 -72 -79 -48 -75 0
-71 -64 -72 -58 -67 0
-78 -64 -79 -58 -67 0
-78 -72 -79 -58 -75 0
-78 -72 -79 -67 -75 0
-21 -9 -22 -105 -13 0
-33 -9 -34 -105 -13 0
-44 -9 -45 -105 -13 0
-54 -9 -55 -105 -13 0
-63 -9 -64 -105 -13 0
-71 -9 -72 -105 -13 0
-78 -9 -79 -105 -13 0
-33 -22 -34 -105 -26 0
-44 -22 -45 -105 -26 0
-54 -22 -55 -105 -26 0
-63 -22 -64 -105 -26 0
-71 -22 -72 -105 -26 0
-78 -22 -79 -105 -26 0
-44 -34 -45 -105 -38 0
-54 -34 -55 -105 -38 0
-63 -34 -64 -105 -38 0
-71 -34 -72 -105 -38 0
-78 -34 -79 -105 -38 0
-54 -45 -55 -105 -49 0
-63 -45 -64 -105 -49 0
-71 -45 -72 -105 -49 0
-78 -45 -79 -105 -49 0
-63 -55 -64 -105 -59 0
-71 -55 -72 -105 -59 0
-78 -55 -79 -105 -59 0
-71 -64 -72 -105 -68 0
-78 -64 -79 -105 -68 0
-78 -72 -79 -105 -76 0
-33 -22 -34 -13 -26 0
-44 -22 -45 -13 -26 0
-54 -22 -55 -13 -26 0
-63 -22 -64 -13 -26 0
-71 -22 -72 -13 -26 0
-78 -22 -79 -13 -26 0
-44 -34 -45 -13 -38 0
-54 -34 -55 -13 -38 0
-63 -34 -64 -13 -38 0
-71 -34 -72 -13 -38 0
-78 -34 -79 -13 -38 0
-54 -45 -55 -13 -49 0
-63 -45 -64 -13 -49 0
-71 -45 -72 -13 -49 0
-78 -45 -79 -13 -49 0
-63 -55 -64 -13 -59 0
-71 -55 -72 -13 -59 0
-78 -55 -79 -13 -59 0
-71 -64 -72 -13 -68 0
-78 -64 -79 -13 -68 0
-78 -72 -79 -13 -76 0
-44 -34 -45 -26 -38 0
-54 -34 -55 -26 -38 0
-63 -34 -64 -26 -38 0
-71 -34 -72 -26 -38 0
-78 -34 -79 -26 -38 0
-54 -45 -55 -26 -49 0
-63 -45 -64 -26 -49 0
-71 -45 -72 -26 -49 0
-78 -45 -79 -26 -49 0
-63 -55 -64 -26 -59 0
-71 -55 -72 -26 -59 0
-78 -55 -79 -26 -59 0
-71 -64 -72 -26 -68 0
-78 -64 -79 -26 -68 0
-78 -72 -79 -26 -76 0
-54 -45 -55 -38 -49 0
-63 -45 -64 -38 -49 0
-71 -45 -72 -38 -49 0
-78 -45 -79 -38 -49 0
-63 -55 -64 -38 -59 0
-71 -55 -72 -38 -59 0
-78 -55 -79 -38 -59 0
-71 -64 -72 -38 -68 0
-78 -64 -79 -38 -68 0
-78 -72 -79 -38 -76 0
-63 -55 -64 -49 -59 0
-71 -55 -72 -49 -59 0
-78 -55 -79 -49 -59 0
-71 -64 -72 -49 -68 0
-78 -64 -79 -49 -68 0
-78 -72 -79 -49 -76 0
-71 -64 -72 -59 -68 0
-78 -64 -79 -59 -68 0
-78 -72 -79 -59 -76 0
-78 -72 -79 -68 -76 0
-33 -22 -34 -14 -27 0
-44 -22 -45 -14 -27 0
-54 -22 -55 -14 -27 0
-63 -22 -64 -14 -27 0
-71 -22 -72 -14 -27 0
-78 -22 -79 -14 -27 0
-44 -34 -45 -14 -39 0
-54 -34 -55 -14 -39 0
-63 -34 -64 -14 -39 0
-71 -34 -72 -14 -39 0
-78 -34 -79 -14 -39 0
-54 -45 -55 -14 -50 0
-63 -45 -64 -14 -50 0
-71 -45 -72 -14 -50 0
-78 -45 -79 -14 -50 0
-63 -55 -64 -14 -60 0
-71 -55 -72 -14 -60 0
-78 -55 -79 -14 -60 0
-71 -64 -72 -14 -69 0
-78 -64 -79 -14 -69 0
-78 -72 -79 -14 -77 0
-44 -34 -45 -27 -39 0
-54 -34 -55 -27 -39 0
-63 -34 -64 -27 -39 0
-71 -34 -72 -27 -39 0
-78 -34 -79 -27 -39 0
-54 -45 -55 -27 -50 0
-63 -45 -64 -27 -50 0
-71 -45 -72 -27 -50 0
-78 -45 -79 -27 -50 0
-63 -55 -64 -27 -60 0
-71 -55 -72 -27 -60 0
-78 -55 -79 -27 -60 0
-71 -64 -72 -27 -69 0
-78 -64 -79 -27 -69 0
-78 -72 -79 -27 -77 0
-54 -45 -55 -39 -50 0
-63 -45 -64 -39 -50 0
-71 -45 -72 -39 -50 0
-78 -45 -79 -39 -50 0
-63 -55 -64 -39 -60 0
-71 -55 -72 -39 -60 0
-78 -55 -79 -39 -60 0
-71 -64 -72 -39 -69 0
-78 -64 -79 -39 -69 0
-78 -72 -79 -39 -77 0
-63 -55 -64 -50 -60 0
-71 -55 -72 -50 -60 0
-78 -55 -79 -50 -60 0
-71 -64 -72 -50 -69 0
-78 -64 -79 -50 -69 0
-78 -72 -79 -50 -77 0
-71 -64 -72 -60 -69 0
-78 -64 -79 -60 -69 0
-78 -72 -79 -60 -77 0
-78 -72 -79 -69 -77 0
-44 -34 -45 -1 -2 0
-54 -34 -55 -1 -2 0
-63 -34 -64 -1 -2 0
-71 -34 -72 -1 -2 0
-78 -34 -79 -1 -2 0
-54 -45 -55 -1 -3 0
-63 -45 -64 -1 -3 0
-71 -45 -72 -1 -3 0
-78 -45 -79 -1 -3 0
-63 -55 -64 -1 -4 0
-71 -55 -72 -1 -4 0
-78 -55 -79 -1 -4 0
-71 -64 -72 -1 -5 0
-78 -64 -79 -1 -5 0
-78 -72 -79 -1 -6 0
-54 -45 -55 -2 -3 0
-63 -45 -64 -2 -3 0
-71 -45 -72 -2 -3 0
-78 -45 -79 -2 -3 0
-63 -55 -64 -2 -4 0
-71 -55 -72 -2 -4 0
-78 -55 -79 -2 -4 0
-71 -64 -72 -2 -5 0
-78 -64 -79 -2 -5 0
-78 -72 -79 -2 -6 0
-63 -55 -64 -3 -4 0
-71 -55 -72 -3 -4 0
-78 -55 -79 -3 -4 0
-71 -64 -72 -3 -5 0
-78 -64 -79 -3 -5 0
-78 -72 -79 -3 -6 0
-71 -64 -72 -4 -5 0
-78 -64 -79 -4 -5 0
-78 -72 -79 -4 -6 0
-78 -72 -79 -5 -6 0
-54 -45 -55 -15 -16 0
-63 -45 -64 -15 -16 0
-71 -45 -72 -15 -16 0
-78 -45 -79 -15 -16 0
-63 -55 -64 -15 -17 0
-71 -55 -72 -15 -17 0
-78 -55 -79 -15 -17 0
-71 -64 -72 -15 -18 0
-78 -64 -79 -15 -18 0
-78 -72 -79 -15 -19 0
-63 -55 -64 -16 -17 0
-71 -55 -72 -16 -17 0
-78 -55 -79 -16 -17 0
-71 -64 -72 -16 -18 0
-78 -64 -79 -16 -18 0
-78 -72 -79 -16 -19 0
-71 -64 -72 -17 -18 0
-78 -64 -79 -17 -18 0
-78 -72 -79 -17 -19 0
-78 -72 -79 -18 -19 0
-63 -55 -64 -28 -29 0
-71 -55 -72 -28 -29 0
-78 -55 -79 -28 -29 0
-71 -64 -72 -28 -30 0
-78 -64 -79 -28 -30 0
-78 -72 -79 -28 -31 0
-71 -64 -72 -29 -30 0
-78 -64 -79 -29 -30 0
-78 -72 -79 -29 -31 0
-78 -72 -79 -30 -31 0
-71 -64 -72 -40 -41 0
-78 -64 -79 -40 -41 0
-78 -72 -79 -40 -42 0
-78 -72 -79 -41 -42 0
-78 -72 -79 -51 -52 0
-90 -98 -99 -100 -101 0
-8 -98 -10 -100 -101 0
-21 -98 -23 -100 -101 0
-33 -98 -35 -100 -101 0
-44 -98 -46 -100 -101 0
-54 -98 -56 -100 -101 0
-63 -98 -65 -100 -101 0
-71 -98 -73 -100 -101 0
-78 -98 -80 -100 -101 0
-8 -99 -10 -100 -102 0
-21 -99 -23 -100 -102 0
-33 -99 -35 -100 -102 0
-44 -99 -46 -100 -102 0
-54 -99 -56 -100 -102 0
-63 -99 -65 -100 -102 0
-71 -99 -73 -100 -102 0
-78 -99 -80 -100 -102 0
-21 -10 -23 -100 -11 0
-33 -10 -35 -100 -11 0
-44 -10 -46 -100 -11 0
-54 -10 -56 -100 -11 0
-63 -10 -65 -100 -11 0
-71 -10 -73 -100 -11 0
-78 -10 -80 -100 -11 0
-33 -23 -35 -100 -24 0
-44 -23 -46 -100 -24 0
-54 -23 -56 -100 -24 0
-63 -23 -65 -100 -24 0
-71 -23 -73 -100 -24 0
-78 -23 -80 -100 -24 0
-44 -35 -46 -100 -36 0
-54 -35 -56 -100 -36 0
-63 -35 -65 -100 -36 0
-71 -35 -73 -100 -36 0
-78 -35 -80 -100 -36 0
-54 -46 -56 -100 -47 0
-63 -46 -65 -100 -47 0
-71 -46 -73 -100 -47 0
-78 -46 -80 -100 -47 0
-63 -56 -65 -100 -57 0
-71 -56 -73 -100 -57 0
-78 -56 -80 -100 -57 0
-71 -65 -73 -100 -66 0
-78 -65 -80 -100 -66 0
-78 -73 -80 -100 -74 0
-8 -99 -10 -101 -102 0
-21 -99 -23 -101 -102 0
-33 -99 -35 -101 -102 0
-44 -99 -46 -101 -102 0
-54 -99 -56 -101 -102 0
-63 -99 -65 -101 -102 0
-71 -99 -73 -101 -102 0
-78 -99 -80 -101 -102 0
-21 -10 -23 -101 -11 0
-33 -10 -35 -101 -11 0
-44 -10 -46 -101 -11 0
-54 -10 -56 -101 -11 0
-63 -10 -65 -101 -11 0
-71 -10 -73 -101 -11 0
-78 -10 -80 -101 -11 0
-33 -23 -35 -101 -24 0
-44 -23 -46 -101 -24 0
-54 -23 -56 -101 -24 0
-63 -23 -65 -101 -24 0
-71 -23 -73 -101 -24 0
-78 -23 -80 -101 -24 0
-44 -35 -46 -101 -36 0
-54 -35 -56 -101 -36 0
-63 -35 -65 -101 -36 0
-71 -35 -73 -101 -36 0
-78 -35 -80 -101 -36 0
-54 -46 -56 -101 -47 0
-63 -46 -65 -101 -47 0
-71 -46 -73 -101 -47 0
-78 -46 -80 -101 -47 0
-63 -56 -65 -101 -57 0
-71 -56 -73 -101 -57 0
-78 -56 -80 -101 -57 0
-71 -65 -73 -101 -66 0
-78 -65 -80 -101 -66 0
-78 -73 -80 -101 -74 0
-21 -10 -23 -102 -11 0
-33 -10 -35 -102 -11 0
-44 -10 -46 -102 -11 0
-54 -10 -56 -102 -11 0
-63 -10 -65 -102 -11 0
-71 -10 -73 -102 -11 0
-78 -10 -80 -102 -11 0
-33 -23 -35 -102 -24 0
-44 -23 -46 -102 -24 0
-54 -23 -56 -102 -24 0
-63 -23 -65 -102 -24 0
-71 -23 -73 -102 -24 0
-78 -23 -80 -102 -24 0
-44 -35 -46 -102 -36 0
-54 -35 -56 -102 -36 0
-63 -35 -65 -102 -36 0
-71 -35 -73 -102 -36 0
-78 -35 -80 -102 -36 0
-54 -46 -56 -102 -47 0
-63 -46 -65 -102 -47 0
-71 -46 -73 -102 -47 0
-78 -46 -80 -102 -47 0
-63 -56 -65 -102 -57 0
-71 -56 -73 -102 -57 0
-78 -56 -80 -102 -57 0
-71 -65 -73 -102 -66 0
-78 -65 -80 -102 -66 0
-78 -73 -80 -102 -74 0
-33 -23 -35 -11 -24 0
-44 -23 -46 -11 -24 0
-54 -23 -56 -11 -24 0
-63 -23 -65 -11 -24 0
-71 -23 -73 -11 -24 0
-78 -23 -80 -11 -24 0
-44 -35 -46 -11 -36 0
-54 -35 -56 -11 -36 0
-63 -35 -65 -11 -36 0
-71 -35 -73 -11 -36 0
-78 -35 -80 -11 -36 0
-54 -46 -56 -11 -47 0
-63 -46 -65 -11 -47 0
-71 -46 -73 -11 -47 0
-78 -46 -80 -11 -47 0
-63 -56 -65 -11 -57 0
-71 -56 -73 -11 -57 0
-78 -56 -80 -11 -57 0
-71 -65 -73 -11 -66 0
-78 -65 -80 -11 -66 0
-78 -73 -80 -11 -74 0
-44 -35 -46 -24 -36 0
-54 -35 -56 -24 -36 0
-63 -35 -65 -24 -36 0
-71 -35 -73 -24 -36 0
-78 -35 -80 -24 -36 0
-54 -46 -56 -24 -47 0
-63 -46 -65 -24 -47 0
-71 -46 -73 -24 -47 0
-78 -46 -80 -24 -47 0
-63 -56 -65 -24 -57 0
-71 -56 -73 -24 -57 0
-78 -56 -80 -24 -57 0
-71 -65 -73 -24 -66 0
-78 -65 -80 -24 -66 0
-78 -73 -80 -24 -74 0
-54 -46 -56 -36 -47 0
-63 -46 -65 -36 -47 0
-71 -46 -73 -36 -47 0
-78 -46 -80 -36 -47 0
-63 -56 -65 -36 -57 0
-71 -56 -73 -36 -57 0
-78 -56 -80 -36 -57 0
-71 -65 -73 -36 -66 0
-78 -65 -80 -36 -66 0
-78 -73 -80 -36 -74 0
-63 -56 -65 -47 -57 0
-71 -56 -73 -47 -57 0
-78 -56 -80 -47 -57 0
-71 -65 -73 -47 -66 0
-78 -65 -80 -47 -66 0
-78 -73 -80 -47 -74 0
-71 -65 -73 -57 -66 0
-78 -65 -80 -57 -66 0
-78 -73 -80 -57 -74 0
-78 -73 -80 -66 -74 0
-8 -99 -10 -103 -104 0
-21 -99 -23 -103 -104 0
-33 -99 -35 -103 -104 0
-44 -99 -46 -103 -104 0
-54 -99 -56 -103 -104 0
-63 -99 -65 -103 -104 0
-71 -99 -73 -103 -104 0
-78 -99 -80 -103 -104 0
-21 -10 -23 -103 -12 0
-33 -10 -35 -103 -12 0
-44 -10 -46 -103 -12 0
-54 -10 -56 -103 -12 0
-63 -10 -65 -103 -12 0
-71 -10 -73 -103 -12 0
-78 -10 -80 -103 -12 0
-33 -23 -35 -103 -25 0
-44 -23 -46 -103 -25 0
-54 -23 -56 -103 -25 0
-63 -23 -65 -103 -25 0
-71 -23 -73 -103 -25 0
-78 -23 -80 -103 -25 0
-44 -35 -46 -103 -37 0
-54 -35 -56 -103 -37 0
-63 -35 -65 -103 -37 0
-71 -35 -73 -103 -37 0
-78 -35 -80 -103 -37 0
-54 -46 -56 -103 -48 0
-63 -46 -65 -103 -48 0
-71 -46 -73 -103 -48 0
-78 -46 -80 -103 -48 0
-63 -56 -65 -103 -58 0
-71 -56 -73 -103 -58 0
-78 -56 -80 -103 -58 0
-71 -65 -73 -103 -67 0
-78 -65 -80 -103 -67 0
-78 -73 -80 -103 -75 0
-21 -10 -23 -104 -12 0
-33 -10 -35 -104 -12 0
-44 -10 -46 -104 -12 0
-54 -10 -56 -104 -12 0
-63 -10 -65 -104 -12 0
-71 -10 -73 -104 -12 0
-78 -10 -80 -104 -12 0
-33 -23 -35 -104 -25 0
-44 -23 -46 -104 -25 0
-54 -23 -56 -104 -25 0
-63 -23 -65 -104 -25 0
-71 -23 -73 -104 -25 0
-78 -23 -80 -104 -25 0
-44 -35 -46 -104 -37 0
-54 -35 -56 -104 -37 0
-63 -35 -65 -104 -37 0
-71 -35 -73 -104 -37 0
-78 -35 -80 -104 -37 0
-54 -46 -56 -104 -48 0
-63 -46 -65 -104 -48 0
-71 -46 -73 -104 -48 0
-78 -46 -80 -104 -48 0
-63 -56 -65 -104 -58 0
-71 -56 -73 -104 -58 0
-78 -56 -80 -104 -58 0
-71 -65 -73 -104 -67 0
-78 -65 -80 -104 -67 0
-78 -73 -80 -104 -75 0
-33 -23 -35 -12 -25 0
-44 -23 -46 -12 -25 0
-54 -23 -56 -12 -25 0
-63 -23 -65 -12 -25 0
-71 -23 -73 -12 -25 0
-78 -23 -80 -12 -25 0
-44 -35 -46 -12 -37 0
-54 -35 -56 -12 -37 0
-63 -35 -65 -12 -37 0
-71 -35 -73 -12 -37 0
-78 -35 -80 -12 -37 0
-54 -46 -56 -12 -48 0
-63 -46 -65 -12 -48 0
-71 -46 -73 -12 -48 0
-78 -46 -80 -12 -48 0
-63 -56 -65 -12 -58 0
-71 -56 -73 -12 -58 0
-78 -56 -80 -12 -58 0
-71 -65 -73 -12 -67 0
-78 -65 -80 -12 -67 0
-78 -73 -80 -12 -75 0
-44 -35 -46 -25 -37 0
-54 -35 -56 -25 -37 0
-63 -35 -65 -25 -37 0
-71 -35 -73 -25 -37 0
-78 -35 -80 -25 -37 0
-54 -46 -56 -25 -48 0
-63 -46 -65 -25 -48 0
-71 -46 -73 -25 -48 0
-78 -46 -80 -25 -48 0
-63 -56 -65 -25 -58 0
-71 -56 -73 -25 -58 0
-78 -56 -80 -25 -58 0
-71 -65 -73 -25 -67 0
-78 -65 -80 -25 -67 0
-78 -73 -80 -25 -75 0
-54 -46 -56 -37 -48 0
-63 -46 -65 -37 -48 0
-71 -46 -73 -37 -48 0
-78 -46 -80 -37 -48 0
-63 -56 -65 -37 -58 0
-71 -56 -73 -37 -58 0
-78 -56 -80 -37 -58 0
-71 -65 -73 -37 -67 0
-78 -65 -80 -37 -67 0
-78 -73 -80 -37 -75 0
-63 -56 -65 -48 -58 0
-71 -56 -73 -48 -58 0
-78 -56 -80 -48 -58 0
-71 -65 -73 -48 -67 0
-78 -65 -80 -48 -67 0
-78 -73 -80 -48 -75 0
-71 -65 -73 -58 -67 0
-78 -65 -80 -58 -67 0
-78 -73 -80 -58 -75 0
-78 -73 -80 -67 -75 0
-21 -10 -23 -105 -13 0
-33 -10 -35 -105 -13 0
-44 -10 -46 -105 -13 0
-54 -10 -56 -105 -13 0
-63 -10 -65 -105 -13 0
-71 -10 -73 -105 -13 0
-78 -10 -80 -105 -13 0
-33 -23 -35 -105 -26 0
-44 -23 -46 -105 -26 0
-54 -23 -56 -105 -26 0
-63 -23 -65 -105 -26 0
-71 -23 -73 -105 -26 0
-78 -23 -80 -105 -26 0
-44 -35 -46 -105 -38 0
-54 -35 -56 -105 -38 0
-63 -35 -65 -105 -38 0
-71 -35 -73 -105 -38 0
-78 -35 -80 -105 -38 0
-54 -46 -56 -105 -49 0
-63 -46 -65 -105 -49 0
-71 -46 -73 -105 -49 0
-78 -46 -80 -105 -49 0
-63 -56 -65 -105 -59 0
-71 -56 -73 -105 -59 0
-78 -56 -80 -105 -59 0
-71 -65 -73 -105 -68 0
-78 -65 -80 -105 -68 0
-78 -73 -80 -105 -76 0
-33 -23 -35 -13 -26 0
-44 -23 -46 -13 -26 0
-54 -23 -56 -13 -26 0
-63 -23 -65 -13 -26 0
-71 -23 -73 -13 -26 0
-78 -23 -80 -13 -26 0
-44 -35 -46 -13 -38 0
-54 -35 -56 -13 -38 0
-63 -35 -65 -13 -38 0
-71 -35 -73 -13 -38 0
-78 -35 -80 -13 -38 0
-54 -46 -56 -13 -49 0
-63 -46 -65 -13 -49 0
-71 -46 -73 -13 -49 0
-78 -46 -80 -13 -49 0
-63 -56 -65 -13 -59 0
-71 -56 -73 -13 -59 0
-78 -56 -80 -13 -59 0
-71 -65 -73 -13 -68 0
-78 -65 -80 -13 -68 0
-78 -73 -80 -13 -76 0
-44 -35 -46 -26 -38 0
-54 -35 -56 -26 -38 0
-63 -35 -65 -26 -38 0
-71 -35 -73 -26 -38 0
-78 -35 -80 -26 -38 0
-54 -46 -56 -26 -49 0
-63 -46 -65 -26 -49 0
-71 -46 -73 -26 -49 0
-78 -46 -80 -26 -49 0
-63 -56 -65 -26 -59 0
-71 -56 -73 -26 -59 0
-78 -56 -80 -26 -59 0
-71 -65 -73 -26 -68 0
-78 -65 -80 -26 -68 0
-78 -73 -80 -26 -76 0
-54 -46 -56 -38 -49 0
-63 -46 -65 -38 -49 0
-71 -46 -73 -38 -49 0
-78 -46 -80 -38 -49 0
-63 -56 -65 -38 -59 0
-71 -56 -73 -38 -59 0
-78 -56 -80 -38 -59 0
-71 -65 -73 -38 -68 0
-78 -65 -80 -38 -68 0
-78 -73 -80 -38 -76 0
-63 -56 -65 -49 -59 0
-71 -56 -73 -49 -59 0
-78 -56 -80 -49 -59 0
-71 -65 -73 -49 -68 0
-78 -65 -80 -49 -68 0
-78 -73 -80 -49 -76 0
-71 -65 -73 -59 -68 0
-78 -65 -80 -59 -68 0
-78 -73 -80 -59 -76 0
-78 -73 -80 -68 -76 0
-33 -23 -35 -14 -27 0
-44 -23 -46 -14 -27 0
-54 -23 -56 -14 -27 0
-63 -23 -65 -14 -27 0
-71 -23 -73 -14 -27 0
-78 -23 -80 -14 -27 0
-44 -35 -46 -14 -39 0
-54 -35 -56 -14 -39 0
-63 -35 -65 -14 -39 0
-71 -35 -73 -14 -39 0
-78 -35 -80 -14 -39 0
-54 -46 -56 -14 -50 0
-63 -46 -65 -14 -50 0
-71 -46 -73 -14 -50 0
-78 -46 -80 -14 -50 0
-63 -56 -65 -14 -60 0
-71 -56 -73 -14 -60 0
-78 -56 -80 -14 -60 0
-71 -65 -73 -14 -69 0
-78 -65 -80 -14 -69 0
-78 -73 -80 -14 -77 0
-44 -35 -46 -27 -39 0
-54 -35 -56 -27 -39 0
-63 -35 -65 -27 -39 0
-71 -35 -73 -27 -39 0
-78 -35 -80 -27 -39 0
-54 -46 -56 -27 -50 0
-63 -46 -65 -27 -50 0
-71 -46 -73 -27 -50 0
-78 -46 -80 -27 -50 0
-63 -56 -65 -27 -60 0
-71 -56 -73 -27 -60 0
-78 -56 -80 -27 -60 0
-71 -65 -73 -27 -69 0
-78 -65 -80 -27 -69 0
-78 -73 -80 -27 -77 0
-54 -46 -56 -39 -50 0
-63 -46 -65 -39 -50 0
-71 -46 -73 -39 -50 0
-78 -46 -80 -39 -50 0
-63 -56 -65 -39 -60 0
-71 -56 -73 -39 -60 0
-78 -56 -80 -39 -60 0
-71 -65 -73 -39 -69 0
-78 -65 -80 -39 -69 0
-78 -73 -80 -39 -77 0
-63 -56 -65 -50 -60 0
-71 -56 -73 -50 -60 0
-78 -56 -80 -50 -60 0
-71 -65 -73 -50 -69 0
-78 -65 -80 -50 -69 0
-78 -73 -80 -50 -77 0
-71 -65 -73 -60 -69 0
-78 -65 -80 -60 -69 0
-78 -73 -80 -60 -77 0
-78 -73 -80 -69 -77 0
-44 -35 -46 -1 -2 0
-54 -35 -56 -1 -2 0
-63 -35 -65 -1 -2 0
-71 -35 -73 -1 -2 0
-78 -35 -80 -1 -2 0
-54 -46 -56 -1 -3 0
-63 -46 -65 -1 -3 0
-71 -46 -73 -1 -3 0
-78 -46 -80 -1 -3 0
-63 -56 -65 -1 -4 0
-71 -56 -73 -1 -4 0
-78 -56 -80 -1 -4 0
-71 -65 -73 -1 -5 0
-78 -65 -80 -1 -5 0
-78 -73 -80 -1 -6 0
-54 -46 -56 -2 -3 0
-63 -46 -65 -2 -3 0
-71 -46 -73 -2 -3 0
-78 -46 -80 -2 -3 0
-63 -56 -65 -2 -4 0
-71 -56 -73 -2 -4 0
-78 -56 -80 -2 -4 0
-71 -65 -73 -2 -5 0
-78 -65 -80 -2 -5 0
-78 -73 -80 -2 -6 0
-63 -56 -65 -3 -4 0
-71 -56 -73 -3 -4 0
-78 -56 -80 -3 -4 0
-71 -65 -73 -3 -5 0
-78 -65 -80 -3 -5 0
-78 -73 -80 -3 -6 0
-71 -65 -73 -4 -5 0
-78 -65 -80 -4 -5 0
-78 -73 -80 -4 -6 0
-78 -73 -80 -5 -6 0
-54 -46 -56 -15 -16 0
-63 -46 -65 -15 -16 0
-71 -46 -73 -15 -16 0
-78 -46 -80 -15 -16 0
-63 -56 -65 -15 -17 0
-71 -56 -73 -15 -17 0
-78 -56 -80 -15 -17 0
-71 -65 -73 -15 -18 0
-78 -65 -80 -15 -18 0
-78 -73 -80 -15 -19 0
-63 -56 -65 -16 -17 0
-71 -56 -73 -16 -17 0
-78 -56 -80 -16 -17 0
-71 -65 -73 -16 -18 0
-78 -65 -80 -16 -18 0
-78 -73 -80 -16 -19 0
-71 -65 -73 -17 -18 0
-78 -65 -80 -17 -18 0
-78 -73 -80 -17 -19 0
-78 -73 -80 -18 -19 0
-63 -56 -65 -28 -29 0
-71 -56 -73 -28 -29 0
-78 -56 -80 -28 -29 0
-71 -65 -73 -28 -30 0
-78 -65 -80 -28 -30 0
-78 -73 -80 -28 -31 0
-71 -65 -73 -29 -30 0
-78 -65 -80 -29 -30 0
-78 -73 -80 -29 -31 0
-78 -73 -80 -30 -31 0
-71 -65 -73 -40 -41 0
-78 -65 -80 -40 -41 0
-78 -73 -80 -40 -42 0
-78 -73 -80 -41 -42 0
-78 -73 -80 -51 -52 0
-8 -102 -11 -103 -104 0
-21 -102 -24 -103 -104 0
-33 -102 -36 -103 -104 0
-44 -102 -47 -103 -104 0
-54 -102 -57 -103 -104 0
-63 -102 -66 -103 -104 0
-71 -102 -74 -103 -104 0
-78 -102 -81 -103 -104 0
-21 -11 -24 -103 -12 0
-33 -11 -36 -103 -12 0
-44 -11 -47 -103 -12 0
-54 -11 -57 -103 -12 0
-63 -11 -66 -103 -12 0
-71 -11 -74 -103 -12 0
-78 -11 -81 -103 -12 0
-33 -24 -36 -103 -25 0
-44 -24 -47 -103 -25 0
-54 -24 -57 -103 -25 0
-63 -24 -66 -103 -25 0
-71 -24 -74 -103 -25 0
-78 -24 -81 -103 -25 0
-44 -36 -47 -103 -37 0
-54 -36 -57 -103 -37 0
-63 -36 -66 -103 -37 0
-71 -36 -74 -103 -37 0
-78 -36 -81 -103 -37 0
-54 -47 -57 -103 -48 0
-63 -47 -66 -103 -48 0
-71 -47 -74 -103 -48 0
-78 -47 -81 -103 -48 0
-63 -57 -66 -103 -58 0
-71 -57 -74 -103 -58 0
-78 -57 -81 -103 -58 0
-71 -66 -74 -103 -67 0
-78 -66 -81 -103 -67 0
-78 -74 -81 -103 -75 0
-21 -11 -24 -104 -12 0
-33 -11 -36 -104 -12 0
-44 -11 -47 -104 -12 0
-54 -11 -57 -104 -12 0
-63 -11 -66 -104 -12 0
-71 -11 -74 -104 -12 0
-78 -11 -81 -104 -12 0
-33 -24 -36 -104 -25 0
-44 -24 -47 -104 -25 0
-54 -24 -57 -104 -25 0
-63 -24 -66 -104 -25 0
-71 -24 -74 -104 -25 0
-78 -24 -81 -104 -25 0
-44 -36 -47 -104 -37 0
-54 -36 -57 -104 -37 0
-63 -36 -66 -104 -37 0
-71 -36 -74 -104 -37 0
-78 -36 -81 -104 -37 0
-54 -47 -57 -104 -48 0
-63 -47 -66 -104 -48 0
-71 -47 -74 -104 -48 0
-78 -47 -81 -104 -48 0
-63 -57 -66 -104 -58 0
-71 -57 -74 -104 -58 0
-78 -57 -81 -104 -58 0
-71 -66 -74 -104 -67 0
-78 -66 -81 -104 -67 0
-78 -74 -81 -104 -75 0
-33 -24 -36 -12 -25 0
-44 -24 -47 -12 -25 0
-54 -24 -57 -12 -25 0
-63 -24 -66 -12 -25 0
-71 -24 -74 -12 -25 0
-78 -24 -81 -12 -25 0
-44 -36 -47 -12 -37 0
-54 -36 -57 -12 -37 0
-63 -36 -66 -12 -37 0
-71 -36 -74 -12 -37 0
-78 -36 -81 -12 -37 0
-54 -47 -57 -12 -48 0
-63 -47 -66 -12 -48 0
-71 -47 -74 -12 -48 0
-78 -47 -81 -12 -48 0
-63 -57 -66 -12 -58 0
-71 -57 -74 -12 -58 0
-78 -57 -81 -12 -58 0
-71 -66 -74 -12 -67 0
-78 -66 -81 -12 -67 0
-78 -74 -81 -12 -75 0
-44 -36 -47 -25 -37 0
-54 -36 -57 -25 -37 0
-63 -36 -66 -25 -37 0
-71 -36 -74 -25 -37 0
-78 -36 -81 -25 -37 0
-54 -47 -57 -25 -48 0
-63 -47 -66 -25 -48 0
-71 -47 -74 -25 -48 0
-78 -47 -81 -25 -48 0
-63 -57 -66 -25 -58 0
-71 -57 -74 -25 -58 0
-78 -57 -81 -25 -58 0
-71 -66 -74 -25 -67 0
-78 -66 -81 -25 -67 0
-78 -74 -81 -25 -75 0
-54 -47 -57 -37 -48 0
-63 -47 -66 -37 -48 0
-71 -47 -74 -37 -48 0
-78 -47 -81 -37 -48 0
-63 -57 -66 -37 -58 0
-71 -57 -74 -37 -58 0
-78 -57 -81 -37 -58 0
-71 -66 -74 -37 -67 0
-78 -66 -81 -37 -67 0
-78 -74 -81 -37 -75 0
-63 -57 -66 -48 -58 0
-71 -57 -74 -48 -58 0
-78 -57 -81 -48 -58 0
-71 -66 -74 -48 -67 0
-78 -66 -81 -48 -67 0
-78 -74 -81 -48 -75 0
-71 -66 -74 -58 -67 0
-78 -66 -81 -58 -67 0
-78 -74 -81 -58 -75 0
-78 -74 -81 -67 -75 0
-21 -11 -24 -105 -13 0
-33 -11 -36 -105 -13 0
-44 -11 -47 -105 -13 0
-54 -11 -57 -105 -13 0
-63 -11 -66 -105 -13 0
-71 -11 -74 -105 -13 0
-78 -11 -81 -105 -13 0
-33 -24 -36 -105 -26 0
-44 -24 -47 -105 -26 0
-54 -24 -57 -105 -26 0
-63 -24 -66 -105 -26 0
-71 -24 -74 -105 -26 0
-78 -24 -81 -105 -26 0
-44 -36 -47 -105 -38 0
-54 -36 -57 -105 -38 0
-63 -36 -66 -105 -38 0
-71 -36 -74 -105 -38 0
-78 -36 -81 -105 -38 0
-54 -47 -57 -105 -49 0
-63 -47 -66 -105 -49 0
-71 -47 -74 -105 -49 0
-78 -47 -81 -105 -49 0
-63 -57 -66 -105 -59 0
-71 -57 -74 -105 -59 0
-78 -57 -81 -105 -59 0
-71 -66 -74 -105 -68 0
-78 -66 -81 -105 -68 0
-78 -74 -81 -105 -76 0
-33 -24 -36 -13 -26 0
-44 -24 -47 -13 -26 0
-54 -24 -57 -13 -26 0
-63 -24 -66 -13 -26 0
-71 -24 -74 -13 -26 0
-78 -24 -81 -13 -26 0
-44 -36 -47 -13 -38 0
-54 -36 -57 -13 -38 0
-63 -36 -66 -13 -38 0
-71 -36 -74 -13 -38 0
-78 -36 -81 -13 -38 0
-54 -47 -57 -13 -49 0
-63 -47 -66 -13 -49 0
-71 -47 -74 -13 -49 0
-78 -47 -81 -13 -49 0
-63 -57 -66 -13 -59 0
-71 -57 -74 -13 -59 0
-78 -57 -81 -13 -59 0
-71 -66 -74 -13 -68 0
-78 -66 -81 -13 -68 0
-78 -74 -81 -13 -76 0
-44 -36 -47 -26 -38 0
-54 -36 -57 -26 -38 0
-63 -36 -66 -26 -38 0
-71 -36 -74 -26 -38 0
-78 -36 -81 -26 -38 0
-54 -47 -57 -26 -49 0
-63 -47 -66 -26 -49 0
-71 -47 -74 -26 -49 0
-78 -47 -81 -26 -49 0
-63 -57 -66 -26 -59 0
-71 -57 -74 -26 -59 0
-78 -57 -81 -26 -59 0
-71 -66 -74 -26 -68 0
-78 -66 -81 -26 -68 0
-78 -74 -81 -26 -76 0
-54 -47 -57 -38 -49 0
-63 -47 -66 -38 -49 0
-71 -47 -74 -38 -49 0
-78 -47 -81 -38 -49 0
-63 -57 -66 -38 -59 0
-71 -57 -74 -38 -59 0
-78 -57 -81 -38 -59 0
-71 -66 -74 -38 -68 0
-78 -66 -81 -38 -68 0
-78 -74 -81 -38 -76 0
-63 -57 -66 -49 -59 0
-71 -57 -74 -49 -59 0
-78 -57 -81 -49 -59 0
-71 -66 -74 -49 -68 0
-78 -66 -81 -49 -68 0
-78 -74 -81 -49 -76 0
-71 -66 -74 -59 -68 0
-78 -66 -81 -59 -68 0
-78 -74 -81 -59 -76 0
-78 -74 -81 -68 -76 0
-33 -24 -36 -14 -27 0
-44 -24 -47 -14 -27 0
-54 -24 -57 -14 -27 0
-63 -24 -66 -14 -27 0
-71 -24 -74 -14 -27 0
-78 -24 -81 -14 -27 0
-44 -36 -47 -14 -39 0
-54 -36 -57 -14 -39 0
-63 -36 -66 -14 -39 0
-71 -36 -74 -14 -39 0
-78 -36 -81 -14 -39 0
-54 -47 -57 -14 -50 0
-63 -47 -66 -14 -50 0
-71 -47 -74 -14 -50 0
-78 -47 -81 -14 -50 0
-63 -57 -66 -14 -60 0
-71 -57 -74 -14 -60 0
-78 -57 -81 -14 -60 0
-71 -66 -74 -14 -69 0
-78 -66 -81 -14 -69 0
-78 -74 -81 -14 -77 0
-44 -36 -47 -27 -39 0
-54 -36 -57 -27 -39 0
-63 -36 -66 -27 -39 0
-71 -36 -74 -27 -39 0
-78 -36 -81 -27 -39 0
-54 -47 -57 -27 -50 0
-63 -47 -66 -27 -50 0
-71 -47 -74 -27 -50 0
-78 -47 -81 -27 -50 0
-63 -57 -66 -27 -60 0
-71 -57 -74 -27 -60 0
-78 -57 -81 -27 -60 0
-71 -66 -74 -27 -69 0
-78 -66 -81 -27 -69 0
-78 -74 -81 -27 -77 0
-54 -47 -57 -39 -50 0
-63 -47 -66 -39 -50 0
-71 -47 -74 -39 -50 0
-78 -47 -81 -39 -50 0
-63 -57 -66 -39 -60 0
-71 -57 -74 -39 -60 0
-78 -57 -81 -39 -60 0
-71 -66 -74 -39 -69 0
-78 -66 -81 -39 -69 0
-78 -74 -81 -39 -77 0
-63 -57 -66 -50 -60 0
-71 -57 -74 -50 -60 0
-78 -57 -81 -50 -60 0
-71 -66 -74 -50 -69 0
-78 -66 -81 -50 -69 0
-78 -74 -81 -50 -77 0
-71 -66 -74 -60 -69 0
-78 -66 -81 -60 -69 0
-78 -74 -81 -60 -77 0
-78 -74 -81 -69 -77 0
-44 -36 -47 -1 -2 0
-54 -36 -57 -1 -2 0
-63 -36 -66 -1 -2 0
-71 -36 -74 -1 -2 0
-78 -36 -81 -1 -2 0
-54 -47 -57 -1 -3 0
-63 -47 -66 -1 -3 0
-71 -47 -74 -1 -3 0
-78 -47 -81 -1 -3 0
-63 -57 -66 -1 -4 0
-71 -57 -74 -1 -4 0
-78 -57 -81 -1 -4 0
-71 -66 -74 -1 -5 0
-78 -66 -81 -1 -5 0
-78 -74 -81 -1 -6 0
-54 -47 -57 -2 -3 0
-63 -47 -66 -2 -3 0
-71 -47 -74 -2 -3 0
-78 -47 -81 -2 -3 0
-63 -57 -66 -2 -4 0
-71 -57 -74 -2 -4 0
-78 -57 -81 -2 -4 0
-71 -66 -74 -2 -5 0
-78 -66 -81 -2 -5 0
-78 -74 -81 -2 -6 0
-63 -57 -66 -3 -4 0
-71 -57 -74 -3 -4 0
-78 -57 -81 -3 -4 0
-71 -66 -74 -3 -5 0
-78 -66 -81 -3 -5 0
-78 -74 -81 -3 -6 0
-71 -66 -74 -4 -5 0
-78 -66 -81 -4 -5 0
-78 -74 -81 -4 -6 0
-78 -74 -81 -5 -6 0
-54 -47 -57 -15 -16 0
-63 -47 -66 -15 -16 0
-71 -47 -74 -15 -16 0
-78 -47 -81 -15 -16 0
-63 -57 -66 -15 -17 0
-71 -57 -74 -15 -17 0
-78 -57 -81 -15 -17 0
-71 -66 -74 -15 -18 0
-78 -66 -81 -15 -18 0
-78 -74 -81 -15 -19 0
-63 -57 -66 -16 -17 0
-71 -57 -74 -16 -17 0
-78 -57 -81 -16 -17 0
-71 -66 -74 -16 -18 0
-78 -66 -81 -16 -18 0
-78 -74 -81 -16 -19 0
-71 -66 -74 -17 -18 0
-78 -66 -81 -17 -18 0
-78 -74 -81 -17 -19 0
-78 -74 -81 -18 -19 0
-63 -57 -66 -28 -29 0
-71 -57 -74 -28 -29 0
-78 -57 -81 -28 -29 0
-71 -66 -74 -28 -30 0
-78 -66 -81 -28 -30 0
-78 -74 -81 -28 -31 0
-71 -66 -74 -29 -30 0
-78 -66 -81 -29 -30 0
-78 -74 -81 -29 -31 0
-78 -74 -81 -30 -31 0
-71 -66 -74 -40 -41 0
-78 -66 -81 -40 -41 0
-78 -74 -81 -40 -42 0
-78 -74 -81 -41 -42 0
-78 -74 -81 -51 -52 0
-21 -12 -25 -105 -13 0
-33 -12 -37 -105 -13 0
-44 -12 -48 -105 -13 0
-54 -12 -58 -105 -13 0
-63 -12 -67 -105 -13 0
-71 -12 -75 -105 -13 0
-78 -12 -82 -105 -13 0
-33 -25 -37 -105 -26 0
-44 -25 -48 -105 -26 0
-54 -25 -58 -105 -26 0
-63 -25 -67 -105 -26 0
-71 -25 -75 -105 -26 0
-78 -25 -82 -105 -26 0
-44 -37 -48 -105 -38 0
-54 -37 -58 -105 -38 0
-63 -37 -67 -105 -38 0
-71 -37 -75 -105 -38 0
-78 -37 -82 -105 -38 0
-54 -48 -58 -105 -49 0
-63 -48 -67 -105 -49 0
-71 -48 -75 -105 -49 0
-78 -48 -82 -105 -49 0
-63 -58 -67 -105 -59 0
-71 -58 -75 -105 -59 0
-78 -58 -82 -105 -59 0
-71 -67 -75 -105 -68 0
-78 -67 -82 -105 -68 0
-78 -75 -82 -105 -76 0
-33 -25 -37 -13 -26 0
-44 -25 -48 -13 -26 0
-54 -25 -58 -13 -26 0
-63 -25 -67 -13 -26 0
-71 -25 -75 -13 -26 0
-78 -25 -82 -13 -26 0
-44 -37 -48 -13 -38 0
-54 -37 -58 -13 -38 0
-63 -37 -67 -13 -38 0
-71 -37 -75 -13 -38 0
-78 -37 -82 -13 -38 0
-54 -48 -58 -13 -49 0
-63 -48 -67 -13 -49 0
-71 -48 -75 -13 -49 0
-78 -48 -82 -13 -49 0
-63 -58 -67 -13 -59 0
-71 -58 -75 -13 -59 0
-78 -58 -82 -13 -59 0
-71 -67 -75 -13 -68 0
-78 -67 -82 -13 -68 0
-78 -75 -82 -13 -76 0
-44 -37 -48 -26 -38 0
-54 -37 -58 -26 -38 0
-63 -37 -67 -26 -38 0
-71 -37 -75 -26 -38 0
-78 -37 -82 -26 -38 0
-54 -48 -58 -26 -49 0
-63 -48 -67 -26 -49 0
-71 -48 -75 -26 -49 0
-78 -48 -82 -26 -49 0
-63 -58 -67 -26 -59 0
-71 -58 -75 -26 -59 0
-78 -58 -82 -26 -59 0
-71 -67 -75 -26 -68 0
-78 -67 -82 -26 -68 0
-78 -75 -82 -26 -76 0
-54 -48 -58 -38 -49 0
-63 -48 -67 -38 -49 0
-71 -48 -75 -38 -49 0
-78 -48 -82 -38 -49 0
-63 -58 -67 -38 -59 0
-71 -58 -75 -38 -59 0
-78 -58 -82 -38 -59 0
-71 -67 -75 -38 -68 0
-78 -67 -82 -38 -68 0
-78 -75 -82 -38 -76 0
-63 -58 -67 -49 -59 0
-71 -58 -75 -49 -59 0
-78 -58 -82 -49 -59 0
-71 -67 -75 -49 -68 0
-78 -67 -82 -49 -68 0
-78 -75 -82 -49 -76 0
-71 -67 -75 -59 -68 0
-78 -67 -82 -59 -68 0
-78 -75 -82 -59 -76 0
-78 -75 -82 -68 -76 0
-33 -25 -37 -14 -27 0
-44 -25 -48 -14 -27 0
-54 -25 -58 -14 -27 0
-63 -25 -67 -14 -27 0
-71 -25 -75 -14 -27 0
-78 -25 -82 -14 -27 0
-44 -37 -48 -14 -39 0
-54 -37 -58 -14 -39 0
-63 -37 -67 -14 -39 0
-71 -37 -75 -14 -39 0
-78 -37 -82 -14 -39 0
-54 -48 -58 -14 -50 0
-63 -48 -67 -14 -50 0
-71 -48 -75 -14 -50 0
-78 -48 -82 -14 -50 0
-63 -58 -67 -14 -60 0
-71 -58 -75 -14 -60 0
-78 -58 -82 -14 -60 0
-71 -67 -75 -14 -69 0
-78 -67 -82 -14 -69 0
-78 -75 -82 -14 -77 0
-44 -37 -48 -27 -39 0
-54 -37 -58 -27 -39 0
-63 -37 -67 -27 -39 0
-71 -37 -75 -27 -39 0
-78 -37 -82 -27 -39 0
-54 -48 -58 -27 -50 0
-63 -48 -67 -27 -50 0
-71 -48 -75 -27 -50 0
-78 -48 -82 -27 -50 0
-63 -58 -67 -27 -60 0
-71 -58 -75 -27 -60 0
-78 -58 -82 -27 -60 0
-71 -67 -75 -27 -69 0
-78 -67 -82 -27 -69 0
-78 -75 -82 -27 -77 0
-54 -48 -58 -39 -50 0
-63 -48 -67 -39 -50 0
-71 -48 -75 -39 -50 0
-78 -48 -82 -39 -50 0
-63 -58 -67 -39 -60 0
-71 -58 -75 -39 -60 0
-78 -58 -82 -39 -60 0
-71 -67 -75 -39 -69 0
-78 -67 -82 -39 -69 0
-78 -75 -82 -39 -77 0
-63 -58 -67 -50 -60 0
-71 -58 -75 -50 -60 0
-78 -58 -82 -50 -60 0
-71 -67 -75 -50 -69 0
-78 -67 -82 -50 -69 0
-78 -75 -82 -50 -77 0
-71 -67 -75 -60 -69 0
-78 -67 -82 -60 -69 0
-78 -75 -82 -60 -77 0
-78 -75 -82 -69 -77 0
-44 -37 -48 -1 -2 0
-54 -37 -58 -1 -2 0
-63 -37 -67 -1 -2 0
-71 -37 -75 -1 -2 0
-78 -37 -82 -1 -2 0
-54 -48 -58 -1 -3 0
-63 -48 -67 -1 -3 0
-71 -48 -75 -1 -3 0
-78 -48 -82 -1 -3 0
-63 -58 -67 -1 -4 0
-71 -58 -75 -1 -4 0
-78 -58 -82 -1 -4 0
-71 -67 -75 -1 -5 0
-78 -67 -82 -1 -5 0
-78 -75 -82 -1 -6 0
-54 -48 -58 -2 -3 0
-63 -48 -67 -2 -3 0
-71 -48 -75 -2 -3 0
-78 -48 -82 -2 -3 0
-63 -58 -67 -2 -4 0
-71 -58 -75 -2 -4 0
-78 -58 -82 -2 -4 0
-71 -67 -75 -2 -5 0
-78 -67 -82 -2 -5 0
-78 -75 -82 -2 -6 0
-63 -58 -67 -3 -4 0
-71 -58 -75 -3 -4 0
-78 -58 -82 -3 -4 0
-71 -67 -75 -3 -5 0
-78 -67 -82 -3 -5 0
-78 -75 -82 -3 -6 0
-71 -67 -75 -4 -5 0
-78 -67 -82 -4 -5 0
-78 -75 -82 -4 -6 0
-78 -75 -82 -5 -6 0
-54 -48 -58 -15 -16 0
-63 -48 -67 -15 -16 0
-71 -48 -75 -15 -16 0
-78 -48 -82 -15 -16 0
-63 -58 -67 -15 -17 0
-71 -58 -75 -15 -17 0
-78 -58 -82 -15 -17 0
-71 -67 -75 -15 -18 0
-78 -67 -82 -15 -18 0
-78 -75 -82 -15 -19 0
-63 -58 -67 -16 -17 0
-71 -58 -75 -16 -17 0
-78 -58 -82 -16 -17 0
-71 -67 -75 -16 -18 0
-78 -67 -82 -16 -18 0
-78 -75 -82 -16 -19 0
-71 -67 -75 -17 -18 0
-78 -67 -82 -17 -18 0
-78 -75 -82 -17 -19 0
-78 -75 -82 -18 -19 0
-63 -58 -67 -28 -29 0
-71 -58 -75 -28 -29 0
-78 -58 -82 -28 -29 0
-71 -67 -75 -28 -30 0
-78 -67 -82 -28 -30 0
-78 -75 -82 -28 -31 0
-71 -67 -75 -29 -30 0
-78 -67 -82 -29 -30 0
-78 -75 -82 -29 -31 0
-78 -75 -82 -30 -31 0
-71 -67 -75 -40 -41 0
-78 -67 -82 -40 -41 0
-78 -75 -82 -40 -42 0
-78 -75 -82 -41 -42 0
-78 -75 -82 -51 -52 0
-33 -26 -38 -14 -27 0
-44 -26 -49 -14 -27 0
-54 -26 -59 -14 -27 0
-63 -26 -68 -14 -27 0
-71 -26 -76 -14 -27 0
-78 -26 -83 -14 -27 0
-44 -38 -49 -14 -39 0
-54 -38 -59 -14 -39 0
-63 -38 -68 -14 -39 0
-71 -38 -76 -14 -39 0
-78 -38 -83 -14 -39 0
-54 -49 -59 -14 -50 0
-63 -49 -68 -14 -50 0
-71 -49 -76 -14 -50 0
-78 -49 -83 -14 -50 0
-63 -59 -68 -14 -60 0
-71 -59 -76 -14 -60 0
-78 -59 -83 -14 -60 0
-71 -68 -76 -14 -69 0
-78 -68 -83 -14 -69 0
-78 -76 -83 -14 -77 0
-44 -38 -49 -27 -39 0
-54 -38 -59 -27 -39 0
-63 -38 -68 -27 -39 0
-71 -38 -76 -27 -39 0
-78 -38 -83 -27 -39 0
-54 -49 -59 -27 -50 0
-63 -49 -68 -27 -50 0
-71 -49 -76 -27 -50 0
-78 -49 -83 -27 -50 0
-63 -59 -68 -27 -60 0
-71 -59 -76 -27 -60 0
-78 -59 -83 -27 -60 0
-71 -68 -76 -27 -69 0
-78 -68 -83 -27 -69 0
-78 -76 -83 -27 -77 0
-54 -49 -59 -39 -50 0
-63 -49 -68 -39 -50 0
-71 -49 -76 -39 -50 0
-78 -49 -83 -39 -50 0
-63 -59 -68 -39 -60 0
-71 -59 -76 -39 -60 0
-78 -59 -83 -39 -60 0
-71 -68 -76 -39 -69 0
-78 -68 -83 -39 -69 0
-78 -76 -83 -39 -77 0
-63 -59 -68 -50 -60 0
-71 -59 -76 -50 -60 0
-78 -59 -83 -50 -60 0
-71 -68 -76 -50 -69 0
-78 -68 -83 -50 -69 0
-78 -76 -83 -50 -77 0
-71 -68 -76 -60 -69 0
-78 -68 -83 -60 -69 0
-78 -76 -83 -60 -77 0
-78 -76 -83 -69 -77 0
-44 -38 -49 -1 -2 0
-54 -38 -59 -1 -2 0
-63 -38 -68 -1 -2 0
-71 -38 -76 -1 -2 0
-78 -38 -83 -1 -2 0
-54 -49 -59 -1 -3 0
-63 -49 -68 -1 -3 0
-71 -49 -76 -1 -3 0
-78 -49 -83 -1 -3 0
-63 -59 -68 -1 -4 0
-71 -59 -76 -1 -4 0
-78 -59 -83 -1 -4 0
-71 -68 -76 -1 -5 0
-78 -68 -83 -1 -5 0
-78 -76 -83 -1 -6 0
-54 -49 -59 -2 -3 0
-63 -49 -68 -2 -3 0
-71 -49 -76 -2 -3 0
-78 -49 -83 -2 -3 0
-63 -59 -68 -2 -4 0
-71 -59 -76 -2 -4 0
-78 -59 -83 -2 -4 0
-71 -68 -76 -2 -5 0
-78 -68 -83 -2 -5 0
-78 -76 -83 -2 -6 0
-63 -59 -68 -3 -4 0
-71 -59 -76 -3 -4 0
-78 -59 -83 -3 -4 0
-71 -68 -76 -3 -5 0
-78 -68 -83 -3 -5 0
-78 -76 -83 -3 -6 0
-71 -68 -76 -4 -5 0
-78 -68 -83 -4 -5 0
-78 -76 -83 -4 -6 0
-78 -76 -83 -5 -6 0
-54 -49 -59 -15 -16 0
-63 -49 -68 -15 -16 0
-71 -49 -76 -15 -16 0
-78 -49 -83 -15 -16 0
-63 -59 -68 -15 -17 0
-71 -59 -76 -15 -17 0
-78 -59 -83 -15 -17 0
-71 -68 -76 -15 -18 0
-78 -68 -83 -15 -18 0
-78 -76 -83 -15 -19 0
-63 -59 -68 -16 -17 0
-71 -59 -76 -16 -17 0
-78 -59 -83 -16 -17 0
-71 -68 -76 -16 -18 0
-78 -68 -83 -16 -18 0
-78 -76 -83 -16 -19 0
-71 -68 -76 -17 -18 0
-78 -68 -83 -17 -18 0
-78 -76 -83 -17 -19 0
-78 -76 -83 -18 -19 0
-63 -59 -68 -28 -29 0
-71 -59 -76 -28 -29 0
-78 -59 -83 -28 -29 0
-71 -68 -76 -28 -30 0
-78 -68 -83 -28 -30 0
-78 -76 -83 -28 -31 0
-71 -68 -76 -29 -30 0
-78 -68 -83 -29 -30 0
-78 -76 -83 -29 -31 0
-78 -76 -83 -30 -31 0
-71 -68 -76 -40 -41 0
-78 -68 -83 -40 -41 0
-78 -76 -83 -40 -42 0
-78 -76 -83 -41 -42 0
-78 -76 -83 -51 -52 0
-44 -39 -50 -1 -2 0
-54 -39 -60 -1 -2 0
-63 -39 -69 -1 -2 0
-71 -39 -77 -1 -2 0
-78 -39 -84 -1 -2 0
-54 -50 -60 -1 -3 0
-63 -50 -69 -1 -3 0
-71 -50 -77 -1 -3 0
-78 -50 -84 -1 -3 0
-63 -60 -69 -1 -4 0
-71 -60 -77 -1 -4 0
-78 -60 -84 -1 -4 0
-71 -69 -77 -1 -5 0
-78 -69 -84 -1 -5 0
-78 -77 -84 -1 -6 0
-54 -50 -60 -2 -3 0
-63 -50 -69 -2 -3 0
-71 -50 -77 -2 -3 0
-78 -50 -84 -2 -3 0
-63 -60 -69 -2 -4 0
-71 -60 -77 -2 -4 0
-78 -60 -84 -2 -4 0
-71 -69 -77 -2 -5 0
-78 -69 -84 -2 -5 0
-78 -77 -84 -2 -6 0
-63 -60 -69 -3 -4 0
-71 -60 -77 -3 -4 0
-78 -60 -84 -3 -4 0
-71 -69 -77 -3 -5 0
-78 -69 -84 -3 -5 0
-78 -77 -84 -3 -6 0
-71 -69 -77 -4 -5 0
-78 -69 -84 -4 -5 0
-78 -77 -84 -4 -6 0
-78 -77 -84 -5 -6 0
-54 -50 -60 -15 -16 0
-63 -50 -69 -15 -16 0
-71 -50 -77 -15 -16 0
-78 -50 -84 -15 -16 0
-63 -60 -69 -15 -17 0
-71 -60 -77 -15 -17 0
-78 -60 -84 -15 -17 0
-71 -69 -77 -15 -18 0
-78 -69 -84 -15 -18 0
-78 -77 -84 -15 -19 0
-63 -60 -69 -16 -17 0
-71 -60 -77 -16 -17 0
-78 -60 -84 -16 -17 0
-71 -69 -77 -16 -18 0
-78 -69 -84 -16 -18 0
-78 -77 -84 -16 -19 0
-71 -69 -77 -17 -18 0
-78 -69 -84 -17 -18 0
-78 -77 -84 -17 -19 0
-78 -77 -84 -18 -19 0
-63 -60 -69 -28 -29 0
-71 -60 -77 -28 -29 0
-78 -60 -84 -28 -29 0
-71 -69 -77 -28 -30 0
-78 -69 -84 -28 -30 0
-78 -77 -84 -28 -31 0
-71 -69 -77 -29 -30 0
-78 -69 -84 -29 -30 0
-78 -77 -84 -29 -31 0
-78 -77 -84 -30 -31 0
-71 -69 -77 -40 -41 0
-78 -69 -84 -40 -41 0
-78 -77 -84 -40 -42 0
-78 -77 -84 -41 -42 0
-78 -77 -84 -51 -52 0
-54 -3 -4 -15 -16 0
-63 -3 -5 -15 -16 0
-71 -3 -6 -15 -16 0
-78 -3 -7 -15 -16 0
-63 -4 -5 -15 -17 0
-71 -4 -6 -15 -17 0
-78 -4 -7 -15 -17 0
-71 -5 -6 -15 -18 0
-78 -5 -7 -15 -18 0
-78 -6 -7 -15 -19 0
-63 -4 -5 -16 -17 0
-71 -4 -6 -16 -17 0
-78 -4 -7 -16 -17 0
-71 -5 -6 -16 -18 0
-78 -5 -7 -16 -18 0
-78 -6 -7 -16 -19 0
-71 -5 -6 -17 -18 0
-78 -5 -7 -17 -18 0
-78 -6 -7 -17 -19 0
-78 -6 -7 -18 -19 0
-63 -4 -5 -28 -29 0
-71 -4 -6 -28 -29 0
-78 -4 -7 -28 -29 0
-71 -5 -6 -28 -30 0
-78 -5 -7 -28 -30 0
-78 -6 -7 -28 -31 0
-71 -5 -6 -29 -30 0
-78 -5 -7 -29 -30 0
-78 -6 -7 -29 -31 0
-78 -6 -7 -30 -31 0
-71 -5 -6 -40 -41 0
-78 -5 -7 -40 -41 0
-78 -6 -7 -40 -42 0
-78 -6 -7 -41 -42 0
-78 -6 -7 -51 -52 0
-63 -17 -18 -28 -29 0
-71 -17 -19 -28 -29 0
-78 -17 -20 -28 -29 0
-71 -18 -19 -28 -30 0
-78 -18 -20 -28 -30 0
-78 -19 -20 -28 -31 0
-71 -18 -19 -29 -30 0
-78 -18 -20 -29 -30 0
-78 -19 -20 -29 -31 0
-78 -19 -20 -30 -31 0
-71 -18 -19 -40 -41 0
-78 -18 -20 -40 -41 0
-78 -19 -20 -40 -42 0
-78 -19 -20 -41 -42 0
-78 -19 -20 -51 -52 0
-71 -30 -31 -40 -41 0
-78 -30 -32 -40 -41 0
-78 -31 -32 -40 -42 0
-78 -31 -32 -41 -42 0
-78 -31 -32 -51 -52 0
-78 -42 -43 -51 -52 0
-95 -98 -99 -100 -101 0
-9 -98 -10 -100 -101 0
-22 -98 -23 -100 -101 0
-34 -98 -35 -100 -101 0
-45 -98 -46 -100 -101 0
-55 -98 -56 -100 -101 0
-64 -98 -65 -100 -101 0
-72 -98 -73 -100 -101 0
-79 -98 -80 -100 -101 0
-85 -98 -86 -100 -101 0
-9 -99 -10 -100 -102 0
-22 -99 -23 -100 -102 0
-34 -99 -35 -100 -102 0
-45 -99 -46 -100 -102 0
-55 -99 -56 -100 -102 0
-64 -99 -65 -100 -102 0
-72 -99 -73 -100 -102 0
-79 -99 -80 -100 -102 0
-85 -99 -86 -100 -102 0
-22 -10 -23 -100 -11 0
-34 -10 -35 -100 -11 0
-45 -10 -46 -100 -11 0
-55 -10 -56 -100 -11 0
-64 -10 -65 -100 -11 0
-72 -10 -73 -100 -11 0
-79 -10 -80 -100 -11 0
-85 -10 -86 -100 -11 0
-34 -23 -35 -100 -24 0
-45 -23 -46 -100 -24 0
-55 -23 -56 -100 -24 0
-64 -23 -65 -100 -24 0
-72 -23 -73 -100 -24 0
-79 -23 -80 -100 -24 0
-85 -23 -86 -100 -24 0
-45 -35 -46 -100 -36 0
-55 -35 -56 -100 -36 0
-64 -35 -65 -100 -36 0
-72 -35 -73 -100 -36 0
-79 -35 -80 -100 -36 0
-85 -35 -86 -100 -36 0
-55 -46 -56 -100 -47 0
-64 -46 -65 -100 -47 0
-72 -46 -73 -100 -47 0
-79 -46 -80 -100 -47 0
-85 -46 -86 -100 -47 0
-64 -56 -65 -100 -57 0
-72 -56 -73 -100 -57 0
-79 -56 -80 -100 -57 0
-85 -56 -86 -100 -57 0
-72 -65 -73 -100 -66 0
-79 -65 -80 -100 -66 0
-85 -65 -86 -100 -66 0
-79 -73 -80 -100 -74 0
-85 -73 -86 -100 -74 0
-85 -80 -86 -100 -81 0
-9 -99 -10 -101 -102 0
-22 -99 -23 -101 -102 0
-34 -99 -35 -101 -102 0
-45 -99 -46 -101 -102 0
-55 -99 -56 -101 -102 0
-64 -99 -65 -101 -102 0
-72 -99 -73 -101 -102 0
-79 -99 -80 -101 -102 0
-85 -99 -86 -101 -102 0
-22 -10 -23 -101 -11 0
-34 -10 -35 -101 -11 0
-45 -10 -46 -101 -11 0
-55 -10 -56 -101 -11 0
-64 -10 -65 -101 -11 0
-72 -10 -73 -101 -11 0
-79 -10 -80 -101 -11 0
-85 -10 -86 -101 -11 0
-34 -23 -35 -101 -24 0
-45 -23 -46 -101 -24 0
-55 -23 -56 -101 -24 0
-64 -23 -65 -101 -24 0
-72 -23 -73 -101 -24 0
-79 -23 -80 -101 -24 0
-85 -23 -86 -101 -24 0
-45 -35 -46 -101 -36 0
-55 -35 -56 -101 -36 0
-64 -35 -65 -101 -36 0
-72 -35 -73 -101 -36 0
-79 -35 -80 -101 -36 0
-85 -35 -86 -101 -36 0
-55 -46 -56 -101 -47 0
-64 -46 -65 -101 -47 0
-72 -46 -73 -101 -47 0
-79 -46 -80 -101 -47 0
-85 -46 -86 -101 -47 0
-64 -56 -65 -101 -57 0
-72 -56 -73 -101 -57 0
-79 -56 -80 -101 -57 0
-85 -56 -86 -101 -57 0
-72 -65 -73 -101 -66 0
-79 -65 -80 -101 -66 0
-85 -65 -86 -101 -66 0
-79 -73 -80 -101 -74 0
-85 -73 -86 -101 -74 0
-85 -80 -86 -101 -81 0
-22 -10 -23 -102 -11 0
-34 -10 -35 -102 -11 0
-45 -10 -46 -102 -11 0
-55 -10 -56 -102 -11 0
-64 -10 -65 -102 -11 0
-72 -10 -73 -102 -11 0
-79 -10 -80 -102 -11 0
-85 -10 -86 -102 -11 0
-34 -23 -35 -102 -24 0
-45 -23 -46 -102 -24 0
-55 -23 -56 -102 -24 0
-64 -23 -65 -102 -24 0
-72 -23 -73 -102 -24 0
-79 -23 -80 -102 -24 0
-85 -23 -86 -102 -24 0
-45 -35 -46 -102 -36 0
-55 -35 -56 -102 -36 0
-64 -35 -65 -102 -36 0
-72 -35 -73 -102 -36 0
-79 -35 -80 -102 -36 0
-85 -35 -86 -102 -36 0
-55 -46 -56 -102 -47 0
-64 -46 -65 -102 -47 0
-72 -46 -73 -102 -47 0
-79 -46 -80 -102 -47 0
-85 -46 -86 -102 -47 0
-64 -56 -65 -102 -57 0
-72 -56 -73 -102 -57 0
-79 -56 -80 -102 -57 0
-85 -56 -86 -102 -57 0
-72 -65 -73 -102 -66 0
-79 -65 -80 -102 -66 0
-85 -65 -86 -102 -66 0
-79 -73 -80 -102 -74 0
-85 -73 -86 -102 -74 0
-85 -80 -86 -102 -81 0
-34 -23 -35 -11 -24 0
-45 -23 -46 -11 -24 0
-55 -23 -56 -11 -24 0
-64 -23 -65 -11 -24 0
-72 -23 -73 -11 -24 0
-79 -23 -80 -11 -24 0
-85 -23 -86 -11 -24 0
-45 -35 -46 -11 -36 0
-55 -35 -56 -11 -36 0
-64 -35 -65 -11 -36 0
-72 -35 -73 -11 -36 0
-79 -35 -80 -11 -36 0
-85 -35 -86 -11 -36 0
-55 -46 -56 -11 -47 0
-64 -46 -65 -11 -47 0
-72 -46 -73 -11 -47 0
-79 -46 -80 -11 -47 0
-85 -46 -86 -11 -47 0
-64 -56 -65 -11 -57 0
-72 -56 -73 -11 -57 0
-79 -56 -80 -11 -57 0
-85 -56 -86 -11 -57 0
-72 -65 -73 -11 -66 0
-79 -65 -80 -11 -66 0
-85 -65 -86 -11 -66 0
-79 -73 -80 -11 -74 0
-85 -73 -86 -11 -74 0
-85 -80 -86 -11 -81 0
-45 -35 -46 -24 -36 0
-55 -35 -56 -24 -36 0
-64 -35 -65 -24 -36 0
-72 -35 -73 -24 -36 0
-79 -35 -80 -24 -36 0
-85 -35 -86 -24 -36 0
-55 -46 -56 -24 -47 0
-64 -46 -65 -24 -47 0
-72 -46 -73 -24 -47 0
-79 -46 -80 -24 -47 0
-85 -46 -86 -24 -47 0
-64 -56 -65 -24 -57 0
-72 -56 -73 -24 -57 0
-79 -56 -80 -24 -57 0
-85 -56 -86 -24 -57 0
-72 -65 -73 -24 -66 0
-79 -65 -80 -24 -66 0
-85 -65 -86 -24 -66 0
-79 -73 -80 -24 -74 0
-85 -73 -86 -24 -74 0
-85 -80 -86 -24 -81 0
-55 -46 -56 -36 -47 0
-64 -46 -65 -36 -47 0
-72 -46 -73 -36 -47 0
-79 -46 -80 -36 -47 0
-85 -46 -86 -36 -47 0
-64 -56 -65 -36 -57 0
-72 -56 -73 -36 -57 0
-79 -56 -80 -36 -57 0
-85 -56 -86 -36 -57 0
-72 -65 -73 -36 -66 0
-79 -65 -80 -36 -66 0
-85 -65 -86 -36 -66 0
-79 -73 -80 -36 -74 0
-85 -73 -86 -36 -74 0
-85 -80 -86 -36 -81 0
-64 -56 -65 -47 -57 0
-72 -56 -73 -47 -57 0
-79 -56 -80 -47 -57 0
-85 -56 -86 -47 -57 0
-72 -65 -73 -47 -66 0
-79 -65 -80 -47 -66 0
-85 -65 -86 -47 -66 0
-79 -73 -80 -47 -74 0
-85 -73 -86 -47 -74 0
-85 -80 -86 -47 -81 0
-72 -65 -73 -57 -66 0
-79 -65 -80 -57 -66 0
-85 -65 -86 -57 -66 0
-79 -73 -80 -57 -74 0
-85 -73 -86 -57 -74 0
-85 -80 -86 -57 -81 0
-79 -73 -80 -66 -74 0
-85 -73 -86 -66 -74 0
-85 -80 -86 -66 -81 0
-85 -80 -86 -74 -81 0
-9 -99 -10 -103 -104 0
-22 -99 -23 -103 -104 0
-34 -99 -35 -103 -104 0
-45 -99 -46 -103 -104 0
-55 -99 -56 -103 -104 0
-64 -99 -65 -103 -104 0
-72 -99 -73 -103 -104 0
-79 -99 -80 -103 -104 0
-85 -99 -86 -103 -104 0
-22 -10 -23 -103 -12 0
-34 -10 -35 -103 -12 0
-45 -10 -46 -103 -12 0
-55 -10 -56 -103 -12 0
-64 -10 -65 -103 -12 0
-72 -10 -73 -103 -12 0
-79 -10 -80 -103 -12 0
-85 -10 -86 -103 -12 0
-34 -23 -35 -103 -25 0
-45 -23 -46 -103 -25 0
-55 -23 -56 -103 -25 0
-64 -23 -65 -103 -25 0
-72 -23 -73 -103 -25 0
-79 -23 -80 -103 -25 0
-85 -23 -86 -103 -25 0
-45 -35 -46 -103 -37 0
-55 -35 -56 -103 -37 0
-64 -35 -65 -103 -37 0
-72 -35 -73 -103 -37 0
-79 -35 -80 -103 -37 0
-85 -35 -86 -103 -37 0
-55 -46 -56 -103 -48 0
-64 -46 -65 -103 -48 0
-72 -46 -73 -103 -48 0
-79 -46 -80 -103 -48 0
-85 -46 -86 -103 -48 0
-64 -56 -65 -103 -58 0
-72 -56 -73 -103 -58 0
-79 -56 -80 -103 -58 0
-85 -56 -86 -103 -58 0
-72 -65 -73 -103 -67 0
-79 -65 -80 -103 -67 0
-85 -65 -86 -103 -67 0
-79 -73 -80 -103 -75 0
-85 -73 -86 -103 -75 0
-85 -80 -86 -103 -82 0
-22 -10 -23 -104 -12 0
-34 -10 -35 -104 -12 0
-45 -10 -46 -104 -12 0
-55 -10 -56 -104 -12 0
-64 -10 -65 -104 -12 0
-72 -10 -73 -104 -12 0
-79 -10 -80 -104 -12 0
-85 -10 -86 -104 -12 0
-34 -23 -35 -104 -25 0
-45 -23 -46 -104 -25 0
-55 -23 -56 -104 -25 0
-64 -23 -65 -104 -25 0
-72 -23 -73 -104 -25 0
-79 -23 -80 -104 -25 0
-85 -23 -86 -104 -25 0
-45 -35 -46 -104 -37 0
-55 -35 -56 -104 -37 0
-64 -35 -65 -104 -37 0
-72 -35 -73 -104 -37 0
-79 -35 -80 -104 -37 0
-85 -35 -86 -104 -37 0
-55 -46 -56 -104 -48 0
-64 -46 -65 -104 -48 0
-72 -46 -73 -104 -48 0
-79 -46 -80 -104 -48 0
-85 -46 -86 -104 -48 0
-64 -56 -65 -104 -58 0
-72 -56 -73 -104 -58 0
-79 -56 -80 -104 -58 0
-85 -56 -86 -104 -58 0
-72 -65 -73 -104 -67 0
-79 -65 -80 -104 -67 0
-85 -65 -86 -104 -67 0
-79 -73 -80 -104 -75 0
-85 -73 -86 -104 -75 0
-85 -80 -86 -104 -82 0
-34 -23 -35 -12 -25 0
-45 -23 -46 -12 -25 0
-55 -23 -56 -12 -25 0
-64 -23 -65 -12 -25 0
-72 -23 -73 -12 -25 0
-79 -23 -80 -12 -25 0
-85 -23 -86 -12 -25 0
-45 -35 -46 -12 -37 0
-55 -35 -56 -12 -37 0
-64 -35 -65 -12 -37 0
-72 -35 -73 -12 -37 0
-79 -35 -80 -12 -37 0
-85 -35 -86 -12 -37 0
-55 -46 -56 -12 -48 0
-64 -46 -65 -12 -48 0
-72 -46 -73 -12 -48 0
-79 -46 -80 -12 -48 0
-85 -46 -86 -12 -48 0
-64 -56 -65 -12 -58 0
-72 -56 -73 -12 -58 0
-79 -56 -80 -12 -58 0
-85 -56 -86 -12 -58 0
-72 -65 -73 -12 -67 0
-79 -65 -80 -12 -67 0
-85 -65 -86 -12 -67 0
-79 -73 -80 -12 -75 0
-85 -73 -86 -12 -75 0
-85 -80 -86 -12 -82 0
-45 -35 -46 -25 -37 0
-55 -35 -56 -25 -37 0
-64 -35 -65 -25 -37 0
-72 -35 -73 -25 -37 0
-79 -35 -80 -25 -37 0
-85 -35 -86 -25 -37 0
-55 -46 -56 -25 -48 0
-64 -46 -65 -25 -48 0
-72 -46 -73 -25 -48 0
-79 -46 -80 -25 -48 0
-85 -46 -86 -25 -48 0
-64 -56 -65 -25 -58 0
-72 -56 -73 -25 -58 0
-79 -56 -80 -25 -58 0
-85 -56 -86 -25 -58 0
-72 -65 -73 -25 -67 0
-79 -65 -80 -25 -67 0
-85 -65 -86 -25 -67 0
-79 -73 -80 -25 -75 0
-85 -73 -86 -25 -75 0
-85 -80 -86 -25 -82 0
-55 -46 -56 -37 -48 0
-64 -46 -65 -37 -48 0
-72 -46 -73 -37 -48 0
-79 -46 -80 -37 -48 0
-85 -46 -86 -37 -48 0
-64 -56 -65 -37 -58 0
-72 -56 -73 -37 -58 0
-79 -56 -80 -37 -58 0
-85 -56 -86 -37 -58 0
-72 -65 -73 -37 -67 0
-79 -65 -80 -37 -67 0
-85 -65 -86 -37 -67 0
-79 -73 -80 -37 -75 0
-85 -73 -86 -37 -75 0
-85 -80 -86 -37 -82 0
-64 -56 -65 -48 -58 0
-72 -56 -73 -48 -58 0
-79 -56 -80 -48 -58 0
-85 -56 -86 -48 -58 0
-72 -65 -73 -48 -67 0
-79 -65 -80 -48 -67 0
-85 -65 -86 -48 -67 0
-79 -73 -80 -48 -75 0
-85 -73 -86 -48 -75 0
-85 -80 -86 -48 -82 0
-72 -65 -73 -58 -67 0
-79 -65 -80 -58 -67 0
-85 -65 -86 -58 -67 0
-79 -73 -80 -58 -75 0
-85 -73 -86 -58 -75 0
-85 -80 -86 -58 -82 0
-79 -73 -80 -67 -75 0
-85 -73 -86 -67 -75 0
-85 -80 -86 -67 -82 0
-85 -80 -86 -75 -82 0
-22 -10 -23 -105 -13 0
-34 -10 -35 -105 -13 0
-45 -10 -46 -105 -13 0
-55 -10 -56 -105 -13 0
-64 -10 -65 -105 -13 0
-72 -10 -73 -105 -13 0
-79 -10 -80 -105 -13 0
-85 -10 -86 -105 -13 0
-34 -23 -35 -105 -26 0
-45 -23 -46 -105 -26 0
-55 -23 -56 -105 -26 0
-64 -23 -65 -105 -26 0
-72 -23 -73 -105 -26 0
-79 -23 -80 -105 -26 0
-85 -23 -86 -105 -26 0
-45 -35 -46 -105 -38 0
-55 -35 -56 -105 -38 0
-64 -35 -65 -105 -38 0
-72 -35 -73 -105 -38 0
-79 -35 -80 -105 -38 0
-85 -35 -86 -105 -38 0
-55 -46 -56 -105 -49 0
-64 -46 -65 -105 -49 0
-72 -46 -73 -105 -49 0
-79 -46 -80 -105 -49 0
-85 -46 -86 -105 -49 0
-64 -56 -65 -105 -59 0
-72 -56 -73 -105 -59 0
-79 -56 -80 -105 -59 0
-85 -56 -86 -105 -59 0
-72 -65 -73 -105 -68 0
-79 -65 -80 -105 -68 0
-85 -65 -86 -105 -68 0
-79 -73 -80 -105 -76 0
-85 -73 -86 -105 -76 0
-85 -80 -86 -105 -83 0
-34 -23 -35 -13 -26 0
-45 -23 -46 -13 -26 0
-55 -23 -56 -13 -26 0
-64 -23 -65 -13 -26 0
-72 -23 -73 -13 -26 0
-79 -23 -80 -13 -26 0
-85 -23 -86 -13 -26 0
-45 -35 -46 -13 -38 0
-55 -35 -56 -13 -38 0
-64 -35 -65 -13 -38 0
-72 -35 -73 -13 -38 0
-79 -35 -80 -13 -38 0
-85 -35 -86 -13 -38 0
-55 -46 -56 -13 -49 0
-64 -46 -65 -13 -49 0
-72 -46 -73 -13 -49 0
-79 -46 -80 -13 -49 0
-85 -46 -86 -13 -49 0
-64 -56 -65 -13 -59 0
-72 -56 -73 -13 -59 0
-79 -56 -80 -13 -59 0
-85 -56 -86 -13 -59 0
-72 -65 -73 -13 -68 0
-79 -65 -80 -13 -68 0
-85 -65 -86 -13 -68 0
-79 -73 -80 -13 -76 0
-85 -73 -86 -13 -76 0
-85 -80 -86 -13 -83 0
-45 -35 -46 -26 -38 0
-55 -35 -56 -26 -38 0
-64 -35 -65 -26 -38 0
-72 -35 -73 -26 -38 0
-79 -35 -80 -26 -38 0
-85 -35 -86 -26 -38 0
-55 -46 -56 -26 -49 0
-64 -46 -65 -26 -49 0
-72 -46 -73 -26 -49 0
-79 -46 -80 -26 -49 0
-85 -46 -86 -26 -49 0
-64 -56 -65 -26 -59 0
-72 -56 -73 -26 -59 0
-79 -56 -80 -26 -59 0
-85 -56 -86 -26 -59 0
-72 -65 -73 -26 -68 0
-79 -65 -80 -26 -68 0
-85 -65 -86 -26 -68 0
-79 -73 -80 -26 -76 0
-85 -73 -86 -26 -76 0
-85 -80 -86 -26 -83 0
-55 -46 -56 -38 -49 0
-64 -46 -65 -38 -49 0
-72 -46 -73 -38 -49 0
-79 -46 -80 -38 -49 0
-85 -46 -86 -38 -49 0
-64 -56 -65 -38 -59 0
-72 -56 -73 -38 -59 0
-79 -56 -80 -38 -59 0
-85 -56 -86 -38 -59 0
-72 -65 -73 -38 -68 0
-79 -65 -80 -38 -68 0
-85 -65 -86 -38 -68 0
-79 -73 -80 -38 -76 0
-85 -73 -86 -38 -76 0
-85 -80 -86 -38 -83 0
-64 -56 -65 -49 -59 0
-72 -56 -73 -49 -59 0
-79 -56 -80 -49 -59 0
-85 -56 -86 -49 -59 0
-72 -65 -73 -49 -68 0
-79 -65 -80 -49 -68 0
-85 -65 -86 -49 -68 0
-79 -73 -80 -49 -76 0
-85 -73 -86 -49 -76 0
-85 -80 -86 -49 -83 0
-72 -65 -73 -59 -68 0
-79 -65 -80 -59 -68 0
-85 -65 -86 -59 -68 0
-79 -73 -80 -59 -76 0
-85 -73 -86 -59 -76 0
-85 -80 -86 -59 -83 0
-79 -73 -80 -68 -76 0
-85 -73 -86 -68 -76 0
-85 -80 -86 -68 -83 0
-85 -80 -86 -76 -83 0
-34 -23 -35 -14 -27 0
-45 -23 -46 -14 -27 0
-55 -23 -56 -14 -27 0
-64 -23 -65 -14 -27 0
-72 -23 -73 -14 -27 0
-79 -23 -80 -14 -27 0
-85 -23 -86 -14 -27 0
-45 -35 -46 -14 -39 0
-55 -35 -56 -14 -39 0
-64 -35 -65 -14 -39 0
-72 -35 -73 -14 -39 0
-79 -35 -80 -14 -39 0
-85 -35 -86 -14 -39 0
-55 -46 -56 -14 -50 0
-64 -46 -65 -14 -50 0
-72 -46 -73 -14 -50 0
-79 -46 -80 -14 -50 0
-85 -46 -86 -14 -50 0
-64 -56 -65 -14 -60 0
-72 -56 -73 -14 -60 0
-79 -56 -80 -14 -60 0
-85 -56 -86 -14 -60 0
-72 -65 -73 -14 -69 0
-79 -65 -80 -14 -69 0
-85 -65 -86 -14 -69 0
-79 -73 -80 -14 -77 0
-85 -73 -86 -14 -77 0
-85 -80 -86 -14 -84 0
-45 -35 -46 -27 -39 0
-55 -35 -56 -27 -39 0
-64 -35 -65 -27 -39 0
-72 -35 -73 -27 -39 0
-79 -35 -80 -27 -39 0
-85 -35 -86 -27 -39 0
-55 -46 -56 -27 -50 0
-64 -46 -65 -27 -50 0
-72 -46 -73 -27 -50 0
-79 -46 -80 -27 -50 0
-85 -46 -86 -27 -50 0
-64 -56 -65 -27 -60 0
-72 -56 -73 -27 -60 0
-79 -56 -80 -27 -60 0
-85 -56 -86 -27 -60 0
-72 -65 -73 -27 -69 0
-79 -65 -80 -27 -69 0
-85 -65 -86 -27 -69 0
-79 -73 -80 -27 -77 0
-85 -73 -86 -27 -77 0
-85 -80 -86 -27 -84 0
-55 -46 -56 -39 -50 0
-64 -46 -65 -39 -50 0
-72 -46 -73 -39 -50 0
-79 -46 -80 -39 -50 0
-85 -46 -86 -39 -50 0
-64 -56 -65 -39 -60 0
-72 -56 -73 -39 -60 0
-79 -56 -80 -39 -60 0
-85 -56 -86 -39 -60 0
-72 -65 -73 -39 -69 0
-79 -65 -80 -39 -69 0
-85 -65 -86 -39 -69 0
-79 -73 -80 -39 -77 0
-85 -73 -86 -39 -77 0
-85 -80 -86 -39 -84 0
-64 -56 -65 -50 -60 0
-72 -56 -73 -50 -60 0
-79 -56 -80 -50 -60 0
-85 -56 -86 -50 -60 0
-72 -65 -73 -50 -69 0
-79 -65 -80 -50 -69 0
-85 -65 -86 -50 -69 0
-79 -73 -80 -50 -77 0
-85 -73 -86 -50 -77 0
-85 -80 -86 -50 -84 0
-72 -65 -73 -60 -69 0
-79 -65 -80 -60 -69 0
-85 -65 -86 -60 -69 0
-79 -73 -80 -60 -77 0
-85 -73 -86 -60 -77 0
-85 -80 -86 -60 -84 0
-79 -73 -80 -69 -77 0
-85 -73 -86 -69 -77 0
-85 -80 -86 -69 -84 0
-85 -80 -86 -77 -84 0
-45 -35 -46 -1 -2 0
-55 -35 -56 -1 -2 0
-64 -35 -65 -1 -2 0
-72 -35 -73 -1 -2 0
-79 -35 -80 -1 -2 0
-85 -35 -86 -1 -2 0
-55 -46 -56 -1 -3 0
-64 -46 -65 -1 -3 0
-72 -46 -73 -1 -3 0
-79 -46 -80 -1 -3 0
-85 -46 -86 -1 -3 0
-64 -56 -65 -1 -4 0
-72 -56 -73 -1 -4 0
-79 -56 -80 -1 -4 0
-85 -56 -86 -1 -4 0
-72 -65 -73 -1 -5 0
-79 -65 -80 -1 -5 0
-85 -65 -86 -1 -5 0
-79 -73 -80 -1 -6 0
-85 -73 -86 -1 -6 0
-85 -80 -86 -1 -7 0
-55 -46 -56 -2 -3 0
-64 -46 -65 -2 -3 0
-72 -46 -73 -2 -3 0
-79 -46 -80 -2 -3 0
-85 -46 -86 -2 -3 0
-64 -56 -65 -2 -4 0
-72 -56 -73 -2 -4 0
-79 -56 -80 -2 -4 0
-85 -56 -86 -2 -4 0
-72 -65 -73 -2 -5 0
-79 -65 -80 -2 -5 0
-85 -65 -86 -2 -5 0
-79 -73 -80 -2 -6 0
-85 -73 -86 -2 -6 0
-85 -80 -86 -2 -7 0
-64 -56 -65 -3 -4 0
-72 -56 -73 -3 -4 0
-79 -56 -80 -3 -4 0
-85 -56 -86 -3 -4 0
-72 -65 -73 -3 -5 0
-79 -65 -80 -3 -5 0
-85 -65 -86 -3 -5 0
-79 -73 -80 -3 -6 0
-85 -73 -86 -3 -6 0
-85 -80 -86 -3 -7 0
-72 -65 -73 -4 -5 0
-79 -65 -80 -4 -5 0
-85 -65 -86 -4 -5 0
-79 -73 -80 -4 -6 0
-85 -73 -86 -4 -6 0
-85 -80 -86 -4 -7 0
-79 -73 -80 -5 -6 0
-85 -73 -86 -5 -6 0
-85 -80 -86 -5 -7 0
-85 -80 -86 -6 -7 0
-55 -46 -56 -15 -16 0
-64 -46 -65 -15 -16 0
-72 -46 -73 -15 -16 0
-79 -46 -80 -15 -16 0
-85 -46 -86 -15 -16 0
-64 -56 -65 -15 -17 0
-72 -56 -73 -15 -17 0
-79 -56 -80 -15 -17 0
-85 -56 -86 -15 -17 0
-72 -65 -73 -15 -18 0
-79 -65 -80 -15 -18 0
-85 -65 -86 -15 -18 0
-79 -73 -80 -15 -19 0
-85 -73 -86 -15 -19 0
-85 -80 -86 -15 -20 0
-64 -56 -65 -16 -17 0
-72 -56 -73 -16 -17 0
-79 -56 -80 -16 -17 0
-85 -56 -86 -16 -17 0
-72 -65 -73 -16 -18 0
-79 -65 -80 -16 -18 0
-85 -65 -86 -16 -18 0
-79 -73 -80 -16 -19 0
-85 -73 -86 -16 -19 0
-85 -80 -86 -16 -20 0
-72 -65 -73 -17 -18 0
-79 -65 -80 -17 -18 0
-85 -65 -86 -17 -18 0
-79 -73 -80 -17 -19 0
-85 -73 -86 -17 -19 0
-85 -80 -86 -17 -20 0
-79 -73 -80 -18 -19 0
-85 -73 -86 -18 -19 0
-85 -80 -86 -18 -20 0
-85 -80 -86 -19 -20 0
-64 -56 -65 -28 -29 0
-72 -56 -73 -28 -29 0
-79 -56 -80 -28 -29 0
-85 -56 -86 -28 -29 0
-72 -65 -73 -28 -30 0
-79 -65 -80 -28 -30 0
-85 -65 -86 -28 -30 0
-79 -73 -80 -28 -31 0
-85 -73 -86 -28 -31 0
-85 -80 -86 -28 -32 0
-72 -65 -73 -29 -30 0
-79 -65 -80 -29 -30 0
-85 -65 -86 -29 -30 0
-79 -73 -80 -29 -31 0
-85 -73 -86 -29 -31 0
-85 -80 -86 -29 -32 0
-79 -73 -80 -30 -31 0
-85 -73 -86 -30 -31 0
-85 -80 -86 -30 -32 0
-85 -80 -86 -31 -32 0
-72 -65 -73 -40 -41 0
-79 -65 -80 -40 -41 0
-85 -65 -86 -40 -41 0
-79 -73 -80 -40 -42 0
-85 -73 -86 -40 -42 0
-85 -80 -86 -40 -43 0
-79 -73 -80 -41 -42 0
-85 -73 -86 -41 -42 0
-85 -80 -86 -41 -43 0
-85 -80 -86 -42 -43 0
-79 -73 -80 -51 -52 0
-85 -73 -86 -51 -52 0
-85 -80 -86 -51 -53 0
-85 -80 -86 -52 -53 0
-85 -80 -86 -61 -62 0
-9 -102 -11 -103 -104 0
-22 -102 -24 -103 -104 0
-34 -102 -36 -103 -104 0
-45 -102 -47 -103 -104 0
-55 -102 -57 -103 -104 0
-64 -102 -66 -103 -104 0
-72 -102 -74 -103 -104 0
-79 -102 -81 -103 -104 0
-85 -102 -87 -103 -104 0
-22 -11 -24 -103 -12 0
-34 -11 -36 -103 -12 0
-45 -11 -47 -103 -12 0
-55 -11 -57 -103 -12 0
-64 -11 -66 -103 -12 0
-72 -11 -74 -103 -12 0
-79 -11 -81 -103 -12 0
-85 -11 -87 -103 -12 0
-34 -24 -36 -103 -25 0
-45 -24 -47 -103 -25 0
-55 -24 -57 -103 -25 0
-64 -24 -66 -103 -25 0
-72 -24 -74 -103 -25 0
-79 -24 -81 -103 -25 0
-85 -24 -87 -103 -25 0
-45 -36 -47 -103 -37 0
-55 -36 -57 -103 -37 0
-64 -36 -66 -103 -37 0
-72 -36 -74 -103 -37 0
-79 -36 -81 -103 -37 0
-85 -36 -87 -103 -37 0
-55 -47 -57 -103 -48 0
-64 -47 -66 -103 -48 0
-72 -47 -74 -103 -48 0
-79 -47 -81 -103 -48 0
-85 -47 -87 -103 -48 0
-64 -57 -66 -103 -58 0
-72 -57 -74 -103 -58 0
-79 -57 -81 -103 -58 0
-85 -57 -87 -103 -58 0
-72 -66 -74 -103 -67 0
-79 -66 -81 -103 -67 0
-85 -66 -87 -103 -67 0
-79 -74 -81 -103 -75 0
-85 -74 -87 -103 -75 0
-85 -81 -87 -103 -82 0
-22 -11 -24 -104 -12 0
-34 -11 -36 -104 -12 0
-45 -11 -47 -104 -12 0
-55 -11 -57 -104 -12 0
-64 -11 -66 -104 -12 0
-72 -11 -74 -104 -12 0
-79 -11 -81 -104 -12 0
-85 -11 -87 -104 -12 0
-34 -24 -36 -104 -25 0
-45 -24 -47 -104 -25 0
-55 -24 -57 -104 -25 0
-64 -24 -66 -104 -25 0
-72 -24 -74 -104 -25 0
-79 -24 -81 -104 -25 0
-85 -24 -87 -104 -25 0
-45 -36 -47 -104 -37 0
-55 -36 -57 -104 -37 0
-64 -36 -66 -104 -37 0
-72 -36 -74 -104 -37 0
-79 -36 -81 -104 -37 0
-85 -36 -87 -104 -37 0
-55 -47 -57 -104 -48 0
-64 -47 -66 -104 -48 0
-72 -47 -74 -104 -48 0
-79 -47 -81 -104 -48 0
-85 -47 -87 -104 -48 0
-64 -57 -66 -104 -58 0
-72 -57 -74 -104 -58 0
-79 -57 -81 -104 -58 0
-85 -57 -87 -104 -58 0
-72 -66 -74 -104 -67 0
-79 -66 -81 -104 -67 0
-85 -66 -87 -104 -67 0
-79 -74 -81 -104 -75 0
-85 -74 -87 -104 -75 0
-85 -81 -87 -104 -82 0
-34 -24 -36 -12 -25 0
-45 -24 -47 -12 -25 0
-55 -24 -57 -12 -25 0
-64 -24 -66 -12 -25 0
-72 -24 -74 -12 -25 0
-79 -24 -81 -12 -25 0
-85 -24 -87 -12 -25 0
-45 -36 -47 -12 -37 0
-55 -36 -57 -12 -37 0
-64 -36 -66 -12 -37 0
-72 -36 -74 -12 -37 0
-79 -36 -81 -12 -37 0
-85 -36 -87 -12 -37 0
-55 -47 -57 -12 -48 0
-64 -47 -66 -12 -48 0
-72 -47 -74 -12 -48 0
-79 -47 -81 -12 -48 0
-85 -47 -87 -12 -48 0
-64 -57 -66 -12 -58 0
-72 -57 -74 -12 -58 0
-79 -57 -81 -12 -58 0
-85 -57 -87 -12 -58 0
-72 -66 -74 -12 -67 0
-79 -66 -81 -12 -67 0
-85 -66 -87 -12 -67 0
-79 -74 -81 -12 -75 0
-85 -74 -87 -12 -75 0
-85 -81 -87 -12 -82 0
-45 -36 -47 -25 -37 0
-55 -36 -57 -25 -37 0
-64 -36 -66 -25 -37 0
-72 -36 -74 -25 -37 0
-79 -36 -81 -25 -37 0
-85 -36 -87 -25 -37 0
-55 -47 -57 -25 -48 0
-64 -47 -66 -25 -48 0
-72 -47 -74 -25 -48 0
-79 -47 -81 -25 -48 0
-85 -47 -87 -25 -48 0
-64 -57 -66 -25 -58 0
-72 -57 -74 -25 -58 0
-79 -57 -81 -25 -58 0
-85 -57 -87 -25 -58 0
-72 -66 -74 -25 -67 0
-79 -66 -81 -25 -67 0
-85 -66 -87 -25 -67 0
-79 -74 -81 -25 -75 0
-85 -74 -87 -25 -75 0
-85 -81 -87 -25 -82 0
-55 -47 -57 -37 -48 0
-64 -47 -66 -37 -48 0
-72 -47 -74 -37 -48 0
-79 -47 -81 -37 -48 0
-85 -47 -87 -37 -48 0
-64 -57 -66 -37 -58 0
-72 -57 -74 -37 -58 0
-79 -57 -81 -37 -58 0
-85 -57 -87 -37 -58 0
-72 -66 -74 -37 -67 0
-79 -66 -81 -37 -67 0
-85 -66 -87 -37 -67 0
-79 -74 -81 -37 -75 0
-85 -74 -87 -37 -75 0
-85 -81 -87 -37 -82 0
-64 -57 -66 -48 -58 0
-72 -57 -74 -48 -58 0
-79 -57 -81 -48 -58 0
-85 -57 -87 -48 -58 0
-72 -66 -74 -48 -67 0
-79 -66 -81 -48 -67 0
-85 -66 -87 -48 -67 0
-79 -74 -81 -48 -75 0
-85 -74 -87 -48 -75 0
-85 -81 -87 -48 -82 0
-72 -66 -74 -58 -67 0
-79 -66 -81 -58 -67 0
-85 -66 -87 -58 -67 0
-79 -74 -81 -58 -75 0
-85 -74 -87 -58 -75 0
-85 -81 -87 -58 -82 0
-79 -74 -81 -67 -75 0
-85 -74 -87 -67 -75 0
-85 -81 -87 -67 -82 0
-85 -81 -87 -75 -82 0
-22 -11 -24 -105 -13 0
-34 -11 -36 -105 -13 0
-45 -11 -47 -105 -13 0
-55 -11 -57 -105 -13 0
-64 -11 -66 -105 -13 0
-72 -11 -74 -105 -13 0
-79 -11 -81 -105 -13 0
-85 -11 -87 -105 -13 0
-34 -24 -36 -105 -26 0
-45 -24 -47 -105 -26 0
-55 -24 -57 -105 -26 0
-64 -24 -66 -105 -26 0
-72 -24 -74 -105 -26 0
-79 -24 -81 -105 -26 0
-85 -24 -87 -105 -26 0
-45 -36 -47 -105 -38 0
-55 -36 -57 -105 -38 0
-64 -36 -66 -105 -38 0
-72 -36 -74 -105 -38 0
-79 -36 -81 -105 -38 0
-85 -36 -87 -105 -38 0
-55 -47 -57 -105 -49 0
-64 -47 -66 -105 -49 0
-72 -47 -74 -105 -49 0
-79 -47 -81 -105 -49 0
-85 -47 -87 -105 -49 0
-64 -57 -66 -105 -59 0
-72 -57 -74 -105 -59 0
-79 -57 -81 -105 -59 0
-85 -57 -87 -105 -59 0
-72 -66 -74 -105 -68 0
-79 -66 -81 -105 -68 0
-85 -66 -87 -105 -68 0
-79 -74 -81 -105 -76 0
-85 -74 -87 -105 -76 0
-85 -81 -87 -105 -83 0
-34 -24 -36 -13 -26 0
-45 -24 -47 -13 -26 0
-55 -24 -57 -13 -26 0
-64 -24 -66 -13 -26 0
-72 -24 -74 -13 -26 0
-79 -24 -81 -13 -26 0
-85 -24 -87 -13 -26 0
-45 -36 -47 -13 -38 0
-55 -36 -57 -13 -38 0
-64 -36 -66 -13 -38 0
-72 -36 -74 -13 -38 0
-79 -36 -81 -13 -38 0
-85 -36 -87 -13 -38 0
-55 -47 -57 -13 -49 0
-64 -47 -66 -13 -49 0
-72 -47 -74 -13 -49 0
-79 -47 -81 -13 -49 0
-85 -47 -87 -13 -49 0
-64 -57 -66 -13 -59 0
-72 -57 -74 -13 -59 0
-79 -57 -81 -13 -59 0
-85 -57 -87 -13 -59 0
-72 -66 -74 -13 -68 0
-79 -66 -81 -13 -68 0
-85 -66 -87 -13 -68 0
-79 -74 -81 -13 -76 0
-85 -74 -87 -13 -76 0
-85 -81 -87 -13 -83 0
-45 -36 -47 -26 -38 0
-55 -36 -57 -26 -38 0
-64 -36 -66 -26 -38 0
-72 -36 -74 -26 -38 0
-79 -36 -81 -26 -38 0
-85 -36 -87 -26 -38 0
-55 -47 -57 -26 -49 0
-64 -47 -66 -26 -49 0
-72 -47 -74 -26 -49 0
-79 -47 -81 -26 -49 0
-85 -47 -87 -26 -49 0
-64 -57 -66 -26 -59 0
-72 -57 -74 -26 -59 0
-79 -57 -81 -26 -59 0
-85 -57 -87 -26 -59 0
-72 -66 -74 -26 -68 0
-79 -66 -81 -26 -68 0
-85 -66 -87 -26 -68 0
-79 -74 -81 -26 -76 0
-85 -74 -87 -26 -76 0
-85 -81 -87 -26 -83 0
-55 -47 -57 -38 -49 0
-64 -47 -66 -38 -49 0
-72 -47 -74 -38 -49 0
-79 -47 -81 -38 -49 0
-85 -47 -87 -38 -49 0
-64 -57 -66 -38 -59 0
-72 -57 -74 -38 -59 0
-79 -57 -81 -38 -59 0
-85 -57 -87 -38 -59 0
-72 -66 -74 -38 -68 0
-79 -66 -81 -38 -68 0
-85 -66 -87 -38 -68 0
-79 -74 -81 -38 -76 0
-85 -74 -87 -38 -76 0
-85 -81 -87 -38 -83 0
-64 -57 -66 -49 -59 0
-72 -57 -74 -49 -59 0
-79 -57 -81 -49 -59 0
-85 -57 -87 -49 -59 0
-72 -66 -74 -49 -68 0
-79 -66 -81 -49 -68 0
-85 -66 -87 -49 -68 0
-79 -74 -81 -49 -76 0
-85 -74 -87 -49 -76 0
-85 -81 -87 -49 -83 0
-72 -66 -74 -59 -68 0
-79 -66 -81 -59 -68 0
-85 -66 -87 -59 -68 0
-79 -74 -81 -59 -76 0
-85 -74 -87 -59 -76 0
-85 -81 -87 -59 -83 0
-79 -74 -81 -68 -76 0
-85 -74 -87 -68 -76 0
-85 -81 -87 -68 -83 0
-85 -81 -87 -76 -83 0
-34 -24 -36 -14 -27 0
-45 -24 -47 -14 -27 0
-55 -24 -57 -14 -27 0
-64 -24 -66 -14 -27 0
-72 -24 -74 -14 -27 0
-79 -24 -81 -14 -27 0
-85 -24 -87 -14 -27 0
-45 -36 -47 -14 -39 0
-55 -36 -57 -14 -39 0
-64 -36 -66 -14 -39 0
-72 -36 -74 -14 -39 0
-79 -36 -81 -14 -39 0
-85 -36 -87 -14 -39 0
-55 -47 -57 -14 -50 0
-64 -47 -66 -14 -50 0
-72 -47 -74 -14 -50 0
-79 -47 -81 -14 -50 0
-85 -47 -87 -14 -50 0
-64 -57 -66 -14 -60 0
-72 -57 -74 -14 -60 0
-79 -57 -81 -14 -60 0
-85 -57 -87 -14 -60 0
-72 -66 -74 -14 -69 0
-79 -66 -81 -14 -69 0
-85 -66 -87 -14 -69 0
-79 -74 -81 -14 -77 0
-85 -74 -87 -14 -77 0
-85 -81 -87 -14 -84 0
-45 -36 -47 -27 -39 0
-55 -36 -57 -27 -39 0
-64 -36 -66 -27 -39 0
-72 -36 -74 -27 -39 0
-79 -36 -81 -27 -39 0
-85 -36 -87 -27 -39 0
-55 -47 -57 -27 -50 0
-64 -47 -66 -27 -50 0
-72 -47 -74 -27 -50 0
-79 -47 -81 -27 -50 0
-85 -47 -87 -27 -50 0
-64 -57 -66 -27 -60 0
-72 -57 -74 -27 -60 0
-79 -57 -81 -27 -60 0
-85 -57 -87 -27 -60 0
-72 -66 -74 -27 -69 0
-79 -66 -81 -27 -69 0
-85 -66 -87 -27 -69 0
-79 -74 -81 -27 -77 0
-85 -74 -87 -27 -77 0
-85 -81 -87 -27 -84 0
-55 -47 -57 -39 -50 0
-64 -47 -66 -39 -50 0
-72 -47 -74 -39 -50 0
-79 -47 -81 -39 -50 0
-85 -47 -87 -39 -50 0
-64 -57 -66 -39 -60 0
-72 -57 -74 -39 -60 0
-79 -57 -81 -39 -60 0
-85 -57 -87 -39 -60 0
-72 -66 -74 -39 -69 0
-79 -66 -81 -39 -69 0
-85 -66 -87 -39 -69 0
-79 -74 -81 -39 -77 0
-85 -74 -87 -39 -77 0
-85 -81 -87 -39 -84 0
-64 -57 -66 -50 -60 0
-72 -57 -74 -50 -60 0
-79 -57 -81 -50 -60 0
-85 -57 -87 -50 -60 0
-72 -66 -74 -50 -69 0
-79 -66 -81 -50 -69 0
-85 -66 -87 -50 -69 0
-79 -74 -81 -50 -77 0
-85 -74 -87 -50 -77 0
-85 -81 -87 -50 -84 0
-72 -66 -74 -60 -69 0
-79 -66 -81 -60 -69 0
-85 -66 -87 -60 -69 0
-79 -74 -81 -60 -77 0
-85 -74 -87 -60 -77 0
-85 -81 -87 -60 -84 0
-79 -74 -81 -69 -77 0
-85 -74 -87 -69 -77 0
-85 -81 -87 -69 -84 0
-85 -81 -87 -77 -84 0
-45 -36 -47 -1 -2 0
-55 -36 -57 -1 -2 0
-64 -36 -66 -1 -2 0
-72 -36 -74 -1 -2 0
-79 -36 -81 -1 -2 0
-85 -36 -87 -1 -2 0
-55 -47 -57 -1 -3 0
-64 -47 -66 -1 -3 0
-72 -47 -74 -1 -3 0
-79 -47 -81 -1 -3 0
-85 -47 -87 -1 -3 0
-64 -57 -66 -1 -4 0
-72 -57 -74 -1 -4 0
-79 -57 -81 -1 -4 0
-85 -57 -87 -1 -4 0
-72 -66 -74 -1 -5 0
-79 -66 -81 -1 -5 0
-85 -66 -87 -1 -5 0
-79 -74 -81 -1 -6 0
-85 -74 -87 -1 -6 0
-85 -81 -87 -1 -7 0
-55 -47 -57 -2 -3 0
-64 -47 -66 -2 -3 0
-72 -47 -74 -2 -3 0
-79 -47 -81 -2 -3 0
-85 -47 -87 -2 -3 0
-64 -57 -66 -2 -4 0
-72 -57 -74 -2 -4 0
-79 -57 -81 -2 -4 0
-85 -57 -87 -2 -4 0
-72 -66 -74 -2 -5 0
-79 -66 -81 -2 -5 0
-85 -66 -87 -2 -5 0
-79 -74 -81 -2 -6 0
-85 -74 -87 -2 -6 0
-85 -81 -87 -2 -7 0
-64 -57 -66 -3 -4 0
-72 -57 -74 -3 -4 0
-79 -57 -81 -3 -4 0
-85 -57 -87 -3 -4 0
-72 -66 -74 -3 -5 0
-79 -66 -81 -3 -5 0
-85 -66 -87 -3 -5 0
-79 -74 -81 -3 -6 0
-85 -74 -87 -3 -6 0
-85 -81 -87 -3 -7 0
-72 -66 -74 -4 -5 0
-79 -66 -81 -4 -5 0
-85 -66 -87 -4 -5 0
-79 -74 -81 -4 -6 0
-85 -74 -87 -4 -6 0
-85 -81 -87 -4 -7 0
-79 -74 -81 -5 -6 0
-85 -74 -87 -5 -6 0
-85 -81 -87 -5 -7 0
-85 -81 -87 -6 -7 0
-55 -47 -57 -15 -16 0
-64 -47 -66 -15 -16 0
-72 -47 -74 -15 -16 0
-79 -47 -81 -15 -16 0
-85 -47 -87 -15 -16 0
-64 -57 -66 -15 -17 0
-72 -57 -74 -15 -17 0
-79 -57 -81 -15 -17 0
-85 -57 -87 -15 -17 0
-72 -66 -74 -15 -18 0
-79 -66 -81 -15 -18 0
-85 -66 -87 -15 -18 0
-79 -74 -81 -15 -19 0
-85 -74 -87 -15 -19 0
-85 -81 -87 -15 -20 0
-64 -57 -66 -16 -17 0
-72 -57 -74 -16 -17 0
-79 -57 -81 -16 -17 0
-85 -57 -87 -16 -17 0
-72 -66 -74 -16 -18 0
-79 -66 -81 -16 -18 0
-85 -66 -87 -16 -18 0
-79 -74 -81 -16 -19 0
-85 -74 -87 -16 -19 0
-85 -81 -87 -16 -20 0
-72 -66 -74 -17 -18 0
-79 -66 -81 -17 -18 0
-85 -66 -87 -17 -18 0
-79 -74 -81 -17 -19 0
-85 -74 -87 -17 -19 0
-85 -81 -87 -17 -20 0
-79 -74 -81 -18 -19 0
-85 -74 -87 -18 -19 0
-85 -81 -87 -18 -20 0
-85 -81 -87 -19 -20 0
-64 -57 -66 -28 -29 0
-72 -57 -74 -28 -29 0
-79 -57 -81 -28 -29 0
-85 -57 -87 -28 -29 0
-72 -66 -74 -28 -30 0
-79 -66 -81 -28 -30 0
-85 -66 -87 -28 -30 0
-79 -74 -81 -28 -31 0
-85 -74 -87 -28 -31 0
-85 -81 -87 -28 -32 0
-72 -66 -74 -29 -30 0
-79 -66 -81 -29 -30 0
-85 -66 -87 -29 -30 0
-79 -74 -81 -29 -31 0
-85 -74 -87 -29 -31 0
-85 -81 -87 -29 -32 0
-79 -74 -81 -30 -31 0
-85 -74 -87 -30 -31 0
-85 -81 -87 -30 -32 0
-85 -81 -87 -31 -32 0
-72 -66 -74 -40 -41 0
-79 -66 -81 -40 -41 0
-85 -66 -87 -40 -41 0
-79 -74 -81 -40 -42 0
-85 -74 -87 -40 -42 0
-85 -81 -87 -40 -43 0
-79 -74 -81 -41 -42 0
-85 -74 -87 -41 -42 0
-85 -81 -87 -41 -43 0
-85 -81 -87 -42 -43 0
-79 -74 -81 -51 -52 0
-85 -74 -87 -51 -52 0
-85 -81 -87 -51 -53 0
-85 -81 -87 -52 -53 0
-85 -81 -87 -61 -62 0
-22 -12 -25 -105 -13 0
-34 -12 -37 -105 -13 0
-45 -12 -48 -105 -13 0
-55 -12 -58 -105 -13 0
-64 -12 -67 -105 -13 0
-72 -12 -75 -105 -13 0
-79 -12 -82 -105 -13 0
-85 -12 -88 -105 -13 0
-34 -25 -37 -105 -26 0
-45 -25 -48 -105 -26 0
-55 -25 -58 -105 -26 0
-64 -25 -67 -105 -26 0
-72 -25 -75 -105 -26 0
-79 -25 -82 -105 -26 0
-85 -25 -88 -105 -26 0
-45 -37 -48 -105 -38 0
-55 -37 -58 -105 -38 0
-64 -37 -67 -105 -38 0
-72 -37 -75 -105 -38 0
-79 -37 -82 -105 -38 0
-85 -37 -88 -105 -38 0
-55 -48 -58 -105 -49 0
-64 -48 -67 -105 -49 0
-72 -48 -75 -105 -49 0
-79 -48 -82 -105 -49 0
-85 -48 -88 -105 -49 0
-64 -58 -67 -105 -59 0
-72 -58 -75 -105 -59 0
-79 -58 -82 -105 -59 0
-85 -58 -88 -105 -59 0
-72 -67 -75 -105 -68 0
-79 -67 -82 -105 -68 0
-85 -67 -88 -105 -68 0
-79 -75 -82 -105 -76 0
-85 -75 -88 -105 -76 0
-85 -82 -88 -105 -83 0
-34 -25 -37 -13 -26 0
-45 -25 -48 -13 -26 0
-55 -25 -58 -13 -26 0
-64 -25 -67 -13 -26 0
-72 -25 -75 -13 -26 0
-79 -25 -82 -13 -26 0
-85 -25 -88 -13 -26 0
-45 -37 -48 -13 -38 0
-55 -37 -58 -13 -38 0
-64 -37 -67 -13 -38 0
-72 -37 -75 -13 -38 0
-79 -37 -82 -13 -38 0
-85 -37 -88 -13 -38 0
-55 -48 -58 -13 -49 0
-64 -48 -67 -13 -49 0
-72 -48 -75 -13 -49 0
-79 -48 -82 -13 -49 0
-85 -48 -88 -13 -49 0
-64 -58 -67 -13 -59 0
-72 -58 -75 -13 -59 0
-79 -58 -82 -13 -59 0
-85 -58 -88 -13 -59 0
-72 -67 -75 -13 -68 0
-79 -67 -82 -13 -68 0
-85 -67 -88 -13 -68 0
-79 -75 -82 -13 -76 0
-85 -75 -88 -13 -76 0
-85 -82 -88 -13 -83 0
-45 -37 -48 -26 -38 0
-55 -37 -58 -26 -38 0
-64 -37 -67 -26 -38 0
-72 -37 -75 -26 -38 0
-79 -37 -82 -26 -38 0
-85 -37 -88 -26 -38 0
-55 -48 -58 -26 -49 0
-64 -48 -67 -26 -49 0
-72 -48 -75 -26 -49 0
-79 -48 -82 -26 -49 0
-85 -48 -88 -26 -49 0
-64 -58 -67 -26 -59 0
-72 -58 -75 -26 -59 0
-79 -58 -82 -26 -59 0
-85 -58 -88 -26 -59 0
-72 -67 -75 -26 -68 0
-79 -67 -82 -26 -68 0
-85 -67 -88 -26 -68 0
-79 -75 -82 -26 -76 0
-85 -75 -88 -26 -76 0
-85 -82 -88 -26 -83 0
-55 -48 -58 -38 -49 0
-64 -48 -67 -38 -49 0
-72 -48 -75 -38 -49 0
-79 -48 -82 -38 -49 0
-85 -48 -88 -38 -49 0
-64 -58 -67 -38 -59 0
-72 -58 -75 -38 -59 0
-79 -58 -82 -38 -59 0
-85 -58 -88 -38 -59 0
-72 -67 -75 -38 -68 0
-79 -67 -82 -38 -68 0
-85 -67 -88 -38 -68 0
-79 -75 -82 -38 -76 0
-85 -75 -88 -38 -76 0
-85 -82 -88 -38 -83 0
-64 -58 -67 -49 -59 0
-72 -58 -75 -49 -59 0
-79 -58 -82 -49 -59 0
-85 -58 -88 -49 -59 0
-72 -67 -75 -49 -68 0
-79 -67 -82 -49 -68 0
-85 -67 -88 -49 -68 0
-79 -75 -82 -49 -76 0
-85 -75 -88 -49 -76 0
-85 -82 -88 -49 -83 0
-72 -67 -75 -59 -68 0
-79 -67 -82 -59 -68 0
-85 -67 -88 -59 -68 0
-79 -75 -82 -59 -76 0
-85 -75 -88 -59 -76 0
-85 -82 -88 -59 -83 0
-79 -75 -82 -68 -76 0
-85 -75 -88 -68 -76 0
-85 -82 -88 -68 -83 0
-85 -82 -88 -76 -83 0
-34 -25 -37 -14 -27 0
-45 -25 -48 -14 -27 0
-55 -25 -58 -14 -27 0
-64 -25 -67 -14 -27 0
-72 -25 -75 -14 -27 0
-79 -25 -82 -14 -27 0
-85 -25 -88 -14 -27 0
-45 -37 -48 -14 -39 0
-55 -37 -58 -14 -39 0
-64 -37 -67 -14 -39 0
-72 -37 -75 -14 -39 0
-79 -37 -82 -14 -39 0
-85 -37 -88 -14 -39 0
-55 -48 -58 -14 -50 0
-64 -48 -67 -14 -50 0
-72 -48 -75 -14 -50 0
-79 -48 -82 -14 -50 0
-85 -48 -88 -14 -50 0
-64 -58 -67 -14 -60 0
-72 -58 -75 -14 -60 0
-79 -58 -82 -14 -60 0
-85 -58 -88 -14 -60 0
-72 -67 -75 -14 -69 0
-79 -67 -82 -14 -69 0
-85 -67 -88 -14 -69 0
-79 -75 -82 -14 -77 0
-85 -75 -88 -14 -77 0
-85 -82 -88 -14 -84 0
-45 -37 -48 -27 -39 0
-55 -37 -58 -27 -39 0
-64 -37 -67 -27 -39 0
-72 -37 -75 -27 -39 0
-79 -37 -82 -27 -39 0
-85 -37 -88 -27 -39 0
-55 -48 -58 -27 -50 0
-64 -48 -67 -27 -50 0
-72 -48 -75 -27 -50 0
-79 -48 -82 -27 -50 0
-85 -48 -88 -27 -50 0
-64 -58 -67 -27 -60 0
-72 -58 -75 -27 -60 0
-79 -58 -82 -27 -60 0
-85 -58 -88 -27 -60 0
-72 -67 -75 -27 -69 0
-79 -67 -82 -27 -69 0
-85 -67 -88 -27 -69 0
-79 -75 -82 -27 -77 0
-85 -75 -88 -27 -77 0
-85 -82 -88 -27 -84 0
-55 -48 -58 -39 -50 0
-64 -48 -67 -39 -50 0
-72 -48 -75 -39 -50 0
-79 -48 -82 -39 -50 0
-85 -48 -88 -39 -50 0
-64 -58 -67 -39 -60 0
-72 -58 -75 -39 -60 0
-79 -58 -82 -39 -60 0
-85 -58 -88 -39 -60 0
-72 -67 -75 -39 -69 0
-79 -67 -82 -39 -69 0
-85 -67 -88 -39 -69 0
-79 -75 -82 -39 -77 0
-85 -75 -88 -39 -77 0
-85 -82 -88 -39 -84 0
-64 -58 -67 -50 -60 0
-72 -58 -75 -50 -60 0
-79 -58 -82 -50 -60 0
-85 -58 -88 -50 -60 0
-72 -67 -75 -50 -69 0
-79 -67 -82 -50 -69 0
-85 -67 -88 -50 -69 0
-79 -75 -82 -50 -77 0
-85 -75 -88 -50 -77 0
-85 -82 -88 -50 -84 0
-72 -67 -75 -60 -69 0
-79 -67 -82 -60 -69 0
-85 -67 -88 -60 -69 0
-79 -75 -82 -60 -77 0
-85 -75 -88 -60 -77 0
-85 -82 -88 -60 -84 0
-79 -75 -82 -69 -77 0
-85 -75 -88 -69 -77 0
-85 -82 -88 -69 -84 0
-85 -82 -88 -77 -84 0
-45 -37 -48 -1 -2 0
-55 -37 -58 -1 -2 0
-64 -37 -67 -1 -2 0
-72 -37 -75 -1 -2 0
-79 -37 -82 -1 -2 0
-85 -37 -88 -1 -2 0
-55 -48 -58 -1 -3 0
-64 -48 -67 -1 -3 0
-72 -48 -75 -1 -3 0
-79 -48 -82 -1 -3 0
-85 -48 -88 -1 -3 0
-64 -58 -67 -1 -4 0
-72 -58 -75 -1 -4 0
-79 -58 -82 -1 -4 0
-85 -58 -88 -1 -4 0
-72 -67 -75 -1 -5 0
-79 -67 -82 -1 -5 0
-85 -67 -88 -1 -5 0
-79 -75 -82 -1 -6 0
-85 -75 -88 -1 -6 0
-85 -82 -88 -1 -7 0
-55 -48 -58 -2 -3 0
-64 -48 -67 -2 -3 0
-72 -48 -75 -2 -3 0
-79 -48 -82 -2 -3 0
-85 -48 -88 -2 -3 0
-64 -58 -67 -2 -4 0
-72 -58 -75 -2 -4 0
-79 -58 -82 -2 -4 0
-85 -58 -88 -2 -4 0
-72 -67 -75 -2 -5 0
-79 -67 -82 -2 -5 0
-85 -67 -88 -2 -5 0
-79 -75 -82 -2 -6 0
-85 -75 -88 -2 -6 0
-85 -82 -88 -2 -7 0
-64 -58 -67 -3 -4 0
-72 -58 -75 -3 -4 0
-79 -58 -82 -3 -4 0
-85 -58 -88 -3 -4 0
-72 -67 -75 -3 -5 0
-79 -67 -82 -3 -5 0
-85 -67 -88 -3 -5 0
-79 -75 -82 -3 -6 0
-85 -75 -88 -3 -6 0
-85 -82 -88 -3 -7 0
-72 -67 -75 -4 -5 0
-79 -67 -82 -4 -5 0
-85 -67 -88 -4 -5 0
-79 -75 -82 -4 -6 0
-85 -75 -88 -4 -6 0
-85 -82 -88 -4 -7 0
-79 -75 -82 -5 -6 0
-85 -75 -88 -5 -6 0
-85 -82 -88 -5 -7 0
-85 -82 -88 -6 -7 0
-55 -48 -58 -15 -16 0
-64 -48 -67 -15 -16 0
-72 -48 -75 -15 -16 0
-79 -48 -82 -15 -16 0
-85 -48 -88 -15 -16 0
-64 -58 -67 -15 -17 0
-72 -58 -75 -15 -17 0
-79 -58 -82 -15 -17 0
-85 -58 -88 -15 -17 0
-72 -67 -75 -15 -18 0
-79 -67 -82 -15 -18 0
-85 -67 -88 -15 -18 0
-79 -75 -82 -15 -19 0
-85 -75 -88 -15 -19 0
-85 -82 -88 -15 -20 0
-64 -58 -67 -16 -17 0
-72 -58 -75 -16 -17 0
-79 -58 -82 -16 -17 0
-85 -58 -88 -16 -17 0
-72 -67 -75 -16 -18 0
-79 -67 -82 -16 -18 0
-85 -67 -88 -16 -18 0
-79 -75 -82 -16 -19 0
-85 -75 -88 -16 -19 0
-85 -82 -88 -16 -20 0
-72 -67 -75 -17 -18 0
-79 -67 -82 -17 -18 0
-85 -67 -88 -17 -18 0
-79 -75 -82 -17 -19 0
-85 -75 -88 -17 -19 0
-85 -82 -88 -17 -20 0
-79 -75 -82 -18 -19 0
-85 -75 -88 -18 -19 0
-85 -82 -88 -18 -20 0
-85 -82 -88 -19 -20 0
-64 -58 -67 -28 -29 0
-72 -58 -75 -28 -29 0
-79 -58 -82 -28 -29 0
-85 -58 -88 -28 -29 0
-72 -67 -75 -28 -30 0
-79 -67 -82 -28 -30 0
-85 -67 -88 -28 -30 0
-79 -75 -82 -28 -31 0
-85 -75 -88 -28 -31 0
-85 -82 -88 -28 -32 0
-72 -67 -75 -29 -30 0
-79 -67 -82 -29 -30 0
-85 -67 -88 -29 -30 0
-79 -75 -82 -29 -31 0
-85 -75 -88 -29 -31 0
-85 -82 -88 -29 -32 0
-79 -75 -82 -30 -31 0
-85 -75 -88 -30 -31 0
-85 -82 -88 -30 -32 0
-85 -82 -88 -31 -32 0
-72 -67 -75 -40 -41 0
-79 -67 -82 -40 -41 0
-85 -67 -88 -40 -41 0
-79 -75 -82 -40 -42 0
-85 -75 -88 -40 -42 0
-85 -82 -88 -40 -43 0
-79 -75 -82 -41 -42 0
-85 -75 -88 -41 -42 0
-85 -82 -88 -41 -43 0
-85 -82 -88 -42 -43 0
-79 -75 -82 -51 -52 0
-85 -75 -88 -51 -52 0
-85 -82 -88 -51 -53 0
-85 -82 -88 -52 -53 0
-85 -82 -88 -61 -62 0
-34 -26 -38 -14 -27 0
-45 -26 -49 -14 -27 0
-55 -26 -59 -14 -27 0
-64 -26 -68 -14 -27 0
-72 -26 -76 -14 -27 0
-79 -26 -83 -14 -27 0
-85 -26 -89 -14 -27 0
-45 -38 -49 -14 -39 0
-55 -38 -59 -14 -39 0
-64 -38 -68 -14 -39 0
-72 -38 -76 -14 -39 0
-79 -38 -83 -14 -39 0
-85 -38 -89 -14 -39 0
-55 -49 -59 -14 -50 0
-64 -49 -68 -14 -50 0
-72 -49 -76 -14 -50 0
-79 -49 -83 -14 -50 0
-85 -49 -89 -14 -50 0
-64 -59 -68 -14 -60 0
-72 -59 -76 -14 -60 0
-79 -59 -83 -14 -60 0
-85 -59 -89 -14 -60 0
-72 -68 -76 -14 -69 0
-79 -68 -83 -14 -69 0
-85 -68 -89 -14 -69 0
-79 -76 -83 -14 -77 0
-85 -76 -89 -14 -77 0
-85 -83 -89 -14 -84 0
-45 -38 -49 -27 -39 0
-55 -38 -59 -27 -39 0
-64 -38 -68 -27 -39 0
-72 -38 -76 -27 -39 0
-79 -38 -83 -27 -39 0
-85 -38 -89 -27 -39 0
-55 -49 -59 -27 -50 0
-64 -49 -68 -27 -50 0
-72 -49 -76 -27 -50 0
-79 -49 -83 -27 -50 0
-85 -49 -89 -27 -50 0
-64 -59 -68 -27 -60 0
-72 -59 -76 -27 -60 0
-79 -59 -83 -27 -60 0
-85 -59 -89 -27 -60 0
-72 -68 -76 -27 -69 0
-79 -68 -83 -27 -69 0
-85 -68 -89 -27 -69 0
-79 -76 -83 -27 -77 0
-85 -76 -89 -27 -77 0
-85 -83 -89 -27 -84 0
-55 -49 -59 -39 -50 0
-64 -49 -68 -39 -50 0
-72 -49 -76 -39 -50 0
-79 -49 -83 -39 -50 0
-85 -49 -89 -39 -50 0
-64 -59 -68 -39 -60 0
-72 -59 -76 -39 -60 0
-79 -59 -83 -39 -60 0
-85 -59 -89 -39 -60 0
-72 -68 -76 -39 -69 0
-79 -68 -83 -39 -69 0
-85 -68 -89 -39 -69 0
-79 -76 -83 -39 -77 0
-85 -76 -89 -39 -77 0
-85 -83 -89 -39 -84 0
-64 -59 -68 -50 -60 0
-72 -59 -76 -50 -60 0
-79 -59 -83 -50 -60 0
-85 -59 -89 -50 -60 0
-72 -68 -76 -50 -69 0
-79 -68 -83 -50 -69 0
-85 -68 -89 -50 -69 0
-79 -76 -83 -50 -77 0
-85 -76 -89 -50 -77 0
-85 -83 -89 -50 -84 0
-72 -68 -76 -60 -69 0
-79 -68 -83 -60 -69 0
-85 -68 -89 -60 -69 0
-79 -76 -83 -60 -77 0
-85 -76 -89 -60 -77 0
-85 -83 -89 -60 -84 0
-79 -76 -83 -69 -77 0
-85 -76 -89 -69 -77 0
-85 -83 -89 -69 -84 0
-85 -83 -89 -77 -84 0
-45 -38 -49 -1 -2 0
-55 -38 -59 -1 -2 0
-64 -38 -68 -1 -2 0
-72 -38 -76 -1 -2 0
-79 -38 -83 -1 -2 0
-85 -38 -89 -1 -2 0
-55 -49 -59 -1 -3 0
-64 -49 -68 -1 -3 0
-72 -49 -76 -1 -3 0
-79 -49 -83 -1 -3 0
-85 -49 -89 -1 -3 0
-64 -59 -68 -1 -4 0
-72 -59 -76 -1 -4 0
-79 -59 -83 -1 -4 0
-85 -59 -89 -1 -4 0
-72 -68 -76 -1 -5 0
-79 -68 -83 -1 -5 0
-85 -68 -89 -1 -5 0
-79 -76 -83 -1 -6 0
-85 -76 -89 -1 -6 0
-85 -83 -89 -1 -7 0
-55 -49 -59 -2 -3 0
-64 -49 -68 -2 -3 0
-72 -49 -76 -2 -3 0
-79 -49 -83 -2 -3 0
-85 -49 -89 -2 -3 0
-64 -59 -68 -2 -4 0
-72 -59 -76 -2 -4 0
-79 -59 -83 -2 -4 0
-85 -59 -89 -2 -4 0
-72 -68 -76 -2 -5 0
-79 -68 -83 -2 -5 0
-85 -68 -89 -2 -5 0
-79 -76 -83 -2 -6 0
-85 -76 -89 -2 -6 0
-85 -83 -89 -2 -7 0
-64 -59 -68 -3 -4 0
-72 -59 -76 -3 -4 0
-79 -59 -83 -3 -4 0
-85 -59 -89 -3 -4 0
-72 -68 -76 -3 -5 0
-79 -68 -83 -3 -5 0
-85 -68 -89 -3 -5 0
-79 -76 -83 -3 -6 0
-85 -76 -89 -3 -6 0
-85 -83 -89 -3 -7 0
-72 -68 -76 -4 -5 0
-79 -68 -83 -4 -5 0
-85 -68 -89 -4 -5 0
-79 -76 -83 -4 -6 0
-85 -76 -89 -4 -6 0
-85 -83 -89 -4 -7 0
-79 -76 -83 -5 -6 0
-85 -76 -89 -5 -6 0
-85 -83 -89 -5 -7 0
-85 -83 -89 -6 -7 0
-55 -49 -59 -15 -16 0
-64 -49 -68 -15 -16 0
-72 -49 -76 -15 -16 0
-79 -49 -83 -15 -16 0
-85 -49 -89 -15 -16 0
-64 -59 -68 -15 -17 0
-72 -59 -76 -15 -17 0
-79 -59 -83 -15 -17 0
-85 -59 -89 -15 -17 0
-72 -68 -76 -15 -18 0
-79 -68 -83 -15 -18 0
-85 -68 -89 -15 -18 0
-79 -76 -83 -15 -19 0
-85 -76 -89 -15 -19 0
-85 -83 -89 -15 -20 0
-64 -59 -68 -16 -17 0
-72 -59 -76 -16 -17 0
-79 -59 -83 -16 -17 0
-85 -59 -89 -16 -17 0
-72 -68 -76 -16 -18 0
-79 -68 -83 -16 -18 0
-85 -68 -89 -16 -18 0
-79 -76 -83 -16 -19 0
-85 -76 -89 -16 -19 0
-85 -83 -89 -16 -20 0
-72 -68 -76 -17 -18 0
-79 -68 -83 -17 -18 0
-85 -68 -89 -17 -18 0
-79 -76 -83 -17 -19 0
-85 -76 -89 -17 -19 0
-85 -83 -89 -17 -20 0
-79 -76 -83 -18 -19 0
-85 -76 -89 -18 -19 0
-85 -83 -89 -18 -20 0
-85 -83 -89 -19 -20 0
-64 -59 -68 -28 -29 0
-72 -59 -76 -28 -29 0
-79 -59 -83 -28 -29 0
-85 -59 -89 -28 -29 0
-72 -68 -76 -28 -30 0
-79 -68 -83 -28 -30 0
-85 -68 -89 -28 -30 0
-79 -76 -83 -28 -31 0
-85 -76 -89 -28 -31 0
-85 -83 -89 -28 -32 0
-72 -68 -76 -29 -30 0
-79 -68 -83 -29 -30 0
-85 -68 -89 -29 -30 0
-79 -76 -83 -29 -31 0
-85 -76 -89 -29 -31 0
-85 -83 -89 -29 -32 0
-79 -76 -83 -30 -31 0
-85 -76 -89 -30 -31 0
-85 -83 -89 -30 -32 0
-85 -83 -89 -31 -32 0
-72 -68 -76 -40 -41 0
-79 -68 -83 -40 -41 0
-85 -68 -89 -40 -41 0
-79 -76 -83 -40 -42 0
-85 -76 -89 -40 -42 0
-85 -83 -89 -40 -43 0
-79 -76 -83 -41 -42 0
-85 -76 -89 -41 -42 0
-85 -83 -89 -41 -43 0
-85 -83 -89 -42 -43 0
-79 -76 -83 -51 -52 0
-85 -76 -89 -51 -52 0
-85 -83 -89 -51 -53 0
-85 -83 -89 -52 -53 0
-85 -83 -89 -61 -62 0
-45 -39 -50 -1 -2 0
-55 -39 -60 -1 -2 0
-64 -39 -69 -1 -2 0
-72 -39 -77 -1 -2 0
-79 -39 -84 -1 -2 0
-85 -39 -90 -1 -2 0
-55 -50 -60 -1 -3 0
-64 -50 -69 -1 -3 0
-72 -50 -77 -1 -3 0
-79 -50 -84 -1 -3 0
-85 -50 -90 -1 -3 0
-64 -60 -69 -1 -4 0
-72 -60 -77 -1 -4 0
-79 -60 -84 -1 -4 0
-85 -60 -90 -1 -4 0
-72 -69 -77 -1 -5 0
-79 -69 -84 -1 -5 0
-85 -69 -90 -1 -5 0
-79 -77 -84 -1 -6 0
-85 -77 -90 -1 -6 0
-85 -84 -90 -1 -7 0
-55 -50 -60 -2 -3 0
-64 -50 -69 -2 -3 0
-72 -50 -77 -2 -3 0
-79 -50 -84 -2 -3 0
-85 -50 -90 -2 -3 0
-64 -60 -69 -2 -4 0
-72 -60 -77 -2 -4 0
-79 -60 -84 -2 -4 0
-85 -60 -90 -2 -4 0
-72 -69 -77 -2 -5 0
-79 -69 -84 -2 -5 0
-85 -69 -90 -2 -5 0
-79 -77 -84 -2 -6 0
-85 -77 -90 -2 -6 0
-85 -84 -90 -2 -7 0
-64 -60 -69 -3 -4 0
-72 -60 -77 -3 -4 0
-79 -60 -84 -3 -4 0
-85 -60 -90 -3 -4 0
-72 -69 -77 -3 -5 0
-79 -69 -84 -3 -5 0
-85 -69 -90 -3 -5 0
-79 -77 -84 -3 -6 0
-85 -77 -90 -3 -6 0
-85 -84 -90 -3 -7 0
-72 -69 -77 -4 -5 0
-79 -69 -84 -4 -5 0
-85 -69 -90 -4 -5 0
-79 -77 -84 -4 -6 0
-85 -77 -90 -4 -6 0
-85 -84 -90 -4 -7 0
-79 -77 -84 -5 -6 0
-85 -77 -90 -5 -6 0
-85 -84 -90 -5 -7 0
-85 -84 -90 -6 -7 0
-55 -50 -60 -15 -16 0
-64 -50 -69 -15 -16 0
-72 -50 -77 -15 -16 0
-79 -50 -84 -15 -16 0
-85 -50 -90 -15 -16 0
-64 -60 -69 -15 -17 0
-72 -60 -77 -15 -17 0
-79 -60 -84 -15 -17 0
-85 -60 -90 -15 -17 0
-72 -69 -77 -15 -18 0
-79 -69 -84 -15 -18 0
-85 -69 -90 -15 -18 0
-79 -77 -84 -15 -19 0
-85 -77 -90 -15 -19 0
-85 -84 -90 -15 -20 0
-64 -60 -69 -16 -17 0
-72 -60 -77 -16 -17 0
-79 -60 -84 -16 -17 0
-85 -60 -90 -16 -17 0
-72 -69 -77 -16 -18 0
-79 -69 -84 -16 -18 0
-85 -69 -90 -16 -18 0
-79 -77 -84 -16 -19 0
-85 -77 -90 -16 -19 0
-85 -84 -90 -16 -20 0
-72 -69 -77 -17 -18 0
-79 -69 -84 -17 -18 0
-85 -69 -90 -17 -18 0
-79 -77 -84 -17 -19 0
-85 -77 -90 -17 -19 0
-85 -84 -90 -17 -20 0
-79 -77 -84 -18 -19 0
-85 -77 -90 -18 -19 0
-85 -84 -90 -18 -20 0
-85 -84 -90 -19 -20 0
-64 -60 -69 -28 -29 0
-72 -60 -77 -28 -29 0
-79 -60 -84 -28 -29 0
-85 -60 -90 -28 -29 0
-72 -69 -77 -28 -30 0
-79 -69 -84 -28 -30 0
-85 -69 -90 -28 -30 0
-79 -77 -84 -28 -31 0
-85 -77 -90 -28 -31 0
-85 -84 -90 -28 -32 0
-72 -69 -77 -29 -30 0
-79 -69 -84 -29 -30 0
-85 -69 -90 -29 -30 0
-79 -77 -84 -29 -31 0
-85 -77 -90 -29 -31 0
-85 -84 -90 -29 -32 0
-79 -77 -84 -30 -31 0
-85 -77 -90 -30 -31 0
-85 -84 -90 -30 -32 0
-85 -84 -90 -31 -32 0
-72 -69 -77 -40 -41 0
-79 -69 -84 -40 -41 0
-85 -69 -90 -40 -41 0
-79 -77 -84 -40 -42 0
-85 -77 -90 -40 -42 0
-85 -84 -90 -40 -43 0
-79 -77 -84 -41 -42 0
-85 -77 -90 -41 -42 0
-85 -84 -90 -41 -43 0
-85 -84 -90 -42 -43 0
-79 -77 -84 -51 -52 0
-85 -77 -90 -51 -52 0
-85 -84 -90 -51 -53 0
-85 -84 -90 -52 -53 0
-85 -84 -90 -61 -62 0
-55 -3 -4 -15 -16 0
-64 -3 -5 -15 -16 0
-72 -3 -6 -15 -16 0
-79 -3 -7 -15 -16 0
-85 -3 -8 -15 -16 0
-64 -4 -5 -15 -17 0
-72 -4 -6 -15 -17 0
-79 -4 -7 -15 -17 0
-85 -4 -8 -15 -17 0
-72 -5 -6 -15 -18 0
-79 -5 -7 -15 -18 0
-85 -5 -8 -15 -18 0
-79 -6 -7 -15 -19 0
-85 -6 -8 -15 -19 0
-85 -7 -8 -15 -20 0
-64 -4 -5 -16 -17 0
-72 -4 -6 -16 -17 0
-79 -4 -7 -16 -17 0
-85 -4 -8 -16 -17 0
-72 -5 -6 -16 -18 0
-79 -5 -7 -16 -18 0
-85 -5 -8 -16 -18 0
-79 -6 -7 -16 -19 0
-85 -6 -8 -16 -19 0
-85 -7 -8 -16 -20 0
-72 -5 -6 -17 -18 0
-79 -5 -7 -17 -18 0
-85 -5 -8 -17 -18 0
-79 -6 -7 -17 -19 0
-85 -6 -8 -17 -19 0
-85 -7 -8 -17 -20 0
-79 -6 -7 -18 -19 0
-85 -6 -8 -18 -19 0
-85 -7 -8 -18 -20 0
-85 -7 -8 -19 -20 0
-64 -4 -5 -28 -29 0
-72 -4 -6 -28 -29 0
-79 -4 -7 -28 -29 0
-85 -4 -8 -28 -29 0
-72 -5 -6 -28 -30 0
-79 -5 -7 -28 -30 0
-85 -5 -8 -28 -30 0
-79 -6 -7 -28 -31 0
-85 -6 -8 -28 -31 0
-85 -7 -8 -28 -32 0
-72 -5 -6 -29 -30 0
-79 -5 -7 -29 -30 0
-85 -5 -8 -29 -30 0
-79 -6 -7 -29 -31 0
-85 -6 -8 -29 -31 0
-85 -7 -8 -29 -32 0
-79 -6 -7 -30 -31 0
-85 -6 -8 -30 -31 0
-85 -7 -8 -30 -32 0
-85 -7 -8 -31 -32 0
-72 -5 -6 -40 -41 0
-79 -5 -7 -40 -41 0
-85 -5 -8 -40 -41 0
-79 -6 -7 -40 -42 0
-85 -6 -8 -40 -42 0
-85 -7 -8 -40 -43 0
-79 -6 -7 -41 -42 0
-85 -6 -8 -41 -42 0
-85 -7 -8 -41 -43 0
-85 -7 -8 -42 -43 0
-79 -6 -7 -51 -52 0
-85 -6 -8 -51 -52 0
-85 -7 -8 -51 -53 0
-85 -7 -8 -52 -53 0
-85 -7 -8 -61 -62 0
-64 -17 -18 -28 -29 0
-72 -17 -19 -28 -29 0
-79 -17 -20 -28 -29 0
-85 -17 -21 -28 -29 0
-72 -18 -19 -28 -30 0
-79 -18 -20 -28 -30 0
-85 -18 -21 -28 -30 0
-79 -19 -20 -28 -31 0
-85 -19 -21 -28 -31 0
-85 -20 -21 -28 -32 0
-72 -18 -19 -29 -30 0
-79 -18 -20 -29 -30 0
-85 -18 -21 -29 -30 0
-79 -19 -20 -29 -31 0
-85 -19 -21 -29 -31 0
-85 -20 -21 -29 -32 0
-79 -19 -20 -30 -31 0
-85 -19 -21 -30 -31 0
-85 -20 -21 -30 -32 0
-85 -20 -21 -31 -32 0
-72 -18 -19 -40 -41 0
-79 -18 -20 -40 -41 0
-85 -18 -21 -40 -41 0
-79 -19 -20 -40 -42 0
-85 -19 -21 -40 -42 0
-85 -20 -21 -40 -43 0
-79 -19 -20 -41 -42 0
-85 -19 -21 -41 -42 0
-85 -20 -21 -41 -43 0
-85 -20 -21 -42 -43 0
-79 -19 -20 -51 -52 0
-85 -19 -21 -51 -52 0
-85 -20 -21 -51 -53 0
-85 -20 -21 -52 -53 0
-85 -20 -21 -61 -62 0
-72 -30 -31 -40 -41 0
-79 -30 -32 -40 -41 0
-85 -30 -33 -40 -41 0
-79 -31 -32 -40 -42 0
-85 -31 -33 -40 -42 0
-85 -32 -33 -40 -43 0
-79 -31 -32 -41 -42 0
-85 -31 -33 -41 -42 0
-85 -32 -33 -41 -43 0
-85 -32 -33 -42 -43 0
-79 -31 -32 -51 -52 0
-85 -31 -33 -51 -52 0
-85 -32 -33 -51 -53 0
-85 -32 -33 -52 -53 0
-85 -32 -33 -61 -62 0
-79 -42 -43 -51 -52 0
-85 -42 -44 -51 -52 0
-85 -43 -44 -51 -53 0
-85 -43 -44 -52 -53 0
-85 -43 -44 -61 -62 0
-85 -53 -54 -61 -62 0
-10 -102 -11 -103 -104 0
-23 -102 -24 -103 -104 0
-35 -102 -36 -103 -104 0
-46 -102 -47 -103 -104 0
-56 -102 -57 -103 -104 0
-65 -102 -66 -103 -104 0
-73 -102 -74 -103 -104 0
-80 -102 -81 -103 -104 0
-86 -102 -87 -103 -104 0
-91 -102 -92 -103 -104 0
-23 -11 -24 -103 -12 0
-35 -11 -36 -103 -12 0
-46 -11 -47 -103 -12 0
-56 -11 -57 -103 -12 0
-65 -11 -66 -103 -12 0
-73 -11 -74 -103 -12 0
-80 -11 -81 -103 -12 0
-86 -11 -87 -103 -12 0
-91 -11 -92 -103 -12 0
-35 -24 -36 -103 -25 0
-46 -24 -47 -103 -25 0
-56 -24 -57 -103 -25 0
-65 -24 -66 -103 -25 0
-73 -24 -74 -103 -25 0
-80 -24 -81 -103 -25 0
-86 -24 -87 -103 -25 0
-91 -24 -92 -103 -25 0
-46 -36 -47 -103 -37 0
-56 -36 -57 -103 -37 0
-65 -36 -66 -103 -37 0
-73 -36 -74 -103 -37 0
-80 -36 -81 -103 -37 0
-86 -36 -87 -103 -37 0
-91 -36 -92 -103 -37 0
-56 -47 -57 -103 -48 0
-65 -47 -66 -103 -48 0
-73 -47 -74 -103 -48 0
-80 -47 -81 -103 -48 0
-86 -47 -87 -103 -48 0
-91 -47 -92 -103 -48 0
-65 -57 -66 -103 -58 0
-73 -57 -74 -103 -58 0
-80 -57 -81 -103 -58 0
-86 -57 -87 -103 -58 0
-91 -57 -92 -103 -58 0
-73 -66 -74 -103 -67 0
-80 -66 -81 -103 -67 0
-86 -66 -87 -103 -67 0
-91 -66 -92 -103 -67 0
-80 -74 -81 -103 -75 0
-86 -74 -87 -103 -75 0
-91 -74 -92 -103 -75 0
-86 -81 -87 -103 -82 0
-91 -81 -92 -103 -82 0
-91 -87 -92 -103 -88 0
-23 -11 -24 -104 -12 0
-35 -11 -36 -104 -12 0
-46 -11 -47 -104 -12 0
-56 -11 -57 -104 -12 0
-65 -11 -66 -104 -12 0
-73 -11 -74 -104 -12 0
-80 -11 -81 -104 -12 0
-86 -11 -87 -104 -12 0
-91 -11 -92 -104 -12 0
-35 -24 -36 -104 -25 0
-46 -24 -47 -104 -25 0
-56 -24 -57 -104 -25 0
-65 -24 -66 -104 -25 0
-73 -24 -74 -104 -25 0
-80 -24 -81 -104 -25 0
-86 -24 -87 -104 -25 0
-91 -24 -92 -104 -25 0
-46 -36 -47 -104 -37 0
-56 -36 -57 -104 -37 0
-65 -36 -66 -104 -37 0
-73 -36 -74 -104 -37 0
-80 -36 -81 -104 -37 0
-86 -36 -87 -104 -37 0
-91 -36 -92 -104 -37 0
-56 -47 -57 -104 -48 0
-65 -47 -66 -104 -48 0
-73 -47 -74 -104 -48 0
-80 -47 -81 -104 -48 0
-86 -47 -87 -104 -48 0
-91 -47 -92 -104 -48 0
-65 -57 -66 -104 -58 0
-73 -57 -74 -104 -58 0
-80 -57 -81 -104 -58 0
-86 -57 -87 -104 -58 0
-91 -57 -92 -104 -58 0
-73 -66 -74 -104 -67 0
-80 -66 -81 -104 -67 0
-86 -66 -87 -104 -67 0
-91 -66 -92 -104 -67 0
-80 -74 -81 -104 -75 0
-86 -74 -87 -104 -75 0
-91 -74 -92 -104 -75 0
-86 -81 -87 -104 -82 0
-91 -81 -92 -104 -82 0
-91 -87 -92 -104 -88 0
-35 -24 -36 -12 -25 0
-46 -24 -47 -12 -25 0
-56 -24 -57 -12 -25 0
-65 -24 -66 -12 -25 0
-73 -24 -74 -12 -25 0
-80 -24 -81 -12 -25 0
-86 -24 -87 -12 -25 0
-91 -24 -92 -12 -25 0
-46 -36 -47 -12 -37 0
-56 -36 -57 -12 -37 0
-65 -36 -66 -12 -37 0
-73 -36 -74 -12 -37 0
-80 -36 -81 -12 -37 0
-86 -36 -87 -12 -37 0
-91 -36 -92 -12 -37 0
-56 -47 -57 -12 -48 0
-65 -47 -66 -12 -48 0
-73 -47 -74 -12 -48 0
-80 -47 -81 -12 -48 0
-86 -47 -87 -12 -48 0
-91 -47 -92 -12 -48 0
-65 -57 -66 -12 -58 0
-73 -57 -74 -12 -58 0
-80 -57 -81 -12 -58 0
-86 -57 -87 -12 -58 0
-91 -57 -92 -12 -58 0
-73 -66 -74 -12 -67 0
-80 -66 -81 -12 -67 0
-86 -66 -87 -12 -67 0
-91 -66 -92 -12 -67 0
-80 -74 -81 -12 -75 0
-86 -74 -87 -12 -75 0
-91 -74 -92 -12 -75 0
-86 -81 -87 -12 -82 0
-91 -81 -92 -12 -82 0
-91 -87 -92 -12 -88 0
-46 -36 -47 -25 -37 0
-56 -36 -57 -25 -37 0
-65 -36 -66 -25 -37 0
-73 -36 -74 -25 -37 0
-80 -36 -81 -25 -37 0
-86 -36 -87 -25 -37 0
-91 -36 -92 -25 -37 0
-56 -47 -57 -25 -48 0
-65 -47 -66 -25 -48 0
-73 -47 -74 -25 -48 0
-80 -47 -81 -25 -48 0
-86 -47 -87 -25 -48 0
-91 -47 -92 -25 -48 0
-65 -57 -66 -25 -58 0
-73 -57 -74 -25 -58 0
-80 -57 -81 -25 -58 0
-86 -57 -87 -25 -58 0
-91 -57 -92 -25 -58 0
-73 -66 -74 -25 -67 0
-80 -66 -81 -25 -67 0
-86 -66 -87 -25 -67 0
-91 -66 -92 -25 -67 0
-80 -74 -81 -25 -75 0
-86 -74 -87 -25 -75 0
-91 -74 -92 -25 -75 0
-86 -81 -87 -25 -82 0
-91 -81 -92 -25 -82 0
-91 -87 -92 -25 -88 0
-56 -47 -57 -37 -48 0
-65 -47 -66 -37 -48 0
-73 -47 -74 -37 -48 0
-80 -47 -81 -37 -48 0
-86 -47 -87 -37 -48 0
-91 -47 -92 -37 -48 0
-65 -57 -66 -37 -58 0
-73 -57 -74 -37 -58 0
-80 -57 -81 -37 -58 0
-86 -57 -87 -37 -58 0
-91 -57 -92 -37 -58 0
-73 -66 -74 -37 -67 0
-80 -66 -81 -37 -67 0
-86 -66 -87 -37 -67 0
-91 -66 -92 -37 -67 0
-80 -74 -81 -37 -75 0
-86 -74 -87 -37 -75 0
-91 -74 -92 -37 -75 0
-86 -81 -87 -37 -82 0
-91 -81 -92 -37 -82 0
-91 -87 -92 -37 -88 0
-65 -57 -66 -48 -58 0
-73 -57 -74 -48 -58 0
-80 -57 -81 -48 -58 0
-86 -57 -87 -48 -58 0
-91 -57 -92 -48 -58 0
-73 -66 -74 -48 -67 0
-80 -66 -81 -48 -67 0
-86 -66 -87 -48 -67 0
-91 -66 -92 -48 -67 0
-80 -74 -81 -48 -75 0
-86 -74 -87 -48 -75 0
-91 -74 -92 -48 -75 0
-86 -81 -87 -48 -82 0
-91 -81 -92 -48 -82 0
-91 -87 -92 -48 -88 0
-73 -66 -74 -58 -67 0
-80 -66 -81 -58 -67 0
-86 -66 -87 -58 -67 0
-91 -66 -92 -58 -67 0
-80 -74 -81 -58 -75 0
-86 -74 -87 -58 -75 0
-91 -74 -92 -58 -75 0
-86 -81 -87 -58 -82 0
-91 -81 -92 -58 -82 0
-91 -87 -92 -58 -88 0
-80 -74 -81 -67 -75 0
-86 -74 -87 -67 -75 0
-91 -74 -92 -67 -75 0
-86 -81 -87 -67 -82 0
-91 -81 -92 -67 -82 0
-91 -87 -92 -67 -88 0
-86 -81 -87 -75 -82 0
-91 -81 -92 -75 -82 0
-91 -87 -92 -75 -88 0
-91 -87 -92 -82 -88 0
-23 -11 -24 -105 -13 0
-35 -11 -36 -105 -13 0
-46 -11 -47 -105 -13 0
-56 -11 -57 -105 -13 0
-65 -11 -66 -105 -13 0
-73 -11 -74 -105 -13 0
-80 -11 -81 -105 -13 0
-86 -11 -87 -105 -13 0
-91 -11 -92 -105 -13 0
-35 -24 -36 -105 -26 0
-46 -24 -47 -105 -26 0
-56 -24 -57 -105 -26 0
-65 -24 -66 -105 -26 0
-73 -24 -74 -105 -26 0
-80 -24 -81 -105 -26 0
-86 -24 -87 -105 -26 0
-91 -24 -92 -105 -26 0
-46 -36 -47 -105 -38 0
-56 -36 -57 -105 -38 0
-65 -36 -66 -105 -38 0
-73 -36 -74 -105 -38 0
-80 -36 -81 -105 -38 0
-86 -36 -87 -105 -38 0
-91 -36 -92 -105 -38 0
-56 -47 -57 -105 -49 0
-65 -47 -66 -105 -49 0
-73 -47 -74 -105 -49 0
-80 -47 -81 -105 -49 0
-86 -47 -87 -105 -49 0
-91 -47 -92 -105 -49 0
-65 -57 -66 -105 -59 0
-73 -57 -74 -105 -59 0
-80 -57 -81 -105 -59 0
-86 -57 -87 -105 -59 0
-91 -57 -92 -105 -59 0
-73 -66 -74 -105 -68 0
-80 -66 -81 -105 -68 0
-86 -66 -87 -105 -68 0
-91 -66 -92 -105 -68 0
-80 -74 -81 -105 -76 0
-86 -74 -87 -105 -76 0
-91 -74 -92 -105 -76 0
-86 -81 -87 -105 -83 0
-91 -81 -92 -105 -83 0
-91 -87 -92 -105 -89 0
-35 -24 -36 -13 -26 0
-46 -24 -47 -13 -26 0
-56 -24 -57 -13 -26 0
-65 -24 -66 -13 -26 0
-73 -24 -74 -13 -26 0
-80 -24 -81 -13 -26 0
-86 -24 -87 -13 -26 0
-91 -24 -92 -13 -26 0
-46 -36 -47 -13 -38 0
-56 -36 -57 -13 -38 0
-65 -36 -66 -13 -38 0
-73 -36 -74 -13 -38 0
-80 -36 -81 -13 -38 0
-86 -36 -87 -13 -38 0
-91 -36 -92 -13 -38 0
-56 -47 -57 -13 -49 0
-65 -47 -66 -13 -49 0
-73 -47 -74 -13 -49 0
-80 -47 -81 -13 -49 0
-86 -47 -87 -13 -49 0
-91 -47 -92 -13 -49 0
-65 -57 -66 -13 -59 0
-73 -57 -74 -13 -59 0
-80 -57 -81 -13 -59 0
-86 -57 -87 -13 -59 0
-91 -57 -92 -13 -59 0
-73 -66 -74 -13 -68 0
-80 -66 -81 -13 -68 0
-86 -66 -87 -13 -68 0
-91 -66 -92 -13 -68 0
-80 -74 -81 -13 -76 0
-86 -74 -87 -13 -76 0
-91 -74 -92 -13 -76 0
-86 -81 -87 -13 -83 0
-91 -81 -92 -13 -83 0
-91 -87 -92 -13 -89 0
-46 -36 -47 -26 -38 0
-56 -36 -57 -26 -38 0
-65 -36 -66 -26 -38 0
-73 -36 -74 -26 -38 0
-80 -36 -81 -26 -38 0
-86 -36 -87 -26 -38 0
-91 -36 -92 -26 -38 0
-56 -47 -57 -26 -49 0
-65 -47 -66 -26 -49 0
-73 -47 -74 -26 -49 0
-80 -47 -81 -26 -49 0
-86 -47 -87 -26 -49 0
-91 -47 -92 -26 -49 0
-65 -57 -66 -26 -59 0
-73 -57 -74 -26 -59 0
-80 -57 -81 -26 -59 0
-86 -57 -87 -26 -59 0
-91 -57 -92 -26 -59 0
-73 -66 -74 -26 -68 0
-80 -66 -81 -26 -68 0
-86 -66 -87 -26 -68 0
-91 -66 -92 -26 -68 0
-80 -74 -81 -26 -76 0
-86 -74 -87 -26 -76 0
-91 -74 -92 -26 -76 0
-86 -81 -87 -26 -83 0
-91 -81 -92 -26 -83 0
-91 -87 -92 -26 -89 0
-56 -47 -57 -38 -49 0
-65 -47 -66 -38 -49 0
-73 -47 -74 -38 -49 0
-80 -47 -81 -38 -49 0
-86 -47 -87 -38 -49 0
-91 -47 -92 -38 -49 0
-65 -57 -66 -38 -59 0
-73 -57 -74 -38 -59 0
-80 -57 -81 -38 -59 0
-86 -57 -87 -38 -59 0
-91 -57 -92 -38 -59 0
-73 -66 -74 -38 -68 0
-80 -66 -81 -38 -68 0
-86 -66 -87 -38 -68 0
-91 -66 -92 -38 -68 0
-80 -74 -81 -38 -76 0
-86 -74 -87 -38 -76 0
-91 -74 -92 -38 -76 0
-86 -81 -87 -38 -83 0
-91 -81 -92 -38 -83 0
-91 -87 -92 -38 -89 0
-65 -57 -66 -49 -59 0
-73 -57 -74 -49 -59 0
-80 -57 -81 -49 -59 0
-86 -57 -87 -49 -59 0
-91 -57 -92 -49 -59 0
-73 -66 -74 -49 -68 0
-80 -66 -81 -49 -68 0
-86 -66 -87 -49 -68 0
-91 -66 -92 -49 -68 0
-80 -74 -81 -49 -76 0
-86 -74 -87 -49 -76 0
-91 -74 -92 -49 -76 0
-86 -81 -87 -49 -83 0
-91 -81 -92 -49 -83 0
-91 -87 -92 -49 -89 0
-73 -66 -74 -59 -68 0
-80 -66 -81 -59 -68 0
-86 -66 -87 -59 -68 0
-91 -66 -92 -59 -68 0
-80 -74 -81 -59 -76 0
-86 -74 -87 -59 -76 0
-91 -74 -92 -59 -76 0
-86 -81 -87 -59 -83 0
-91 -81 -92 -59 -83 0
-91 -87 -92 -59 -89 0
-80 -74 -81 -68 -76 0
-86 -74 -87 -68 -76 0
-91 -74 -92 -68 -76 0
-86 -81 -87 -68 -83 0
-91 -81 -92 -68 -83 0
-91 -87 -92 -68 -89 0
-86 -81 -87 -76 -83 0
-91 -81 -92 -76 -83 0
-91 -87 -92 -76 -89 0
-91 -87 -92 -83 -89 0
-35 -24 -36 -14 -27 0
-46 -24 -47 -14 -27 0
-56 -24 -57 -14 -27 0
-65 -24 -66 -14 -27 0
-73 -24 -74 -14 -27 0
-80 -24 -81 -14 -27 0
-86 -24 -87 -14 -27 0
-91 -24 -92 -14 -27 0
-46 -36 -47 -14 -39 0
-56 -36 -57 -14 -39 0
-65 -36 -66 -14 -39 0
-73 -36 -74 -14 -39 0
-80 -36 -81 -14 -39 0
-86 -36 -87 -14 -39 0
-91 -36 -92 -14 -39 0
-56 -47 -57 -14 -50 0
-65 -47 -66 -14 -50 0
-73 -47 -74 -14 -50 0
-80 -47 -81 -14 -50 0
-86 -47 -87 -14 -50 0
-91 -47 -92 -14 -50 0
-65 -57 -66 -14 -60 0
-73 -57 -74 -14 -60 0
-80 -57 -81 -14 -60 0
-86 -57 -87 -14 -60 0
-91 -57 -92 -14 -60 0
-73 -66 -74 -14 -69 0
-80 -66 -81 -14 -69 0
-86 -66 -87 -14 -69 0
-91 -66 -92 -14 -69 0
-80 -74 -81 -14 -77 0
-86 -74 -87 -14 -77 0
-91 -74 -92 -14 -77 0
-86 -81 -87 -14 -84 0
-91 -81 -92 -14 -84 0
-91 -87 -92 -14 -90 0
-46 -36 -47 -27 -39 0
-56 -36 -57 -27 -39 0
-65 -36 -66 -27 -39 0
-73 -36 -74 -27 -39 0
-80 -36 -81 -27 -39 0
-86 -36 -87 -27 -39 0
-91 -36 -92 -27 -39 0
-56 -47 -57 -27 -50 0
-65 -47 -66 -27 -50 0
-73 -47 -74 -27 -50 0
-80 -47 -81 -27 -50 0
-86 -47 -87 -27 -50 0
-91 -47 -92 -27 -50 0
-65 -57 -66 -27 -60 0
-73 -57 -74 -27 -60 0
-80 -57 -81 -27 -60 0
-86 -57 -87 -27 -60 0
-91 -57 -92 -27 -60 0
-73 -66 -74 -27 -69 0
-80 -66 -81 -27 -69 0
-86 -66 -87 -27 -69 0
-91 -66 -92 -27 -69 0
-80 -74 -81 -27 -77 0
-86 -74 -87 -27 -77 0
-91 -74 -92 -27 -77 0
-86 -81 -87 -27 -84 0
-91 -81 -92 -27 -84 0
-91 -87 -92 -27 -90 0
-56 -47 -57 -39 -50 0
-65 -47 -66 -39 -50 0
-73 -47 -74 -39 -50 0
-80 -47 -81 -39 -50 0
-86 -47 -87 -39 -50 0
-91 -47 -92 -39 -50 0
-65 -57 -66 -39 -60 0
-73 -57 -74 -39 -60 0
-80 -57 -81 -39 -60 0
-86 -57 -87 -39 -60 0
-91 -57 -92 -39 -60 0
-73 -66 -74 -39 -69 0
-80 -66 -81 -39 -69 0
-86 -66 -87 -39 -69 0
-91 -66 -92 -39 -69 0
-80 -74 -81 -39 -77 0
-86 -74 -87 -39 -77 0
-91 -74 -92 -39 -77 0
-86 -81 -87 -39 -84 0
-91 -81 -92 -39 -84 0
-91 -87 -92 -39 -90 0
-65 -57 -66 -50 -60 0
-73 -57 -74 -50 -60 0
-80 -57 -81 -50 -60 0
-86 -57 -87 -50 -60 0
-91 -57 -92 -50 -60 0
-73 -66 -74 -50 -69 0
-80 -66 -81 -50 -69 0
-86 -66 -87 -50 -69 0
-91 -66 -92 -50 -69 0
-80 -74 -81 -50 -77 0
-86 -74 -87 -50 -77 0
-91 -74 -92 -50 -77 0
-86 -81 -87 -50 -84 0
-91 -81 -92 -50 -84 0
-91 -87 -92 -50 -90 0
-73 -66 -74 -60 -69 0
-80 -66 -81 -60 -69 0
-86 -66 -87 -60 -69 0
-91 -66 -92 -60 -69 0
-80 -74 -81 -60 -77 0
-86 -74 -87 -60 -77 0
-91 -74 -92 -60 -77 0
-86 -81 -87 -60 -84 0
-91 -81 -92 -60 -84 0
-91 -87 -92 -60 -90 0
-80 -74 -81 -69 -77 0
-86 -74 -87 -69 -77 0
-91 -74 -92 -69 -77 0
-86 -81 -87 -69 -84 0
-91 -81 -92 -69 -84 0
-91 -87 -92 -69 -90 0
-86 -81 -87 -77 -84 0
-91 -81 -92 -77 -84 0
-91 -87 -92 -77 -90 0
-91 -87 -92 -84 -90 0
-46 -36 -47 -1 -2 0
-56 -36 -57 -1 -2 0
-65 -36 -66 -1 -2 0
-73 -36 -74 -1 -2 0
-80 -36 -81 -1 -2 0
-86 -36 -87 -1 -2 0
-91 -36 -92 -1 -2 0
-56 -47 -57 -1 -3 0
-65 -47 -66 -1 -3 0
-73 -47 -74 -1 -3 0
-80 -47 -81 -1 -3 0
-86 -47 -87 -1 -3 0
-91 -47 -92 -1 -3 0
-65 -57 -66 -1 -4 0
-73 -57 -74 -1 -4 0
-80 -57 -81 -1 -4 0
-86 -57 -87 -1 -4 0
-91 -57 -92 -1 -4 0
-73 -66 -74 -1 -5 0
-80 -66 -81 -1 -5 0
-86 -66 -87 -1 -5 0
-91 -66 -92 -1 -5 0
-80 -74 -81 -1 -6 0
-86 -74 -87 -1 -6 0
-91 -74 -92 -1 -6 0
-86 -81 -87 -1 -7 0
-91 -81 -92 -1 -7 0
-91 -87 -92 -1 -8 0
-56 -47 -57 -2 -3 0
-65 -47 -66 -2 -3 0
-73 -47 -74 -2 -3 0
-80 -47 -81 -2 -3 0
-86 -47 -87 -2 -3 0
-91 -47 -92 -2 -3 0
-65 -57 -66 -2 -4 0
-73 -57 -74 -2 -4 0
-80 -57 -81 -2 -4 0
-86 -57 -87 -2 -4 0
-91 -57 -92 -2 -4 0
-73 -66 -74 -2 -5 0
-80 -66 -81 -2 -5 0
-86 -66 -87 -2 -5 0
-91 -66 -92 -2 -5 0
-80 -74 -81 -2 -6 0
-86 -74 -87 -2 -6 0
-91 -74 -92 -2 -6 0
-86 -81 -87 -2 -7 0
-91 -81 -92 -2 -7 0
-91 -87 -92 -2 -8 0
-65 -57 -66 -3 -4 0
-73 -57 -74 -3 -4 0
-80 -57 -81 -3 -4 0
-86 -57 -87 -3 -4 0
-91 -57 -92 -3 -4 0
-73 -66 -74 -3 -5 0
-80 -66 -81 -3 -5 0
-86 -66 -87 -3 -5 0
-91 -66 -92 -3 -5 0
-80 -74 -81 -3 -6 0
-86 -74 -87 -3 -6 0
-91 -74 -92 -3 -6 0
-86 -81 -87 -3 -7 0
-91 -81 -92 -3 -7 0
-91 -87 -92 -3 -8 0
-73 -66 -74 -4 -5 0
-80 -66 -81 -4 -5 0
-86 -66 -87 -4 -5 0
-91 -66 -92 -4 -5 0
-80 -74 -81 -4 -6 0
-86 -74 -87 -4 -6 0
-91 -74 -92 -4 -6 0
-86 -81 -87 -4 -7 0
-91 -81 -92 -4 -7 0
-91 -87 -92 -4 -8 0
-80 -74 -81 -5 -6 0
-86 -74 -87 -5 -6 0
-91 -74 -92 -5 -6 0
-86 -81 -87 -5 -7 0
-91 -81 -92 -5 -7 0
-91 -87 -92 -5 -8 0
-86 -81 -87 -6 -7 0
-91 -81 -92 -6 -7 0
-91 -87 -92 -6 -8 0
-91 -87 -92 -7 -8 0
-56 -47 -57 -15 -16 0
-65 -47 -66 -15 -16 0
-73 -47 -74 -15 -16 0
-80 -47 -81 -15 -16 0
-86 -47 -87 -15 -16 0
-91 -47 -92 -15 -16 0
-65 -57 -66 -15 -17 0
-73 -57 -74 -15 -17 0
-80 -57 -81 -15 -17 0
-86 -57 -87 -15 -17 0
-91 -57 -92 -15 -17 0
-73 -66 -74 -15 -18 0
-80 -66 -81 -15 -18 0
-86 -66 -87 -15 -18 0
-91 -66 -92 -15 -18 0
-80 -74 -81 -15 -19 0
-86 -74 -87 -15 -19 0
-91 -74 -92 -15 -19 0
-86 -81 -87 -15 -20 0
-91 -81 -92 -15 -20 0
-91 -87 -92 -15 -21 0
-65 -57 -66 -16 -17 0
-73 -57 -74 -16 -17 0
-80 -57 -81 -16 -17 0
-86 -57 -87 -16 -17 0
-91 -57 -92 -16 -17 0
-73 -66 -74 -16 -18 0
-80 -66 -81 -16 -18 0
-86 -66 -87 -16 -18 0
-91 -66 -92 -16 -18 0
-80 -74 -81 -16 -19 0
-86 -74 -87 -16 -19 0
-91 -74 -92 -16 -19 0
-86 -81 -87 -16 -20 0
-91 -81 -92 -16 -20 0
-91 -87 -92 -16 -21 0
-73 -66 -74 -17 -18 0
-80 -66 -81 -17 -18 0
-86 -66 -87 -17 -18 0
-91 -66 -92 -17 -18 0
-80 -74 -81 -17 -19 0
-86 -74 -87 -17 -19 0
-91 -74 -92 -17 -19 0
-86 -81 -87 -17 -20 0
-91 -81 -92 -17 -20 0
-91 -87 -92 -17 -21 0
-80 -74 -81 -18 -19 0
-86 -74 -87 -18 -19 0
-91 -74 -92 -18 -19 0
-86 -81 -87 -18 -20 0
-91 -81 -92 -18 -20 0
-91 -87 -92 -18 -21 0
-86 -81 -87 -19 -20 0
-91 -81 -92 -19 -20 0
-91 -87 -92 -19 -21 0
-91 -87 -92 -20 -21 0
-65 -57 -66 -28 -29 0
-73 -57 -74 -28 -29 0
-80 -57 -81 -28 -29 0
-86 -57 -87 -28 -29 0
-91 -57 -92 -28 -29 0
-73 -66 -74 -28 -30 0
-80 -66 -81 -28 -30 0
-86 -66 -87 -28 -30 0
-91 -66 -92 -28 -30 0
-80 -74 -81 -28 -31 0
-86 -74 -87 -28 -31 0
-91 -74 -92 -28 -31 0
-86 -81 -87 -28 -32 0
-91 -81 -92 -28 -32 0
-91 -87 -92 -28 -33 0
-73 -66 -74 -29 -30 0
-80 -66 -81 -29 -30 0
-86 -66 -87 -29 -30 0
-91 -66 -92 -29 -30 0
-80 -74 -81 -29 -31 0
-86 -74 -87 -29 -31 0
-91 -74 -92 -29 -31 0
-86 -81 -87 -29 -32 0
-91 -81 -92 -29 -32 0
-91 -87 -92 -29 -33 0
-80 -74 -81 -30 -31 0
-86 -74 -87 -30 -31 0
-91 -74 -92 -30 -31 0
-86 -81 -87 -30 -32 0
-91 -81 -92 -30 -32 0
-91 -87 -92 -30 -33 0
-86 -81 -87 -31 -32 0
-91 -81 -92 -31 -32 0
-91 -87 -92 -31 -33 0
-91 -87 -92 -32 -33 0
-73 -66 -74 -40 -41 0
-80 -66 -81 -40 -41 0
-86 -66 -87 -40 -41 0
-91 -66 -92 -40 -41 0
-80 -74 -81 -40 -42 0
-86 -74 -87 -40 -42 0
-91 -74 -92 -40 -42 0
-86 -81 -87 -40 -43 0
-91 -81 -92 -40 -43 0
-91 -87 -92 -40 -44 0
-80 -74 -81 -41 -42 0
-86 -74 -87 -41 -42 0
-91 -74 -92 -41 -42 0
-86 -81 -87 -41 -43 0
-91 -81 -92 -41 -43 0
-91 -87 -92 -41 -44 0
-86 -81 -87 -42 -43 0
-91 -81 -92 -42 -43 0
-91 -87 -92 -42 -44 0
-91 -87 -92 -43 -44 0
-80 -74 -81 -51 -52 0
-86 -74 -87 -51 -52 0
-91 -74 -92 -51 -52 0
-86 -81 -87 -51 -53 0
-91 -81 -92 -51 -53 0
-91 -87 -92 -51 -54 0
-86 -81 -87 -52 -53 0
-91 -81 -92 -52 -53 0
-91 -87 -92 -52 -54 0
-91 -87 -92 -53 -54 0
-86 -81 -87 -61 -62 0
-91 -81 -92 -61 -62 0
-91 -87 -92 -61 -63 0
-91 -87 -92 -62 -63 0
-91 -87 -92 -70 -71 0
-23 -12 -25 -105 -13 0
-35 -12 -37 -105 -13 0
-46 -12 -48 -105 -13 0
-56 -12 -58 -105 -13 0
-65 -12 -67 -105 -13 0
-73 -12 -75 -105 -13 0
-80 -12 -82 -105 -13 0
-86 -12 -88 -105 -13 0
-91 -12 -93 -105 -13 0
-35 -25 -37 -105 -26 0
-46 -25 -48 -105 -26 0
-56 -25 -58 -105 -26 0
-65 -25 -67 -105 -26 0
-73 -25 -75 -105 -26 0
-80 -25 -82 -105 -26 0
-86 -25 -88 -105 -26 0
-91 -25 -93 -105 -26 0
-46 -37 -48 -105 -38 0
-56 -37 -58 -105 -38 0
-65 -37 -67 -105 -38 0
-73 -37 -75 -105 -38 0
-80 -37 -82 -105 -38 0
-86 -37 -88 -105 -38 0
-91 -37 -93 -105 -38 0
-56 -48 -58 -105 -49 0
-65 -48 -67 -105 -49 0
-73 -48 -75 -105 -49 0
-80 -48 -82 -105 -49 0
-86 -48 -88 -105 -49 0
-91 -48 -93 -105 -49 0
-65 -58 -67 -105 -59 0
-73 -58 -75 -105 -59 0
-80 -58 -82 -105 -59 0
-86 -58 -88 -105 -59 0
-91 -58 -93 -105 -59 0
-73 -67 -75 -105 -68 0
-80 -67 -82 -105 -68 0
-86 -67 -88 -105 -68 0
-91 -67 -93 -105 -68 0
-80 -75 -82 -105 -76 0
-86 -75 -88 -105 -76 0
-91 -75 -93 -105 -76 0
-86 -82 -88 -105 -83 0
-91 -82 -93 -105 -83 0
-91 -88 -93 -105 -89 0
-35 -25 -37 -13 -26 0
-46 -25 -48 -13 -26 0
-56 -25 -58 -13 -26 0
-65 -25 -67 -13 -26 0
-73 -25 -75 -13 -26 0
-80 -25 -82 -13 -26 0
-86 -25 -88 -13 -26 0
-91 -25 -93 -13 -26 0
-46 -37 -48 -13 -38 0
-56 -37 -58 -13 -38 0
-65 -37 -67 -13 -38 0
-73 -37 -75 -13 -38 0
-80 -37 -82 -13 -38 0
-86 -37 -88 -13 -38 0
-91 -37 -93 -13 -38 0
-56 -48 -58 -13 -49 0
-65 -48 -67 -13 -49 0
-73 -48 -75 -13 -49 0
-80 -48 -82 -13 -49 0
-86 -48 -88 -13 -49 0
-91 -48 -93 -13 -49 0
-65 -58 -67 -13 -59 0
-73 -58 -75 -13 -59 0
-80 -58 -82 -13 -59 0
-86 -58 -88 -13 -59 0
-91 -58 -93 -13 -59 0
-73 -67 -75 -13 -68 0
-80 -67 -82 -13 -68 0
-86 -67 -88 -13 -68 0
-91 -67 -93 -13 -68 0
-80 -75 -82 -13 -76 0
-86 -75 -88 -13 -76 0
-91 -75 -93 -13 -76 0
-86 -82 -88 -13 -83 0
-91 -82 -93 -13 -83 0
-91 -88 -93 -13 -89 0
-46 -37 -48 -26 -38 0
-56 -37 -58 -26 -38 0
-65 -37 -67 -26 -38 0
-73 -37 -75 -26 -38 0
-80 -37 -82 -26 -38 0
-86 -37 -88 -26 -38 0
-91 -37 -93 -26 -38 0
-56 -48 -58 -26 -49 0
-65 -48 -67 -26 -49 0
-73 -48 -75 -26 -49 0
-80 -48 -82 -26 -49 0
-86 -48 -88 -26 -49 0
-91 -48 -93 -26 -49 0
-65 -58 -67 -26 -59 0
-73 -58 -75 -26 -59 0
-80 -58 -82 -26 -59 0
-86 -58 -88 -26 -59 0
-91 -58 -93 -26 -59 0
-73 -67 -75 -26 -68 0
-80 -67 -82 -26 -68 0
-86 -67 -88 -26 -68 0
-91 -67 -93 -26 -68 0
-80 -75 -82 -26 -76 0
-86 -75 -88 -26 -76 0
-91 -75 -93 -26 -76 0
-86 -82 -88 -26 -83 0
-91 -82 -93 -26 -83 0
-91 -88 -93 -26 -89 0
-56 -48 -58 -38 -49 0
-65 -48 -67 -38 -49 0
-73 -48 -75 -38 -49 0
-80 -48 -82 -38 -49 0
-86 -48 -88 -38 -49 0
-91 -48 -93 -38 -49 0
-65 -58 -67 -38 -59 0
-73 -58 -75 -38 -59 0
-80 -58 -82 -38 -59 0
-86 -58 -88 -38 -59 0
-91 -58 -93 -38 -59 0
-73 -67 -75 -38 -68 0
-80 -67 -82 -38 -68 0
-86 -67 -88 -38 -68 0
-91 -67 -93 -38 -68 0
-80 -75 -82 -38 -76 0
-86 -75 -88 -38 -76 0
-91 -75 -93 -38 -76 0
-86 -82 -88 -38 -83 0
-91 -82 -93 -38 -83 0
-91 -88 -93 -38 -89 0
-65 -58 -67 -49 -59 0
-73 -58 -75 -49 -59 0
-80 -58 -82 -49 -59 0
-86 -58 -88 -49 -59 0
-91 -58 -93 -49 -59 0
-73 -67 -75 -49 -68 0
-80 -67 -82 -49 -68 0
-86 -67 -88 -49 -68 0
-91 -67 -93 -49 -68 0
-80 -75 -82 -49 -76 0
-86 -75 -88 -49 -76 0
-91 -75 -93 -49 -76 0
-86 -82 -88 -49 -83 0
-91 -82 -93 -49 -83 0
-91 -88 -93 -49 -89 0
-73 -67 -75 -59 -68 0
-80 -67 -82 -59 -68 0
-86 -67 -88 -59 -68 0
-91 -67 -93 -59 -68 0
-80 -75 -82 -59 -76 0
-86 -75 -88 -59 -76 0
-91 -75 -93 -59 -76 0
-86 -82 -88 -59 -83 0
-91 -82 -93 -59 -83 0
-91 -88 -93 -59 -89 0
-80 -75 -82 -68 -76 0
-86 -75 -88 -68 -76 0
-91 -75 -93 -68 -76 0
-86 -82 -88 -68 -83 0
-91 -82 -93 -68 -83 0
-91 -88 -93 -68 -89 0
-86 -82 -88 -76 -83 0
-91 -82 -93 -76 -83 0
-91 -88 -93 -76 -89 0
-91 -88 -93 -83 -89 0
-35 -25 -37 -14 -27 0
-46 -25 -48 -14 -27 0
-56 -25 -58 -14 -27 0
-65 -25 -67 -14 -27 0
-73 -25 -75 -14 -27 0
-80 -25 -82 -14 -27 0
-86 -25 -88 -14 -27 0
-91 -25 -93 -14 -27 0
-46 -37 -48 -14 -39 0
-56 -37 -58 -14 -39 0
-65 -37 -67 -14 -39 0
-73 -37 -75 -14 -39 0
-80 -37 -82 -14 -39 0
-86 -37 -88 -14 -39 0
-91 -37 -93 -14 -39 0
-56 -48 -58 -14 -50 0
-65 -48 -67 -14 -50 0
-73 -48 -75 -14 -50 0
-80 -48 -82 -14 -50 0
-86 -48 -88 -14 -50 0
-91 -48 -93 -14 -50 0
-65 -58 -67 -14 -60 0
-73 -58 -75 -14 -60 0
-80 -58 -82 -14 -60 0
-86 -58 -88 -14 -60 0
-91 -58 -93 -14 -60 0
-73 -67 -75 -14 -69 0
-80 -67 -82 -14 -69 0
-86 -67 -88 -14 -69 0
-91 -67 -93 -14 -69 0
-80 -75 -82 -14 -77 0
-86 -75 -88 -14 -77 0
-91 -75 -93 -14 -77 0
-86 -82 -88 -14 -84 0
-91 -82 -93 -14 -84 0
-91 -88 -93 -14 -90 0
-46 -37 -48 -27 -39 0
-56 -37 -58 -27 -39 0
-65 -37 -67 -27 -39 0
-73 -37 -75 -27 -39 0
-80 -37 -82 -27 -39 0
-86 -37 -88 -27 -39 0
-91 -37 -93 -27 -39 0
-56 -48 -58 -27 -50 0
-65 -48 -67 -27 -50 0
-73 -48 -75 -27 -50 0
-80 -48 -82 -27 -50 0
-86 -48 -88 -27 -50 0
-91 -48 -93 -27 -50 0
-65 -58 -67 -27 -60 0
-73 -58 -75 -27 -60 0
-80 -58 -82 -27 -60 0
-86 -58 -88 -27 -60 0
-91 -58 -93 -27 -60 0
-73 -67 -75 -27 -69 0
-80 -67 -82 -27 -69 0
-86 -67 -88 -27 -69 0
-91 -67 -93 -27 -69 0
-80 -75 -82 -27 -77 0
-86 -75 -88 -27 -77 0
-91 -75 -93 -27 -77 0
-86 -82 -88 -27 -84 0
-91 -82 -93 -27 -84 0
-91 -88 -93 -27 -90 0
-56 -48 -58 -39 -50 0
-65 -48 -67 -39 -50 0
-73 -48 -75 -39 -50 0
-80 -48 -82 -39 -50 0
-86 -48 -88 -39 -50 0
-91 -48 -93 -39 -50 0
-65 -58 -67 -39 -60 0
-73 -58 -75 -39 -60 0
-80 -58 -82 -39 -60 0
-86 -58 -88 -39 -60 0
-91 -58 -93 -39 -60 0
-73 -67 -75 -39 -69 0
-80 -67 -82 -39 -69 0
-86 -67 -88 -39 -69 0
-91 -67 -93 -39 -69 0
-80 -75 -82 -39 -77 0
-86 -75 -88 -39 -77 0
-91 -75 -93 -39 -77 0
-86 -82 -88 -39 -84 0
-91 -82 -93 -39 -84 0
-91 -88 -93 -39 -90 0
-65 -58 -67 -50 -60 0
-73 -58 -75 -50 -60 0
-80 -58 -82 -50 -60 0
-86 -58 -88 -50 -60 0
-91 -58 -93 -50 -60 0
-73 -67 -75 -50 -69 0
-80 -67 -82 -50 -69 0
-86 -67 -88 -50 -69 0
-91 -67 -93 -50 -69 0
-80 -75 -82 -50 -77 0
-86 -75 -88 -50 -77 0
-91 -75 -93 -50 -77 0
-86 -82 -88 -50 -84 0
-91 -82 -93 -50 -84 0
-91 -88 -93 -50 -90 0
-73 -67 -75 -60 -69 0
-80 -67 -82 -60 -69 0
-86 -67 -88 -60 -69 0
-91 -67 -93 -60 -69 0
-80 -75 -82 -60 -77 0
-86 -75 -88 -60 -77 0
-91 -75 -93 -60 -77 0
-86 -82 -88 -60 -84 0
-91 -82 -93 -60 -84 0
-91 -88 -93 -60 -90 0
-80 -75 -82 -69 -77 0
-86 -75 -88 -69 -77 0
-91 -75 -93 -69 -77 0
-86 -82 -88 -69 -84 0
-91 -82 -93 -69 -84 0
-91 -88 -93 -69 -90 0
-86 -82 -88 -77 -84 0
-91 -82 -93 -77 -84 0
-91 -88 -93 -77 -90 0
-91 -88 -93 -84 -90 0
-46 -37 -48 -1 -2 0
-56 -37 -58 -1 -2 0
-65 -37 -67 -1 -2 0
-73 -37 -75 -1 -2 0
-80 -37 -82 -1 -2 0
-86 -37 -88 -1 -2 0
-91 -37 -93 -1 -2 0
-56 -48 -58 -1 -3 0
-65 -48 -67 -1 -3 0
-73 -48 -75 -1 -3 0
-80 -48 -82 -1 -3 0
-86 -48 -88 -1 -3 0
-91 -48 -93 -1 -3 0
-65 -58 -67 -1 -4 0
-73 -58 -75 -1 -4 0
-80 -58 -82 -1 -4 0
-86 -58 -88 -1 -4 0
-91 -58 -93 -1 -4 0
-73 -67 -75 -1 -5 0
-80 -67 -82 -1 -5 0
-86 -67 -88 -1 -5 0
-91 -67 -93 -1 -5 0
-80 -75 -82 -1 -6 0
-86 -75 -88 -1 -6 0
-91 -75 -93 -1 -6 0
-86 -82 -88 -1 -7 0
-91 -82 -93 -1 -7 0
-91 -88 -93 -1 -8 0
-56 -48 -58 -2 -3 0
-65 -48 -67 -2 -3 0
-73 -48 -75 -2 -3 0
-80 -48 -82 -2 -3 0
-86 -48 -88 -2 -3 0
-91 -48 -93 -2 -3 0
-65 -58 -67 -2 -4 0
-73 -58 -75 -2 -4 0
-80 -58 -82 -2 -4 0
-86 -58 -88 -2 -4 0
-91 -58 -93 -2 -4 0
-73 -67 -75 -2 -5 0
-80 -67 -82 -2 -5 0
-86 -67 -88 -2 -5 0
-91 -67 -93 -2 -5 0
-80 -75 -82 -2 -6 0
-86 -75 -88 -2 -6 0
-91 -75 -93 -2 -6 0
-86 -82 -88 -2 -7 0
-91 -82 -93 -2 -7 0
-91 -88 -93 -2 -8 0
-65 -58 -67 -3 -4 0
-73 -58 -75 -3 -4 0
-80 -58 -82 -3 -4 0
-86 -58 -88 -3 -4 0
-91 -58 -93 -3 -4 0
-73 -67 -75 -3 -5 0
-80 -67 -82 -3 -5 0
-86 -67 -88 -3 -5 0
-91 -67 -93 -3 -5 0
-80 -75 -82 -3 -6 0
-86 -75 -88 -3 -6 0
-91 -75 -93 -3 -6 0
-86 -82 -88 -3 -7 0
-91 -82 -93 -3 -7 0
-91 -88 -93 -3 -8 0
-73 -67 -75 -4 -5 0
-80 -67 -82 -4 -5 0
-86 -67 -88 -4 -5 0
-91 -67 -93 -4 -5 0
-80 -75 -82 -4 -6 0
-86 -75 -88 -4 -6 0
-91 -75 -93 -4 -6 0
-86 -82 -88 -4 -7 0
-91 -82 -93 -4 -7 0
-91 -88 -93 -4 -8 0
-80 -75 -82 -5 -6 0
-86 -75 -88 -5 -6 0
-91 -75 -93 -5 -6 0
-86 -82 -88 -5 -7 0
-91 -82 -93 -5 -7 0
-91 -88 -93 -5 -8 0
-86 -82 -88 -6 -7 0
-91 -82 -93 -6 -7 0
-91 -88 -93 -6 -8 0
-91 -88 -93 -7 -8 0
-56 -48 -58 -15 -16 0
-65 -48 -67 -15 -16 0
-73 -48 -75 -15 -16 0
-80 -48 -82 -15 -16 0
-86 -48 -88 -15 -16 0
-91 -48 -93 -15 -16 0
-65 -58 -67 -15 -17 0
-73 -58 -75 -15 -17 0
-80 -58 -82 -15 -17 0
-86 -58 -88 -15 -17 0
-91 -58 -93 -15 -17 0
-73 -67 -75 -15 -18 0
-80 -67 -82 -15 -18 0
-86 -67 -88 -15 -18 0
-91 -67 -93 -15 -18 0
-80 -75 -82 -15 -19 0
-86 -75 -88 -15 -19 0
-91 -75 -93 -15 -19 0
-86 -82 -88 -15 -20 0
-91 -82 -93 -15 -20 0
-91 -88 -93 -15 -21 0
-65 -58 -67 -16 -17 0
-73 -58 -75 -16 -17 0
-80 -58 -82 -16 -17 0
-86 -58 -88 -16 -17 0
-91 -58 -93 -16 -17 0
-73 -67 -75 -16 -18 0
-80 -67 -82 -16 -18 0
-86 -67 -88 -16 -18 0
-91 -67 -93 -16 -18 0
-80 -75 -82 -16 -19 0
-86 -75 -88 -16 -19 0
-91 -75 -93 -16 -19 0
-86 -82 -88 -16 -20 0
-91 -82 -93 -16 -20 0
-91 -88 -93 -16 -21 0
-73 -67 -75 -17 -18 0
-80 -67 -82 -17 -18 0
-86 -67 -88 -17 -18 0
-91 -67 -93 -17 -18 0
-80 -75 -82 -17 -19 0
-86 -75 -88 -17 -19 0
-91 -75 -93 -17 -19 0
-86 -82 -88 -17 -20 0
-91 -82 -93 -17 -20 0
-91 -88 -93 -17 -21 0
-80 -75 -82 -18 -19 0
-86 -75 -88 -18 -19 0
-91 -75 -93 -18 -19 0
-86 -82 -88 -18 -20 0
-91 -82 -93 -18 -20 0
-91 -88 -93 -18 -21 0
-86 -82 -88 -19 -20 0
-91 -82 -93 -19 -20 0
-91 -88 -93 -19 -21 0
-91 -88 -93 -20 -21 0
-65 -58 -67 -28 -29 0
-73 -58 -75 -28 -29 0
-80 -58 -82 -28 -29 0
-86 -58 -88 -28 -29 0
-91 -58 -93 -28 -29 0
-73 -67 -75 -28 -30 0
-80 -67 -82 -28 -30 0
-86 -67 -88 -28 -30 0
-91 -67 -93 -28 -30 0
-80 -75 -82 -28 -31 0
-86 -75 -88 -28 -31 0
-91 -75 -93 -28 -31 0
-86 -82 -88 -28 -32 0
-91 -82 -93 -28 -32 0
-91 -88 -93 -28 -33 0
-73 -67 -75 -29 -30 0
-80 -67 -82 -29 -30 0
-86 -67 -88 -29 -30 0
-91 -67 -93 -29 -30 0
-80 -75 -82 -29 -31 0
-86 -75 -88 -29 -31 0
-91 -75 -93 -29 -31 0
-86 -82 -88 -29 -32 0
-91 -82 -93 -29 -32 0
-91 -88 -93 -29 -33 0
-80 -75 -82 -30 -31 0
-86 -75 -88 -30 -31 0
-91 -75 -93 -30 -31 0
-86 -82 -88 -30 -32 0
-91 -82 -93 -30 -32 0
-91 -88 -93 -30 -33 0
-86 -82 -88 -31 -32 0
-91 -82 -93 -31 -32 0
-91 -88 -93 -31 -33 0
-91 -88 -93 -32 -33 0
-73 -67 -75 -40 -41 0
-80 -67 -82 -40 -41 0
-86 -67 -88 -40 -41 0
-91 -67 -93 -40 -41 0
-80 -75 -82 -40 -42 0
-86 -75 -88 -40 -42 0
-91 -75 -93 -40 -42 0
-86 -82 -88 -40 -43 0
-91 -82 -93 -40 -43 0
-91 -88 -93 -40 -44 0
-80 -75 -82 -41 -42 0
-86 -75 -88 -41 -42 0
-91 -75 -93 -41 -42 0
-86 -82 -88 -41 -43 0
-91 -82 -93 -41 -43 0
-91 -88 -93 -41 -44 0
-86 -82 -88 -42 -43 0
-91 -82 -93 -42 -43 0
-91 -88 -93 -42 -44 0
-91 -88 -93 -43 -44 0
-80 -75 -82 -51 -52 0
-86 -75 -88 -51 -52 0
-91 -75 -93 -51 -52 0
-86 -82 -88 -51 -53 0
-91 -82 -93 -51 -53 0
-91 -88 -93 -51 -54 0
-86 -82 -88 -52 -53 0
-91 -82 -93 -52 -53 0
-91 -88 -93 -52 -54 0
-91 -88 -93 -53 -54 0
-86 -82 -88 -61 -62 0
-91 -82 -93 -61 -62 0
-91 -88 -93 -61 -63 0
-91 -88 -93 -62 -63 0
-91 -88 -93 -70 -71 0
-35 -26 -38 -14 -27 0
-46 -26 -49 -14 -27 0
-56 -26 -59 -14 -27 0
-65 -26 -68 -14 -27 0
-73 -26 -76 -14 -27 0
-80 -26 -83 -14 -27 0
-86 -26 -89 -14 -27 0
-91 -26 -94 -14 -27 0
-46 -38 -49 -14 -39 0
-56 -38 -59 -14 -39 0
-65 -38 -68 -14 -39 0
-73 -38 -76 -14 -39 0
-80 -38 -83 -14 -39 0
-86 -38 -89 -14 -39 0
-91 -38 -94 -14 -39 0
-56 -49 -59 -14 -50 0
-65 -49 -68 -14 -50 0
-73 -49 -76 -14 -50 0
-80 -49 -83 -14 -50 0
-86 -49 -89 -14 -50 0
-91 -49 -94 -14 -50 0
-65 -59 -68 -14 -60 0
-73 -59 -76 -14 -60 0
-80 -59 -83 -14 -60 0
-86 -59 -89 -14 -60 0
-91 -59 -94 -14 -60 0
-73 -68 -76 -14 -69 0
-80 -68 -83 -14 -69 0
-86 -68 -89 -14 -69 0
-91 -68 -94 -14 -69 0
-80 -76 -83 -14 -77 0
-86 -76 -89 -14 -77 0
-91 -76 -94 -14 -77 0
-86 -83 -89 -14 -84 0
-91 -83 -94 -14 -84 0
-91 -89 -94 -14 -90 0
-46 -38 -49 -27 -39 0
-56 -38 -59 -27 -39 0
-65 -38 -68 -27 -39 0
-73 -38 -76 -27 -39 0
-80 -38 -83 -27 -39 0
-86 -38 -89 -27 -39 0
-91 -38 -94 -27 -39 0
-56 -49 -59 -27 -50 0
-65 -49 -68 -27 -50 0
-73 -49 -76 -27 -50 0
-80 -49 -83 -27 -50 0
-86 -49 -89 -27 -50 0
-91 -49 -94 -27 -50 0
-65 -59 -68 -27 -60 0
-73 -59 -76 -27 -60 0
-80 -59 -83 -27 -60 0
-86 -59 -89 -27 -60 0
-91 -59 -94 -27 -60 0
-73 -68 -76 -27 -69 0
-80 -68 -83 -27 -69 0
-86 -68 -89 -27 -69 0
-91 -68 -94 -27 -69 0
-80 -76 -83 -27 -77 0
-86 -76 -89 -27 -77 0
-91 -76 -94 -27 -77 0
-86 -83 -89 -27 -84 0
-91 -83 -94 -27 -84 0
-91 -89 -94 -27 -90 0
-56 -49 -59 -39 -50 0
-65 -49 -68 -39 -50 0
-73 -49 -76 -39 -50 0
-80 -49 -83 -39 -50 0
-86 -49 -89 -39 -50 0
-91 -49 -94 -39 -50 0
-65 -59 -68 -39 -60 0
-73 -59 -76 -39 -60 0
-80 -59 -83 -39 -60 0
-86 -59 -89 -39 -60 0
-91 -59 -94 -39 -60 0
-73 -68 -76 -39 -69 0
-80 -68 -83 -39 -69 0
-86 -68 -89 -39 -69 0
-91 -68 -94 -39 -69 0
-80 -76 -83 -39 -77 0
-86 -76 -89 -39 -77 0
-91 -76 -94 -39 -77 0
-86 -83 -89 -39 -84 0
-91 -83 -94 -39 -84 0
-91 -89 -94 -39 -90 0
-65 -59 -68 -50 -60 0
-73 -59 -76 -50 -60 0
-80 -59 -83 -50 -60 0
-86 -59 -89 -50 -60 0
-91 -59 -94 -50 -60 0
-73 -68 -76 -50 -69 0
-80 -68 -83 -50 -69 0
-86 -68 -89 -50 -69 0
-91 -68 -94 -50 -69 0
-80 -76 -83 -50 -77 0
-86 -76 -89 -50 -77 0
-91 -76 -94 -50 -77 0
-86 -83 -89 -50 -84 0
-91 -83 -94 -50 -84 0
-91 -89 -94 -50 -90 0
-73 -68 -76 -60 -69 0
-80 -68 -83 -60 -69 0
-86 -68 -89 -60 -69 0
-91 -68 -94 -60 -69 0
-80 -76 -83 -60 -77 0
-86 -76 -89 -60 -77 0
-91 -76 -94 -60 -77 0
-86 -83 -89 -60 -84 0
-91 -83 -94 -60 -84 0
-91 -89 -94 -60 -90 0
-80 -76 -83 -69 -77 0
-86 -76 -89 -69 -77 0
-91 -76 -94 -69 -77 0
-86 -83 -89 -69 -84 0
-91 -83 -94 -69 -84 0
-91 -89 -94 -69 -90 0
-86 -83 -89 -77 -84 0
-91 -83 -94 -77 -84 0
-91 -89 -94 -77 -90 0
-91 -89 -94 -84 -90 0
-46 -38 -49 -1 -2 0
-56 -38 -59 -1 -2 0
-65 -38 -68 -1 -2 0
-73 -38 -76 -1 -2 0
-80 -38 -83 -1 -2 0
-86 -38 -89 -1 -2 0
-91 -38 -94 -1 -2 0
-56 -49 -59 -1 -3 0
-65 -49 -68 -1 -3 0
-73 -49 -76 -1 -3 0
-80 -49 -83 -1 -3 0
-86 -49 -89 -1 -3 0
-91 -49 -94 -1 -3 0
-65 -59 -68 -1 -4 0
-73 -59 -76 -1 -4 0
-80 -59 -83 -1 -4 0
-86 -59 -89 -1 -4 0
-91 -59 -94 -1 -4 0
-73 -68 -76 -1 -5 0
-80 -68 -83 -1 -5 0
-86 -68 -89 -1 -5 0
-91 -68 -94 -1 -5 0
-80 -76 -83 -1 -6 0
-86 -76 -89 -1 -6 0
-91 -76 -94 -1 -6 0
-86 -83 -89 -1 -7 0
-91 -83 -94 -1 -7 0
-91 -89 -94 -1 -8 0
-56 -49 -59 -2 -3 0
-65 -49 -68 -2 -3 0
-73 -49 -76 -2 -3 0
-80 -49 -83 -2 -3 0
-86 -49 -89 -2 -3 0
-91 -49 -94 -2 -3 0
-65 -59 -68 -2 -4 0
-73 -59 -76 -2 -4 0
-80 -59 -83 -2 -4 0
-86 -59 -89 -2 -4 0
-91 -59 -94 -2 -4 0
-73 -68 -76 -2 -5 0
-80 -68 -83 -2 -5 0
-86 -68 -89 -2 -5 0
-91 -68 -94 -2 -5 0
-80 -76 -83 -2 -6 0
-86 -76 -89 -2 -6 0
-91 -76 -94 -2 -6 0
-86 -83 -89 -2 -7 0
-91 -83 -94 -2 -7 0
-91 -89 -94 -2 -8 0
-65 -59 -68 -3 -4 0
-73 -59 -76 -3 -4 0
-80 -59 -83 -3 -4 0
-86 -59 -89 -3 -4 0
-91 -59 -94 -3 -4 0
-73 -68 -76 -3 -5 0
-80 -68 -83 -3 -5 0
-86 -68 -89 -3 -5 0
-91 -68 -94 -3 -5 0
-80 -76 -83 -3 -6 0
-86 -76 -89 -3 -6 0
-91 -76 -94 -3 -6 0
-86 -83 -89 -3 -7 0
-91 -83 -94 -3 -7 0
-91 -89 -94 -3 -8 0
-73 -68 -76 -4 -5 0
-80 -68 -83 -4 -5 0
-86 -68 -89 -4 -5 0
-91 -68 -94 -4 -5 0
-80 -76 -83 -4 -6 0
-86 -76 -89 -4 -6 0
-91 -76 -94 -4 -6 0
-86 -83 -89 -4 -7 0
-91 -83 -94 -4 -7 0
-91 -89 -94 -4 -8 0
-80 -76 -83 -5 -6 0
-86 -76 -89 -5 -6 0
-91 -76 -94 -5 -6 0
-86 -83 -89 -5 -7 0
-91 -83 -94 -5 -7 0
-91 -89 -94 -5 -8 0
-86 -83 -89 -6 -7 0
-91 -83 -94 -6 -7 0
-91 -89 -94 -6 -8 0
-91 -89 -94 -7 -8 0
-56 -49 -59 -15 -16 0
-65 -49 -68 -15 -16 0
-73 -49 -76 -15 -16 0
-80 -49 -83 -15 -16 0
-86 -49 -89 -15 -16 0
-91 -49 -94 -15 -16 0
-65 -59 -68 -15 -17 0
-73 -59 -76 -15 -17 0
-80 -59 -83 -15 -17 0
-86 -59 -89 -15 -17 0
-91 -59 -94 -15 -17 0
-73 -68 -76 -15 -18 0
-80 -68 -83 -15 -18 0
-86 -68 -89 -15 -18 0
-91 -68 -94 -15 -18 0
-80 -76 -83 -15 -19 0
-86 -76 -89 -15 -19 0
-91 -76 -94 -15 -19 0
-86 -83 -89 -15 -20 0
-91 -83 -94 -15 -20 0
-91 -89 -94 -15 -21 0
-65 -59 -68 -16 -17 0
-73 -59 -76 -16 -17 0
-80 -59 -83 -16 -17 0
-86 -59 -89 -16 -17 0
-91 -59 -94 -16 -17 0
-73 -68 -76 -16 -18 0
-80 -68 -83 -16 -18 0
-86 -68 -89 -16 -18 0
-91 -68 -94 -16 -18 0
-80 -76 -83 -16 -19 0
-86 -76 -89 -16 -19 0
-91 -76 -94 -16 -19 0
-86 -83 -89 -16 -20 0
-91 -83 -94 -16 -20 0
-91 -89 -94 -16 -21 0
-73 -68 -76 -17 -18 0
-80 -68 -83 -17 -18 0
-86 -68 -89 -17 -18 0
-91 -68 -94 -17 -18 0
-80 -76 -83 -17 -19 0
-86 -76 -89 -17 -19 0
-91 -76 -94 -17 -19 0
-86 -83 -89 -17 -20 0
-91 -83 -94 -17 -20 0
-91 -89 -94 -17 -21 0
-80 -76 -83 -18 -19 0
-86 -76 -89 -18 -19 0
-91 -76 -94 -18 -19 0
-86 -83 -89 -18 -20 0
-91 -83 -94 -18 -20 0
-91 -89 -94 -18 -21 0
-86 -83 -89 -19 -20 0
-91 -83 -94 -19 -20 0
-91 -89 -94 -19 -21 0
-91 -89 -94 -20 -21 0
-65 -59 -68 -28 -29 0
-73 -59 -76 -28 -29 0
-80 -59 -83 -28 -29 0
-86 -59 -89 -28 -29 0
-91 -59 -94 -28 -29 0
-73 -68 -76 -28 -30 0
-80 -68 -83 -28 -30 0
-86 -68 -89 -28 -30 0
-91 -68 -94 -28 -30 0
-80 -76 -83 -28 -31 0
-86 -76 -89 -28 -31 0
-91 -76 -94 -28 -31 0
-86 -83 -89 -28 -32 0
-91 -83 -94 -28 -32 0
-91 -89 -94 -28 -33 0
-73 -68 -76 -29 -30 0
-80 -68 -83 -29 -30 0
-86 -68 -89 -29 -30 0
-91 -68 -94 -29 -30 0
-80 -76 -83 -29 -31 0
-86 -76 -89 -29 -31 0
-91 -76 -94 -29 -31 0
-86 -83 -89 -29 -32 0
-91 -83 -94 -29 -32 0
-91 -89 -94 -29 -33 0
-80 -76 -83 -30 -31 0
-86 -76 -89 -30 -31 0
-91 -76 -94 -30 -31 0
-86 -83 -89 -30 -32 0
-91 -83 -94 -30 -32 0
-91 -89 -94 -30 -33 0
-86 -83 -89 -31 -32 0
-91 -83 -94 -31 -32 0
-91 -89 -94 -31 -33 0
-91 -89 -94 -32 -33 0
-73 -68 -76 -40 -41 0
-80 -68 -83 -40 -41 0
-86 -68 -89 -40 -41 0
-91 -68 -94 -40 -41 0
-80 -76 -83 -40 -42 0
-86 -76 -89 -40 -42 0
-91 -76 -94 -40 -42 0
-86 -83 -89 -40 -43 0
-91 -83 -94 -40 -43 0
-91 -89 -94 -40 -44 0
-80 -76 -83 -41 -42 0
-86 -76 -89 -41 -42 0
-91 -76 -94 -41 -42 0
-86 -83 -89 -41 -43 0
-91 -83 -94 -41 -43 0
-91 -89 -94 -41 -44 0
-86 -83 -89 -42 -43 0
-91 -83 -94 -42 -43 0
-91 -89 -94 -42 -44 0
-91 -89 -94 -43 -44 0
-80 -76 -83 -51 -52 0
-86 -76 -89 -51 -52 0
-91 -76 -94 -51 -52 0
-86 -83 -89 -51 -53 0
-91 -83 -94 -51 -53 0
-91 -89 -94 -51 -54 0
-86 -83 -89 -52 -53 0
-91 -83 -94 -52 -53 0
-91 -89 -94 -52 -54 0
-91 -89 -94 -53 -54 0
-86 -83 -89 -61 -62 0
-91 -83 -94 -61 -62 0
-91 -89 -94 -61 -63 0
-91 -89 -94 -62 -63 0
-91 -89 -94 -70 -71 0
-46 -39 -50 -1 -2 0
-56 -39 -60 -1 -2 0
-65 -39 -69 -1 -2 0
-73 -39 -77 -1 -2 0
-80 -39 -84 -1 -2 0
-86 -39 -90 -1 -2 0
-91 -39 -95 -1 -2 0
-56 -50 -60 -1 -3 0
-65 -50 -69 -1 -3 0
-73 -50 -77 -1 -3 0
-80 -50 -84 -1 -3 0
-86 -50 -90 -1 -3 0
-91 -50 -95 -1 -3 0
-65 -60 -69 -1 -4 0
-73 -60 -77 -1 -4 0
-80 -60 -84 -1 -4 0
-86 -60 -90 -1 -4 0
-91 -60 -95 -1 -4 0
-73 -69 -77 -1 -5 0
-80 -69 -84 -1 -5 0
-86 -69 -90 -1 -5 0
-91 -69 -95 -1 -5 0
-80 -77 -84 -1 -6 0
-86 -77 -90 -1 -6 0
-91 -77 -95 -1 -6 0
-86 -84 -90 -1 -7 0
-91 -84 -95 -1 -7 0
-91 -90 -95 -1 -8 0
-56 -50 -60 -2 -3 0
-65 -50 -69 -2 -3 0
-73 -50 -77 -2 -3 0
-80 -50 -84 -2 -3 0
-86 -50 -90 -2 -3 0
-91 -50 -95 -2 -3 0
-65 -60 -69 -2 -4 0
-73 -60 -77 -2 -4 0
-80 -60 -84 -2 -4 0
-86 -60 -90 -2 -4 0
-91 -60 -95 -2 -4 0
-73 -69 -77 -2 -5 0
-80 -69 -84 -2 -5 0
-86 -69 -90 -2 -5 0
-91 -69 -95 -2 -5 0
-80 -77 -84 -2 -6 0
-86 -77 -90 -2 -6 0
-91 -77 -95 -2 -6 0
-86 -84 -90 -2 -7 0
-91 -84 -95 -2 -7 0
-91 -90 -95 -2 -8 0
-65 -60 -69 -3 -4 0
-73 -60 -77 -3 -4 0
-80 -60 -84 -3 -4 0
-86 -60 -90 -3 -4 0
-91 -60 -95 -3 -4 0
-73 -69 -77 -3 -5 0
-80 -69 -84 -3 -5 0
-86 -69 -90 -3 -5 0
-91 -69 -95 -3 -5 0
-80 -77 -84 -3 -6 0
-86 -77 -90 -3 -6 0
-91 -77 -95 -3 -6 0
-86 -84 -90 -3 -7 0
-91 -84 -95 -3 -7 0
-91 -90 -95 -3 -8 0
-73 -69 -77 -4 -5 0
-80 -69 -84 -4 -5 0
-86 -69 -90 -4 -5 0
-91 -69 -95 -4 -5 0
-80 -77 -84 -4 -6 0
-86 -77 -90 -4 -6 0
-91 -77 -95 -4 -6 0
-86 -84 -90 -4 -7 0
-91 -84 -95 -4 -7 0
-91 -90 -95 -4 -8 0
-80 -77 -84 -5 -6 0
-86 -77 -90 -5 -6 0
-91 -77 -95 -5 -6 0
-86 -84 -90 -5 -7 0
-91 -84 -95 -5 -7 0
-91 -90 -95 -5 -8 0
-86 -84 -90 -6 -7 0
-91 -84 -95 -6 -7 0
-91 -90 -95 -6 -8 0
-91 -90 -95 -7 -8 0
-56 -50 -60 -15 -16 0
-65 -50 -69 -15 -16 0
-73 -50 -77 -15 -16 0
-80 -50 -84 -15 -16 0
-86 -50 -90 -15 -16 0
-91 -50 -95 -15 -16 0
-65 -60 -69 -15 -17 0
-73 -60 -77 -15 -17 0
-80 -60 -84 -15 -17 0
-86 -60 -90 -15 -17 0
-91 -60 -95 -15 -17 0
-73 -69 -77 -15 -18 0
-80 -69 -84 -15 -18 0
-86 -69 -90 -15 -18 0
-91 -69 -95 -15 -18 0
-80 -77 -84 -15 -19 0
-86 -77 -90 -15 -19 0
-91 -77 -95 -15 -19 0
-86 -84 -90 -15 -20 0
-91 -84 -95 -15 -20 0
-91 -90 -95 -15 -21 0
-65 -60 -69 -16 -17 0
-73 -60 -77 -16 -17 0
-80 -60 -84 -16 -17 0
-86 -60 -90 -16 -17 0
-91 -60 -95 -16 -17 0
-73 -69 -77 -16 -18 0
-80 -69 -84 -16 -18 0
-86 -69 -90 -16 -18 0
-91 -69 -95 -16 -18 0
-80 -77 -84 -16 -19 0
-86 -77 -90 -16 -19 0
-91 -77 -95 -16 -19 0
-86 -84 -90 -16 -20 0
-91 -84 -95 -16 -20 0
-91 -90 -95 -16 -21 0
-73 -69 -77 -17 -18 0
-80 -69 -84 -17 -18 0
-86 -69 -90 -17 -18 0
-91 -69 -95 -17 -18 0
-80 -77 -84 -17 -19 0
-86 -77 -90 -17 -19 0
-91 -77 -95 -17 -19 0
-86 -84 -90 -17 -20 0
-91 -84 -95 -17 -20 0
-91 -90 -95 -17 -21 0
-80 -77 -84 -18 -19 0
-86 -77 -90 -18 -19 0
-91 -77 -95 -18 -19 0
-86 -84 -90 -18 -20 0
-91 -84 -95 -18 -20 0
-91 -90 -95 -18 -21 0
-86 -84 -90 -19 -20 0
-91 -84 -95 -19 -20 0
-91 -90 -95 -19 -21 0
-91 -90 -95 -20 -21 0
-65 -60 -69 -28 -29 0
-73 -60 -77 -28 -29 0
-80 -60 -84 -28 -29 0
-86 -60 -90 -28 -29 0
-91 -60 -95 -28 -29 0
-73 -69 -77 -28 -30 0
-80 -69 -84 -28 -30 0
-86 -69 -90 -28 -30 0
-91 -69 -95 -28 -30 0
-80 -77 -84 -28 -31 0
-86 -77 -90 -28 -31 0
-91 -77 -95 -28 -31 0
-86 -84 -90 -28 -32 0
-91 -84 -95 -28 -32 0
-91 -90 -95 -28 -33 0
-73 -69 -77 -29 -30 0
-80 -69 -84 -29 -30 0
-86 -69 -90 -29 -30 0
-91 -69 -95 -29 -30 0
-80 -77 -84 -29 -31 0
-86 -77 -90 -29 -31 0
-91 -77 -95 -29 -31 0
-86 -84 -90 -29 -32 0
-91 -84 -95 -29 -32 0
-91 -90 -95 -29 -33 0
-80 -77 -84 -30 -31 0
-86 -77 -90 -30 -31 0
-91 -77 -95 -30 -31 0
-86 -84 -90 -30 -32 0
-91 -84 -95 -30 -32 0
-91 -90 -95 -30 -33 0
-86 -84 -90 -31 -32 0
-91 -84 -95 -31 -32 0
-91 -90 -95 -31 -33 0
-91 -90 -95 -32 -33 0
-73 -69 -77 -40 -41 0
-80 -69 -84 -40 -41 0
-86 -69 -90 -40 -41 0
-91 -69 -95 -40 -41 0
-80 -77 -84 -40 -42 0
-86 -77 -90 -40 -42 0
-91 -77 -95 -40 -42 0
-86 -84 -90 -40 -43 0
-91 -84 -95 -40 -43 0
-91 -90 -95 -40 -44 0
-80 -77 -84 -41 -42 0
-86 -77 -90 -41 -42 0
-91 -77 -95 -41 -42 0
-86 -84 -90 -41 -43 0
-91 -84 -95 -41 -43 0
-91 -90 -95 -41 -44 0
-86 -84 -90 -42 -43 0
-91 -84 -95 -42 -43 0
-91 -90 -95 -42 -44 0
-91 -90 -95 -43 -44 0
-80 -77 -84 -51 -52 0
-86 -77 -90 -51 -52 0
-91 -77 -95 -51 -52 0
-86 -84 -90 -51 -53 0
-91 -84 -95 -51 -53 0
-91 -90 -95 -51 -54 0
-86 -84 -90 -52 -53 0
-91 -84 -95 -52 -53 0
-91 -90 -95 -52 -54 0
-91 -90 -95 -53 -54 0
-86 -84 -90 -61 -62 0
-91 -84 -95 -61 -62 0
-91 -90 -95 -61 -63 0
-91 -90 -95 -62 -63 0
-91 -90 -95 -70 -71 0
-56 -3 -4 -15 -16 0
-65 -3 -5 -15 -16 0
-73 -3 -6 -15 -16 0
-80 -3 -7 -15 -16 0
-86 -3 -8 -15 -16 0
-91 -3 -9 -15 -16 0
-65 -4 -5 -15 -17 0
-73 -4 -6 -15 -17 0
-80 -4 -7 -15 -17 0
-86 -4 -8 -15 -17 0
-91 -4 -9 -15 -17 0
-73 -5 -6 -15 -18 0
-80 -5 -7 -15 -18 0
-86 -5 -8 -15 -18 0
-91 -5 -9 -15 -18 0
-80 -6 -7 -15 -19 0
-86 -6 -8 -15 -19 0
-91 -6 -9 -15 -19 0
-86 -7 -8 -15 -20 0
-91 -7 -9 -15 -20 0
-91 -8 -9 -15 -21 0
-65 -4 -5 -16 -17 0
-73 -4 -6 -16 -17 0
-80 -4 -7 -16 -17 0
-86 -4 -8 -16 -17 0
-91 -4 -9 -16 -17 0
-73 -5 -6 -16 -18 0
-80 -5 -7 -16 -18 0
-86 -5 -8 -16 -18 0
-91 -5 -9 -16 -18 0
-80 -6 -7 -16 -19 0
-86 -6 -8 -16 -19 0
-91 -6 -9 -16 -19 0
-86 -7 -8 -16 -20 0
-91 -7 -9 -16 -20 0
-91 -8 -9 -16 -21 0
-73 -5 -6 -17 -18 0
-80 -5 -7 -17 -18 0
-86 -5 -8 -17 -18 0
-91 -5 -9 -17 -18 0
-80 -6 -7 -17 -19 0
-86 -6 -8 -17 -19 0
-91 -6 -9 -17 -19 0
-86 -7 -8 -17 -20 0
-91 -7 -9 -17 -20 0
-91 -8 -9 -17 -21 0
-80 -6 -7 -18 -19 0
-86 -6 -8 -18 -19 0
-91 -6 -9 -18 -19 0
-86 -7 -8 -18 -20 0
-91 -7 -9 -18 -20 0
-91 -8 -9 -18 -21 0
-86 -7 -8 -19 -20 0
-91 -7 -9 -19 -20 0
-91 -8 -9 -19 -21 0
-91 -8 -9 -20 -21 0
-65 -4 -5 -28 -29 0
-73 -4 -6 -28 -29 0
-80 -4 -7 -28 -29 0
-86 -4 -8 -28 -29 0
-91 -4 -9 -28 -29 0
-73 -5 -6 -28 -30 0
-80 -5 -7 -28 -30 0
-86 -5 -8 -28 -30 0
-91 -5 -9 -28 -30 0
-80 -6 -7 -28 -31 0
-86 -6 -8 -28 -31 0
-91 -6 -9 -28 -31 0
-86 -7 -8 -28 -32 0
-91 -7 -9 -28 -32 0
-91 -8 -9 -28 -33 0
-73 -5 -6 -29 -30 0
-80 -5 -7 -29 -30 0
-86 -5 -8 -29 -30 0
-91 -5 -9 -29 -30 0
-80 -6 -7 -29 -31 0
-86 -6 -8 -29 -31 0
-91 -6 -9 -29 -31 0
-86 -7 -8 -29 -32 0
-91 -7 -9 -29 -32 0
-91 -8 -9 -29 -33 0
-80 -6 -7 -30 -31 0
-86 -6 -8 -30 -31 0
-91 -6 -9 -30 -31 0
-86 -7 -8 -30 -32 0
-91 -7 -9 -30 -32 0
-91 -8 -9 -30 -33 0
-86 -7 -8 -31 -32 0
-91 -7 -9 -31 -32 0
-91 -8 -9 -31 -33 0
-91 -8 -9 -32 -33 0
-73 -5 -6 -40 -41 0
-80 -5 -7 -40 -41 0
-86 -5 -8 -40 -41 0
-91 -5 -9 -40 -41 0
-80 -6 -7 -40 -42 0
-86 -6 -8 -40 -42 0
-91 -6 -9 -40 -42 0
-86 -7 -8 -40 -43 0
-91 -7 -9 -40 -43 0
-91 -8 -9 -40 -44 0
-80 -6 -7 -41 -42 0
-86 -6 -8 -41 -42 0
-91 -6 -9 -41 -42 0
-86 -7 -8 -41 -43 0
-91 -7 -9 -41 -43 0
-91 -8 -9 -41 -44 0
-86 -7 -8 -42 -43 0
-91 -7 -9 -42 -43 0
-91 -8 -9 -42 -44 0
-91 -8 -9 -43 -44 0
-80 -6 -7 -51 -52 0
-86 -6 -8 -51 -52 0
-91 -6 -9 -51 -52 0
-86 -7 -8 -51 -53 0
-91 -7 -9 -51 -53 0
-91 -8 -9 -51 -54 0
-86 -7 -8 -52 -53 0
-91 -7 -9 -52 -53 0
-91 -8 -9 -52 -54 0
-91 -8 -9 -53 -54 0
-86 -7 -8 -61 -62 0
-91 -7 -9 -61 -62 0
-91 -8 -9 -61 -63 0
-91 -8 -9 -62 -63 0
-91 -8 -9 -70 -71 0
-65 -17 -18 -28 -29 0
-73 -17 -19 -28 -29 0
-80 -17 -20 -28 -29 0
-86 -17 -21 -28 -29 0
-91 -17 -22 -28 -29 0
-73 -18 -19 -28 -30 0
-80 -18 -20 -28 -30 0
-86 -18 -21 -28 -30 0
-91 -18 -22 -28 -30 0
-80 -19 -20 -28 -31 0
-86 -19 -21 -28 -31 0
-91 -19 -22 -28 -31 0
-86 -20 -21 -28 -32 0
-91 -20 -22 -28 -32 0
-91 -21 -22 -28 -33 0
-73 -18 -19 -29 -30 0
-80 -18 -20 -29 -30 0
-86 -18 -21 -29 -30 0
-91 -18 -22 -29 -30 0
-80 -19 -20 -29 -31 0
-86 -19 -21 -29 -31 0
-91 -19 -22 -29 -31 0
-86 -20 -21 -29 -32 0
-91 -20 -22 -29 -32 0
-91 -21 -22 -29 -33 0
-80 -19 -20 -30 -31 0
-86 -19 -21 -30 -31 0
-91 -19 -22 -30 -31 0
-86 -20 -21 -30 -32 0
-91 -20 -22 -30 -32 0
-91 -21 -22 -30 -33 0
-86 -20 -21 -31 -32 0
-91 -20 -22 -31 -32 0
-91 -21 -22 -31 -33 0
-91 -21 -22 -32 -33 0
-73 -18 -19 -40 -41 0
-80 -18 -20 -40 -41 0
-86 -18 -21 -40 -41 0
-91 -18 -22 -40 -41 0
-80 -19 -20 -40 -42 0
-86 -19 -21 -40 -42 0
-91 -19 -22 -40 -42 0
-86 -20 -21 -40 -43 0
-91 -20 -22 -40 -43 0
-91 -21 -22 -40 -44 0
-80 -19 -20 -41 -42 0
-86 -19 -21 -41 -42 0
-91 -19 -22 -41 -42 0
-86 -20 -21 -41 -43 0
-91 -20 -22 -41 -43 0
-91 -21 -22 -41 -44 0
-86 -20 -21 -42 -43 0
-91 -20 -22 -42 -43 0
-91 -21 -22 -42 -44 0
-91 -21 -22 -43 -44 0
-80 -19 -20 -51 -52 0
-86 -19 -21 -51 -52 0
-91 -19 -22 -51 -52 0
-86 -20 -21 -51 -53 0
-91 -20 -22 -51 -53 0
-91 -21 -22 -51 -54 0
-86 -20 -21 -52 -53 0
-91 -20 -22 -52 -53 0
-91 -21 -22 -52 -54 0
-91 -21 -22 -53 -54 0
-86 -20 -21 -61 -62 0
-91 -20 -22 -61 -62 0
-91 -21 -22 -61 -63 0
-91 -21 -22 -62 -63 0
-91 -21 -22 -70 -71 0
-73 -30 -31 -40 -41 0
-80 -30 -32 -40 -41 0
-86 -30 -33 -40 -41 0
-91 -30 -34 -40 -41 0
-80 -31 -32 -40 -42 0
-86 -31 -33 -40 -42 0
-91 -31 -34 -40 -42 0
-86 -32 -33 -40 -43 0
-91 -32 -34 -40 -43 0
-91 -33 -34 -40 -44 0
-80 -31 -32 -41 -42 0
-86 -31 -33 -41 -42 0
-91 -31 -34 -41 -42 0
-86 -32 -33 -41 -43 0
-91 -32 -34 -41 -43 0
-91 -33 -34 -41 -44 0
-86 -32 -33 -42 -43 0
-91 -32 -34 -42 -43 0
-91 -33 -34 -42 -44 0
-91 -33 -34 -43 -44 0
-80 -31 -32 -51 -52 0
-86 -31 -33 -51 -52 0
-91 -31 -34 -51 -52 0
-86 -32 -33 -51 -53 0
-91 -32 -34 -51 -53 0
-91 -33 -34 -51 -54 0
-86 -32 -33 -52 -53 0
-91 -32 -34 -52 -53 0
-91 -33 -34 -52 -54 0
-91 -33 -34 -53 -54 0
-86 -32 -33 -61 -62 0
-91 -32 -34 -61 -62 0
-91 -33 -34 -61 -63 0
-91 -33 -34 -62 -63 0
-91 -33 -34 -70 -71 0
-80 -42 -43 -51 -52 0
-86 -42 -44 -51 -52 0
-91 -42 -45 -51 -52 0
-86 -43 -44 -51 -53 0
-91 -43 -45 -51 -53 0
-91 -44 -45 -51 -54 0
-86 -43 -44 -52 -53 0
-91 -43 -45 -52 -53 0
-91 -44 -45 -52 -54 0
-91 -44 -45 -53 -54 0
-86 -43 -44 -61 -62 0
-91 -43 -45 -61 -62 0
-91 -44 -45 -61 -63 0
-91 -44 -45 -62 -63 0
-91 -44 -45 -70 -71 0
-86 -53 -54 -61 -62 0
-91 -53 -55 -61 -62 0
-91 -54 -55 -61 -63 0
-91 -54 -55 -62 -63 0
-91 -54 -55 -70 -71 0
-91 -63 -64 -70 -71 0
-24 -12 -25 -105 -13 0
-36 -12 -37 -105 -13 0
-47 -12 -48 -105 -13 0
-57 -12 -58 -105 -13 0
-66 -12 -67 -105 -13 0
-74 -12 -75 -105 -13 0
-81 -12 -82 -105 -13 0
-87 -12 -88 -105 -13 0
-92 -12 -93 -105 -13 0
-96 -12 -97 -105 -13 0
-36 -25 -37 -105 -26 0
-47 -25 -48 -105 -26 0
-57 -25 -58 -105 -26 0
-66 -25 -67 -105 -26 0
-74 -25 -75 -105 -26 0
-81 -25 -82 -105 -26 0
-87 -25 -88 -105 -26 0
-92 -25 -93 -105 -26 0
-96 -25 -97 -105 -26 0
-47 -37 -48 -105 -38 0
-57 -37 -58 -105 -38 0
-66 -37 -67 -105 -38 0
-74 -37 -75 -105 -38 0
-81 -37 -82 -105 -38 0
-87 -37 -88 -105 -38 0
-92 -37 -93 -105 -38 0
-96 -37 -97 -105 -38 0
-57 -48 -58 -105 -49 0
-66 -48 -67 -105 -49 0
-74 -48 -75 -105 -49 0
-81 -48 -82 -105 -49 0
-87 -48 -88 -105 -49 0
-92 -48 -93 -105 -49 0
-96 -48 -97 -105 -49 0
-66 -58 -67 -105 -59 0
-74 -58 -75 -105 -59 0
-81 -58 -82 -105 -59 0
-87 -58 -88 -105 -59 0
-92 -58 -93 -105 -59 0
-96 -58 -97 -105 -59 0
-74 -67 -75 -105 -68 0
-81 -67 -82 -105 -68 0
-87 -67 -88 -105 -68 0
-92 -67 -93 -105 -68 0
-96 -67 -97 -105 -68 0
-81 -75 -82 -105 -76 0
-87 -75 -88 -105 -76 0
-92 -75 -93 -105 -76 0
-96 -75 -97 -105 -76 0
-87 -82 -88 -105 -83 0
-92 -82 -93 -105 -83 0
-96 -82 -97 -105 -83 0
-92 -88 -93 -105 -89 0
-96 -88 -97 -105 -89 0
-96 -93 -97 -105 -94 0
-36 -25 -37 -13 -26 0
-47 -25 -48 -13 -26 0
-57 -25 -58 -13 -26 0
-66 -25 -67 -13 -26 0
-74 -25 -75 -13 -26 0
-81 -25 -82 -13 -26 0
-87 -25 -88 -13 -26 0
-92 -25 -93 -13 -26 0
-96 -25 -97 -13 -26 0
-47 -37 -48 -13 -38 0
-57 -37 -58 -13 -38 0
-66 -37 -67 -13 -38 0
-74 -37 -75 -13 -38 0
-81 -37 -82 -13 -38 0
-87 -37 -88 -13 -38 0
-92 -37 -93 -13 -38 0
-96 -37 -97 -13 -38 0
-57 -48 -58 -13 -49 0
-66 -48 -67 -13 -49 0
-74 -48 -75 -13 -49 0
-81 -48 -82 -13 -49 0
-87 -48 -88 -13 -49 0
-92 -48 -93 -13 -49 0
-96 -48 -97 -13 -49 0
-66 -58 -67 -13 -59 0
-74 -58 -75 -13 -59 0
-81 -58 -82 -13 -59 0
-87 -58 -88 -13 -59 0
-92 -58 -93 -13 -59 0
-96 -58 -97 -13 -59 0
-74 -67 -75 -13 -68 0
-81 -67 -82 -13 -68 0
-87 -67 -88 -13 -68 0
-92 -67 -93 -13 -68 0
-96 -67 -97 -13 -68 0
-81 -75 -82 -13 -76 0
-87 -75 -88 -13 -76 0
-92 -75 -93 -13 -76 0
-96 -75 -97 -13 -76 0
-87 -82 -88 -13 -83 0
-92 -82 -93 -13 -83 0
-96 -82 -97 -13 -83 0
-92 -88 -93 -13 -89 0
-96 -88 -97 -13 -89 0
-96 -93 -97 -13 -94 0
-47 -37 -48 -26 -38 0
-57 -37 -58 -26 -38 0
-66 -37 -67 -26 -38 0
-74 -37 -75 -26 -38 0
-81 -37 -82 -26 -38 0
-87 -37 -88 -26 -38 0
-92 -37 -93 -26 -38 0
-96 -37 -97 -26 -38 0
-57 -48 -58 -26 -49 0
-66 -48 -67 -26 -49 0
-74 -48 -75 -26 -49 0
-81 -48 -82 -26 -49 0
-87 -48 -88 -26 -49 0
-92 -48 -93 -26 -49 0
-96 -48 -97 -26 -49 0
-66 -58 -67 -26 -59 0
-74 -58 -75 -26 -59 0
-81 -58 -82 -26 -59 0
-87 -58 -88 -26 -59 0
-92 -58 -93 -26 -59 0
-96 -58 -97 -26 -59 0
-74 -67 -75 -26 -68 0
-81 -67 -82 -26 -68 0
-87 -67 -88 -26 -68 0
-92 -67 -93 -26 -68 0
-96 -67 -97 -26 -68 0
-81 -75 -82 -26 -76 0
-87 -75 -88 -26 -76 0
-92 -75 -93 -26 -76 0
-96 -75 -97 -26 -76 0
-87 -82 -88 -26 -83 0
-92 -82 -93 -26 -83 0
-96 -82 -97 -26 -83 0
-92 -88 -93 -26 -89 0
-96 -88 -97 -26 -89 0
-96 -93 -97 -26 -94 0
-57 -48 -58 -38 -49 0
-66 -48 -67 -38 -49 0
-74 -48 -75 -38 -49 0
-81 -48 -82 -38 -49 0
-87 -48 -88 -38 -49 0
-92 -48 -93 -38 -49 0
-96 -48 -97 -38 -49 0
-66 -58 -67 -38 -59 0
-74 -58 -75 -38 -59 0
-81 -58 -82 -38 -59 0
-87 -58 -88 -38 -59 0
-92 -58 -93 -38 -59 0
-96 -58 -97 -38 -59 0
-74 -67 -75 -38 -68 0
-81 -67 -82 -38 -68 0
-87 -67 -88 -38 -68 0
-92 -67 -93 -38 -68 0
-96 -67 -97 -38 -68 0
-81 -75 -82 -38 -76 0
-87 -75 -88 -38 -76 0
-92 -75 -93 -38 -76 0
-96 -75 -97 -38 -76 0
-87 -82 -88 -38 -83 0
-92 -82 -93 -38 -83 0
-96 -82 -97 -38 -83 0
-92 -88 -93 -38 -89 0
-96 -88 -97 -38 -89 0
-96 -93 -97 -38 -94 0
-66 -58 -67 -49 -59 0
-74 -58 -75 -49 -59 0
-81 -58 -82 -49 -59 0
-87 -58 -88 -49 -59 0
-92 -58 -93 -49 -59 0
-96 -58 -97 -49 -59 0
-74 -67 -75 -49 -68 0
-81 -67 -82 -49 -68 0
-87 -67 -88 -49 -68 0
-92 -67 -93 -49 -68 0
-96 -67 -97 -49 -68 0
-81 -75 -82 -49 -76 0
-87 -75 -88 -49 -76 0
-92 -75 -93 -49 -76 0
-96 -75 -97 -49 -76 0
-87 -82 -88 -49 -83 0
-92 -82 -93 -49 -83 0
-96 -82 -97 -49 -83 0
-92 -88 -93 -49 -89 0
-96 -88 -97 -49 -89 0
-96 -93 -97 -49 -94 0
-74 -67 -75 -59 -68 0
-81 -67 -82 -59 -68 0
-87 -67 -88 -59 -68 0
-92 -67 -93 -59 -68 0
-96 -67 -97 -59 -68 0
-81 -75 -82 -59 -76 0
-87 -75 -88 -59 -76 0
-92 -75 -93 -59 -76 0
-96 -75 -97 -59 -76 0
-87 -82 -88 -59 -83 0
-92 -82 -93 -59 -83 0
-96 -82 -97 -59 -83 0
-92 -88 -93 -59 -89 0
-96 -88 -97 -59 -89 0
-96 -93 -97 -59 -94 0
-81 -75 -82 -68 -76 0
-87 -75 -88 -68 -76 0
-92 -75 -93 -68 -76 0
-96 -75 -97 -68 -76 0
-87 -82 -88 -68 -83 0
-92 -82 -93 -68 -83 0
-96 -82 -97 -68 -83 0
-92 -88 -93 -68 -89 0
-96 -88 -97 -68 -89 0
-96 -93 -97 -68 -94 0
-87 -82 -88 -76 -83 0
-92 -82 -93 -76 -83 0
-96 -82 -97 -76 -83 0
-92 -88 -93 -76 -89 0
-96 -88 -97 -76 -89 0
-96 -93 -97 -76 -94 0
-92 -88 -93 -83 -89 0
-96 -88 -97 -83 -89 0
-96 -93 -97 -83 -94 0
-96 -93 -97 -89 -94 0
-36 -25 -37 -14 -27 0
-47 -25 -48 -14 -27 0
-57 -25 -58 -14 -27 0
-66 -25 -67 -14 -27 0
-74 -25 -75 -14 -27 0
-81 -25 -82 -14 -27 0
-87 -25 -88 -14 -27 0
-92 -25 -93 -14 -27 0
-96 -25 -97 -14 -27 0
-47 -37 -48 -14 -39 0
-57 -37 -58 -14 -39 0
-66 -37 -67 -14 -39 0
-74 -37 -75 -14 -39 0
-81 -37 -82 -14 -39 0
-87 -37 -88 -14 -39 0
-92 -37 -93 -14 -39 0
-96 -37 -97 -14 -39 0
-57 -48 -58 -14 -50 0
-66 -48 -67 -14 -50 0
-74 -48 -75 -14 -50 0
-81 -48 -82 -14 -50 0
-87 -48 -88 -14 -50 0
-92 -48 -93 -14 -50 0
-96 -48 -97 -14 -50 0
-66 -58 -67 -14 -60 0
-74 -58 -75 -14 -60 0
-81 -58 -82 -14 -60 0
-87 -58 -88 -14 -60 0
-92 -58 -93 -14 -60 0
-96 -58 -97 -14 -60 0
-74 -67 -75 -14 -69 0
-81 -67 -82 -14 -69 0
-87 -67 -88 -14 -69 0
-92 -67 -93 -14 -69 0
-96 -67 -97 -14 -69 0
-81 -75 -82 -14 -77 0
-87 -75 -88 -14 -77 0
-92 -75 -93 -14 -77 0
-96 -75 -97 -14 -77 0
-87 -82 -88 -14 -84 0
-92 -82 -93 -14 -84 0
-96 -82 -97 -14 -84 0
-92 -88 -93 -14 -90 0
-96 -88 -97 -14 -90 0
-96 -93 -97 -14 -95 0
-47 -37 -48 -27 -39 0
-57 -37 -58 -27 -39 0
-66 -37 -67 -27 -39 0
-74 -37 -75 -27 -39 0
-81 -37 -82 -27 -39 0
-87 -37 -88 -27 -39 0
-92 -37 -93 -27 -39 0
-96 -37 -97 -27 -39 0
-57 -48 -58 -27 -50 0
-66 -48 -67 -27 -50 0
-74 -48 -75 -27 -50 0
-81 -48 -82 -27 -50 0
-87 -48 -88 -27 -50 0
-92 -48 -93 -27 -50 0
-96 -48 -97 -27 -50 0
-66 -58 -67 -27 -60 0
-74 -58 -75 -27 -60 0
-81 -58 -82 -27 -60 0
-87 -58 -88 -27 -60 0
-92 -58 -93 -27 -60 0
-96 -58 -97 -27 -60 0
-74 -67 -75 -27 -69 0
-81 -67 -82 -27 -69 0
-87 -67 -88 -27 -69 0
-92 -67 -93 -27 -69 0
-96 -67 -97 -27 -69 0
-81 -75 -82 -27 -77 0
-87 -75 -88 -27 -77 0
-92 -75 -93 -27 -77 0
-96 -75 -97 -27 -77 0
-87 -82 -88 -27 -84 0
-92 -82 -93 -27 -84 0
-96 -82 -97 -27 -84 0
-92 -88 -93 -27 -90 0
-96 -88 -97 -27 -90 0
-96 -93 -97 -27 -95 0
-57 -48 -58 -39 -50 0
-66 -48 -67 -39 -50 0
-74 -48 -75 -39 -50 0
-81 -48 -82 -39 -50 0
-87 -48 -88 -39 -50 0
-92 -48 -93 -39 -50 0
-96 -48 -97 -39 -50 0
-66 -58 -67 -39 -60 0
-74 -58 -75 -39 -60 0
-81 -58 -82 -39 -60 0
-87 -58 -88 -39 -60 0
-92 -58 -93 -39 -60 0
-96 -58 -97 -39 -60 0
-74 -67 -75 -39 -69 0
-81 -67 -82 -39 -69 0
-87 -67 -88 -39 -69 0
-92 -67 -93 -39 -69 0
-96 -67 -97 -39 -69 0
-81 -75 -82 -39 -77 0
-87 -75 -88 -39 -77 0
-92 -75 -93 -39 -77 0
-96 -75 -97 -39 -77 0
-87 -82 -88 -39 -84 0
-92 -82 -93 -39 -84 0
-96 -82 -97 -39 -84 0
-92 -88 -93 -39 -90 0
-96 -88 -97 -39 -90 0
-96 -93 -97 -39 -95 0
-66 -58 -67 -50 -60 0
-74 -58 -75 -50 -60 0
-81 -58 -82 -50 -60 0
-87 -58 -88 -50 -60 0
-92 -58 -93 -50 -60 0
-96 -58 -97 -50 -60 0
-74 -67 -75 -50 -69 0
-81 -67 -82 -50 -69 0
-87 -67 -88 -50 -69 0
-92 -67 -93 -50 -69 0
-96 -67 -97 -50 -69 0
-81 -75 -82 -50 -77 0
-87 -75 -88 -50 -77 0
-92 -75 -93 -50 -77 0
-96 -75 -97 -50 -77 0
-87 -82 -88 -50 -84 0
-92 -82 -93 -50 -84 0
-96 -82 -97 -50 -84 0
-92 -88 -93 -50 -90 0
-96 -88 -97 -50 -90 0
-96 -93 -97 -50 -95 0
-74 -67 -75 -60 -69 0
-81 -67 -82 -60 -69 0
-87 -67 -88 -60 -69 0
-92 -67 -93 -60 -69 0
-96 -67 -97 -60 -69 0
-81 -75 -82 -60 -77 0
-87 -75 -88 -60 -77 0
-92 -75 -93 -60 -77 0
-96 -75 -97 -60 -77 0
-87 -82 -88 -60 -84 0
-92 -82 -93 -60 -84 0
-96 -82 -97 -60 -84 0
-92 -88 -93 -60 -90 0
-96 -88 -97 -60 -90 0
-96 -93 -97 -60 -95 0
-81 -75 -82 -69 -77 0
-87 -75 -88 -69 -77 0
-92 -75 -93 -69 -77 0
-96 -75 -97 -69 -77 0
-87 -82 -88 -69 -84 0
-92 -82 -93 -69 -84 0
-96 -82 -97 -69 -84 0
-92 -88 -93 -69 -90 0
-96 -88 -97 -69 -90 0
-96 -93 -97 -69 -95 0
-87 -82 -88 -77 -84 0
-92 -82 -93 -77 -84 0
-96 -82 -97 -77 -84 0
-92 -88 -93 -77 -90 0
-96 -88 -97 -77 -90 0
-96 -93 -97 -77 -95 0
-92 -88 -93 -84 -90 0
-96 -88 -97 -84 -90 0
-96 -93 -97 -84 -95 0
-96 -93 -97 -90 -95 0
-47 -37 -48 -1 -2 0
-57 -37 -58 -1 -2 0
-66 -37 -67 -1 -2 0
-74 -37 -75 -1 -2 0
-81 -37 -82 -1 -2 0
-87 -37 -88 -1 -2 0
-92 -37 -93 -1 -2 0
-96 -37 -97 -1 -2 0
-57 -48 -58 -1 -3 0
-66 -48 -67 -1 -3 0
-74 -48 -75 -1 -3 0
-81 -48 -82 -1 -3 0
-87 -48 -88 -1 -3 0
-92 -48 -93 -1 -3 0
-96 -48 -97 -1 -3 0
-66 -58 -67 -1 -4 0
-74 -58 -75 -1 -4 0
-81 -58 -82 -1 -4 0
-87 -58 -88 -1 -4 0
-92 -58 -93 -1 -4 0
-96 -58 -97 -1 -4 0
-74 -67 -75 -1 -5 0
-81 -67 -82 -1 -5 0
-87 -67 -88 -1 -5 0
-92 -67 -93 -1 -5 0
-96 -67 -97 -1 -5 0
-81 -75 -82 -1 -6 0
-87 -75 -88 -1 -6 0
-92 -75 -93 -1 -6 0
-96 -75 -97 -1 -6 0
-87 -82 -88 -1 -7 0
-92 -82 -93 -1 -7 0
-96 -82 -97 -1 -7 0
-92 -88 -93 -1 -8 0
-96 -88 -97 -1 -8 0
-96 -93 -97 -1 -9 0
-57 -48 -58 -2 -3 0
-66 -48 -67 -2 -3 0
-74 -48 -75 -2 -3 0
-81 -48 -82 -2 -3 0
-87 -48 -88 -2 -3 0
-92 -48 -93 -2 -3 0
-96 -48 -97 -2 -3 0
-66 -58 -67 -2 -4 0
-74 -58 -75 -2 -4 0
-81 -58 -82 -2 -4 0
-87 -58 -88 -2 -4 0
-92 -58 -93 -2 -4 0
-96 -58 -97 -2 -4 0
-74 -67 -75 -2 -5 0
-81 -67 -82 -2 -5 0
-87 -67 -88 -2 -5 0
-92 -67 -93 -2 -5 0
-96 -67 -97 -2 -5 0
-81 -75 -82 -2 -6 0
-87 -75 -88 -2 -6 0
-92 -75 -93 -2 -6 0
-96 -75 -97 -2 -6 0
-87 -82 -88 -2 -7 0
-92 -82 -93 -2 -7 0
-96 -82 -97 -2 -7 0
-92 -88 -93 -2 -8 0
-96 -88 -97 -2 -8 0
-96 -93 -97 -2 -9 0
-66 -58 -67 -3 -4 0
-74 -58 -75 -3 -4 0
-81 -58 -82 -3 -4 0
-87 -58 -88 -3 -4 0
-92 -58 -93 -3 -4 0
-96 -58 -97 -3 -4 0
-74 -67 -75 -3 -5 0
-81 -67 -82 -3 -5 0
-87 -67 -88 -3 -5 0
-92 -67 -93 -3 -5 0
-96 -67 -97 -3 -5 0
-81 -75 -82 -3 -6 0
-87 -75 -88 -3 -6 0
-92 -75 -93 -3 -6 0
-96 -75 -97 -3 -6 0
-87 -82 -88 -3 -7 0
-92 -82 -93 -3 -7 0
-96 -82 -97 -3 -7 0
-92 -88 -93 -3 -8 0
-96 -88 -97 -3 -8 0
-96 -93 -97 -3 -9 0
-74 -67 -75 -4 -5 0
-81 -67 -82 -4 -5 0
-87 -67 -88 -4 -5 0
-92 -67 -93 -4 -5 0
-96 -67 -97 -4 -5 0
-81 -75 -82 -4 -6 0
-87 -75 -88 -4 -6 0
-92 -75 -93 -4 -6 0
-96 -75 -97 -4 -6 0
-87 -82 -88 -4 -7 0
-92 -82 -93 -4 -7 0
-96 -82 -97 -4 -7 0
-92 -88 -93 -4 -8 0
-96 -88 -97 -4 -8 0
-96 -93 -97 -4 -9 0
-81 -75 -82 -5 -6 0
-87 -75 -88 -5 -6 0
-92 -75 -93 -5 -6 0
-96 -75 -97 -5 -6 0
-87 -82 -88 -5 -7 0
-92 -82 -93 -5 -7 0
-96 -82 -97 -5 -7 0
-92 -88 -93 -5 -8 0
-96 -88 -97 -5 -8 0
-96 -93 -97 -5 -9 0
-87 -82 -88 -6 -7 0
-92 -82 -93 -6 -7 0
-96 -82 -97 -6 -7 0
-92 -88 -93 -6 -8 0
-96 -88 -97 -6 -8 0
-96 -93 -97 -6 -9 0
-92 -88 -93 -7 -8 0
-96 -88 -97 -7 -8 0
-96 -93 -97 -7 -9 0
-96 -93 -97 -8 -9 0
-57 -48 -58 -15 -16 0
-66 -48 -67 -15 -16 0
-74 -48 -75 -15 -16 0
-81 -48 -82 -15 -16 0
-87 -48 -88 -15 -16 0
-92 -48 -93 -15 -16 0
-96 -48 -97 -15 -16 0
-66 -58 -67 -15 -17 0
-74 -58 -75 -15 -17 0
-81 -58 -82 -15 -17 0
-87 -58 -88 -15 -17 0
-92 -58 -93 -15 -17 0
-96 -58 -97 -15 -17 0
-74 -67 -75 -15 -18 0
-81 -67 -82 -15 -18 0
-87 -67 -88 -15 -18 0
-92 -67 -93 -15 -18 0
-96 -67 -97 -15 -18 0
-81 -75 -82 -15 -19 0
-87 -75 -88 -15 -19 0
-92 -75 -93 -15 -19 0
-96 -75 -97 -15 -19 0
-87 -82 -88 -15 -20 0
-92 -82 -93 -15 -20 0
-96 -82 -97 -15 -20 0
-92 -88 -93 -15 -21 0
-96 -88 -97 -15 -21 0
-96 -93 -97 -15 -22 0
-66 -58 -67 -16 -17 0
-74 -58 -75 -16 -17 0
-81 -58 -82 -16 -17 0
-87 -58 -88 -16 -17 0
-92 -58 -93 -16 -17 0
-96 -58 -97 -16 -17 0
-74 -67 -75 -16 -18 0
-81 -67 -82 -16 -18 0
-87 -67 -88 -16 -18 0
-92 -67 -93 -16 -18 0
-96 -67 -97 -16 -18 0
-81 -75 -82 -16 -19 0
-87 -75 -88 -16 -19 0
-92 -75 -93 -16 -19 0
-96 -75 -97 -16 -19 0
-87 -82 -88 -16 -20 0
-92 -82 -93 -16 -20 0
-96 -82 -97 -16 -20 0
-92 -88 -93 -16 -21 0
-96 -88 -97 -16 -21 0
-96 -93 -97 -16 -22 0
-74 -67 -75 -17 -18 0
-81 -67 -82 -17 -18 0
-87 -67 -88 -17 -18 0
-92 -67 -93 -17 -18 0
-96 -67 -97 -17 -18 0
-81 -75 -82 -17 -19 0
-87 -75 -88 -17 -19 0
-92 -75 -93 -17 -19 0
-96 -75 -97 -17 -19 0
-87 -82 -88 -17 -20 0
-92 -82 -93 -17 -20 0
-96 -82 -97 -17 -20 0
-92 -88 -93 -17 -21 0
-96 -88 -97 -17 -21 0
-96 -93 -97 -17 -22 0
-81 -75 -82 -18 -19 0
-87 -75 -88 -18 -19 0
-92 -75 -93 -18 -19 0
-96 -75 -97 -18 -19 0
-87 -82 -88 -18 -20 0
-92 -82 -93 -18 -20 0
-96 -82 -97 -18 -20 0
-92 -88 -93 -18 -21 0
-96 -88 -97 -18 -21 0
-96 -93 -97 -18 -22 0
-87 -82 -88 -19 -20 0
-92 -82 -93 -19 -20 0
-96 -82 -97 -19 -20 0
-92 -88 -93 -19 -21 0
-96 -88 -97 -19 -21 0
-96 -93 -97 -19 -22 0
-92 -88 -93 -20 -21 0
-96 -88 -97 -20 -21 0
-96 -93 -97 -20 -22 0
-96 -93 -97 -21 -22 0
-66 -58 -67 -28 -29 0
-74 -58 -75 -28 -29 0
-81 -58 -82 -28 -29 0
-87 -58 -88 -28 -29 0
-92 -58 -93 -28 -29 0
-96 -58 -97 -28 -29 0
-74 -67 -75 -28 -30 0
-81 -67 -82 -28 -30 0
-87 -67 -88 -28 -30 0
-92 -67 -93 -28 -30 0
-96 -67 -97 -28 -30 0
-81 -75 -82 -28 -31 0
-87 -75 -88 -28 -31 0
-92 -75 -93 -28 -31 0
-96 -75 -97 -28 -31 0
-87 -82 -88 -28 -32 0
-92 -82 -93 -28 -32 0
-96 -82 -97 -28 -32 0
-92 -88 -93 -28 -33 0
-96 -88 -97 -28 -33 0
-96 -93 -97 -28 -34 0
-74 -67 -75 -29 -30 0
-81 -67 -82 -29 -30 0
-87 -67 -88 -29 -30 0
-92 -67 -93 -29 -30 0
-96 -67 -97 -29 -30 0
-81 -75 -82 -29 -31 0
-87 -75 -88 -29 -31 0
-92 -75 -93 -29 -31 0
-96 -75 -97 -29 -31 0
-87 -82 -88 -29 -32 0
-92 -82 -93 -29 -32 0
-96 -82 -97 -29 -32 0
-92 -88 -93 -29 -33 0
-96 -88 -97 -29 -33 0
-96 -93 -97 -29 -34 0
-81 -75 -82 -30 -31 0
-87 -75 -88 -30 -31 0
-92 -75 -93 -30 -31 0
-96 -75 -97 -30 -31 0
-87 -82 -88 -30 -32 0
-92 -82 -93 -30 -32 0
-96 -82 -97 -30 -32 0
-92 -88 -93 -30 -33 0
-96 -88 -97 -30 -33 0
-96 -93 -97 -30 -34 0
-87 -82 -88 -31 -32 0
-92 -82 -93 -31 -32 0
-96 -82 -97 -31 -32 0
-92 -88 -93 -31 -33 0
-96 -88 -97 -31 -33 0
-96 -93 -97 -31 -34 0
-92 -88 -93 -32 -33 0
-96 -88 -97 -32 -33 0
-96 -93 -97 -32 -34 0
-96 -93 -97 -33 -34 0
-74 -67 -75 -40 -41 0
-81 -67 -82 -40 -41 0
-87 -67 -88 -40 -41 0
-92 -67 -93 -40 -41 0
-96 -67 -97 -40 -41 0
-81 -75 -82 -40 -42 0
-87 -75 -88 -40 -42 0
-92 -75 -93 -40 -42 0
-96 -75 -97 -40 -42 0
-87 -82 -88 -40 -43 0
-92 -82 -93 -40 -43 0
-96 -82 -97 -40 -43 0
-92 -88 -93 -40 -44 0
-96 -88 -97 -40 -44 0
-96 -93 -97 -40 -45 0
-81 -75 -82 -41 -42 0
-87 -75 -88 -41 -42 0
-92 -75 -93 -41 -42 0
-96 -75 -97 -41 -42 0
-87 -82 -88 -41 -43 0
-92 -82 -93 -41 -43 0
-96 -82 -97 -41 -43 0
-92 -88 -93 -41 -44 0
-96 -88 -97 -41 -44 0
-96 -93 -97 -41 -45 0
-87 -82 -88 -42 -43 0
-92 -82 -93 -42 -43 0
-96 -82 -97 -42 -43 0
-92 -88 -93 -42 -44 0
-96 -88 -97 -42 -44 0
-96 -93 -97 -42 -45 0
-92 -88 -93 -43 -44 0
-96 -88 -97 -43 -44 0
-96 -93 -97 -43 -45 0
-96 -93 -97 -44 -45 0
-81 -75 -82 -51 -52 0
-87 -75 -88 -51 -52 0
-92 -75 -93 -51 -52 0
-96 -75 -97 -51 -52 0
-87 -82 -88 -51 -53 0
-92 -82 -93 -51 -53 0
-96 -82 -97 -51 -53 0
-92 -88 -93 -51 -54 0
-96 -88 -97 -51 -54 0
-96 -93 -97 -51 -55 0
-87 -82 -88 -52 -53 0
-92 -82 -93 -52 -53 0
-96 -82 -97 -52 -53 0
-92 -88 -93 -52 -54 0
-96 -88 -97 -52 -54 0
-96 -93 -97 -52 -55 0
-92 -88 -93 -53 -54 0
-96 -88 -97 -53 -54 0
-96 -93 -97 -53 -55 0
-96 -93 -97 -54 -55 0
-87 -82 -88 -61 -62 0
-92 -82 -93 -61 -62 0
-96 -82 -97 -61 -62 0
-92 -88 -93 -61 -63 0
-96 -88 -97 -61 -63 0
-96 -93 -97 -61 -64 0
-92 -88 -93 -62 -63 0
-96 -88 -97 -62 -63 0
-96 -93 -97 -62 -64 0
-96 -93 -97 -63 -64 0
-92 -88 -93 -70 -71 0
-96 -88 -97 -70 -71 0
-96 -93 -97 -70 -72 0
-96 -93 -97 -71 -72 0
-96 -93 -97 -78 -79 0
-36 -26 -38 -14 -27 0
-47 -26 -49 -14 -27 0
-57 -26 -59 -14 -27 0
-66 -26 -68 -14 -27 0
-74 -26 -76 -14 -27 0
-81 -26 -83 -14 -27 0
-87 -26 -89 -14 -27 0
-92 -26 -94 -14 -27 0
-96 -26 -98 -14 -27 0
-47 -38 -49 -14 -39 0
-57 -38 -59 -14 -39 0
-66 -38 -68 -14 -39 0
-74 -38 -76 -14 -39 0
-81 -38 -83 -14 -39 0
-87 -38 -89 -14 -39 0
-92 -38 -94 -14 -39 0
-96 -38 -98 -14 -39 0
-57 -49 -59 -14 -50 0
-66 -49 -68 -14 -50 0
-74 -49 -76 -14 -50 0
-81 -49 -83 -14 -50 0
-87 -49 -89 -14 -50 0
-92 -49 -94 -14 -50 0
-96 -49 -98 -14 -50 0
-66 -59 -68 -14 -60 0
-74 -59 -76 -14 -60 0
-81 -59 -83 -14 -60 0
-87 -59 -89 -14 -60 0
-92 -59 -94 -14 -60 0
-96 -59 -98 -14 -60 0
-74 -68 -76 -14 -69 0
-81 -68 -83 -14 -69 0
-87 -68 -89 -14 -69 0
-92 -68 -94 -14 -69 0
-96 -68 -98 -14 -69 0
-81 -76 -83 -14 -77 0
-87 -76 -89 -14 -77 0
-92 -76 -94 -14 -77 0
-96 -76 -98 -14 -77 0
-87 -83 -89 -14 -84 0
-92 -83 -94 -14 -84 0
-96 -83 -98 -14 -84 0
-92 -89 -94 -14 -90 0
-96 -89 -98 -14 -90 0
-96 -94 -98 -14 -95 0
-47 -38 -49 -27 -39 0
-57 -38 -59 -27 -39 0
-66 -38 -68 -27 -39 0
-74 -38 -76 -27 -39 0
-81 -38 -83 -27 -39 0
-87 -38 -89 -27 -39 0
-92 -38 -94 -27 -39 0
-96 -38 -98 -27 -39 0
-57 -49 -59 -27 -50 0
-66 -49 -68 -27 -50 0
-74 -49 -76 -27 -50 0
-81 -49 -83 -27 -50 0
-87 -49 -89 -27 -50 0
-92 -49 -94 -27 -50 0
-96 -49 -98 -27 -50 0
-66 -59 -68 -27 -60 0
-74 -59 -76 -27 -60 0
-81 -59 -83 -27 -60 0
-87 -59 -89 -27 -60 0
-92 -59 -94 -27 -60 0
-96 -59 -98 -27 -60 0
-74 -68 -76 -27 -69 0
-81 -68 -83 -27 -69 0
-87 -68 -89 -27 -69 0
-92 -68 -94 -27 -69 0
-96 -68 -98 -27 -69 0
-81 -76 -83 -27 -77 0
-87 -76 -89 -27 -77 0
-92 -76 -94 -27 -77 0
-96 -76 -98 -27 -77 0
-87 -83 -89 -27 -84 0
-92 -83 -94 -27 -84 0
-96 -83 -98 -27 -84 0
-92 -89 -94 -27 -90 0
-96 -89 -98 -27 -90 0
-96 -94 -98 -27 -95 0
-57 -49 -59 -39 -50 0
-66 -49 -68 -39 -50 0
-74 -49 -76 -39 -50 0
-81 -49 -83 -39 -50 0
-87 -49 -89 -39 -50 0
-92 -49 -94 -39 -50 0
-96 -49 -98 -39 -50 0
-66 -59 -68 -39 -60 0
-74 -59 -76 -39 -60 0
-81 -59 -83 -39 -60 0
-87 -59 -89 -39 -60 0
-92 -59 -94 -39 -60 0
-96 -59 -98 -39 -60 0
-74 -68 -76 -39 -69 0
-81 -68 -83 -39 -69 0
-87 -68 -89 -39 -69 0
-92 -68 -94 -39 -69 0
-96 -68 -98 -39 -69 0
-81 -76 -83 -39 -77 0
-87 -76 -89 -39 -77 0
-92 -76 -94 -39 -77 0
-96 -76 -98 -39 -77 0
-87 -83 -89 -39 -84 0
-92 -83 -94 -39 -84 0
-96 -83 -98 -39 -84 0
-92 -89 -94 -39 -90 0
-96 -89 -98 -39 -90 0
-96 -94 -98 -39 -95 0
-66 -59 -68 -50 -60 0
-74 -59 -76 -50 -60 0
-81 -59 -83 -50 -60 0
-87 -59 -89 -50 -60 0
-92 -59 -94 -50 -60 0
-96 -59 -98 -50 -60 0
-74 -68 -76 -50 -69 0
-81 -68 -83 -50 -69 0
-87 -68 -89 -50 -69 0
-92 -68 -94 -50 -69 0
-96 -68 -98 -50 -69 0
-81 -76 -83 -50 -77 0
-87 -76 -89 -50 -77 0
-92 -76 -94 -50 -77 0
-96 -76 -98 -50 -77 0
-87 -83 -89 -50 -84 0
-92 -83 -94 -50 -84 0
-96 -83 -98 -50 -84 0
-92 -89 -94 -50 -90 0
-96 -89 -98 -50 -90 0
-96 -94 -98 -50 -95 0
-74 -68 -76 -60 -69 0
-81 -68 -83 -60 -69 0
-87 -68 -89 -60 -69 0
-92 -68 -94 -60 -69 0
-96 -68 -98 -60 -69 0
-81 -76 -83 -60 -77 0
-87 -76 -89 -60 -77 0
-92 -76 -94 -60 -77 0
-96 -76 -98 -60 -77 0
-87 -83 -89 -60 -84 0
-92 -83 -94 -60 -84 0
-96 -83 -98 -60 -84 0
-92 -89 -94 -60 -90 0
-96 -89 -98 -60 -90 0
-96 -94 -98 -60 -95 0
-81 -76 -83 -69 -77 0
-87 -76 -89 -69 -77 0
-92 -76 -94 -69 -77 0
-96 -76 -98 -69 -77 0
-87 -83 -89 -69 -84 0
-92 -83 -94 -69 -84 0
-96 -83 -98 -69 -84 0
-92 -89 -94 -69 -90 0
-96 -89 -98 -69 -90 0
-96 -94 -98 -69 -95 0
-87 -83 -89 -77 -84 0
-92 -83 -94 -77 -84 0
-96 -83 -98 -77 -84 0
-92 -89 -94 -77 -90 0
-96 -89 -98 -77 -90 0
-96 -94 -98 -77 -95 0
-92 -89 -94 -84 -90 0
-96 -89 -98 -84 -90 0
-96 -94 -98 -84 -95 0
-96 -94 -98 -90 -95 0
-47 -38 -49 -1 -2 0
-57 -38 -59 -1 -2 0
-66 -38 -68 -1 -2 0
-74 -38 -76 -1 -2 0
-81 -38 -83 -1 -2 0
-87 -38 -89 -1 -2 0
-92 -38 -94 -1 -2 0
-96 -38 -98 -1 -2 0
-57 -49 -59 -1 -3 0
-66 -49 -68 -1 -3 0
-74 -49 -76 -1 -3 0
-81 -49 -83 -1 -3 0
-87 -49 -89 -1 -3 0
-92 -49 -94 -1 -3 0
-96 -49 -98 -1 -3 0
-66 -59 -68 -1 -4 0
-74 -59 -76 -1 -4 0
-81 -59 -83 -1 -4 0
-87 -59 -89 -1 -4 0
-92 -59 -94 -1 -4 0
-96 -59 -98 -1 -4 0
-74 -68 -76 -1 -5 0
-81 -68 -83 -1 -5 0
-87 -68 -89 -1 -5 0
-92 -68 -94 -1 -5 0
-96 -68 -98 -1 -5 0
-81 -76 -83 -1 -6 0
-87 -76 -89 -1 -6 0
-92 -76 -94 -1 -6 0
-96 -76 -98 -1 -6 0
-87 -83 -89 -1 -7 0
-92 -83 -94 -1 -7 0
-96 -83 -98 -1 -7 0
-92 -89 -94 -1 -8 0
-96 -89 -98 -1 -8 0
-96 -94 -98 -1 -9 0
-57 -49 -59 -2 -3 0
-66 -49 -68 -2 -3 0
-74 -49 -76 -2 -3 0
-81 -49 -83 -2 -3 0
-87 -49 -89 -2 -3 0
-92 -49 -94 -2 -3 0
-96 -49 -98 -2 -3 0
-66 -59 -68 -2 -4 0
-74 -59 -76 -2 -4 0
-81 -59 -83 -2 -4 0
-87 -59 -89 -2 -4 0
-92 -59 -94 -2 -4 0
-96 -59 -98 -2 -4 0
-74 -68 -76 -2 -5 0
-81 -68 -83 -2 -5 0
-87 -68 -89 -2 -5 0
-92 -68 -94 -2 -5 0
-96 -68 -98 -2 -5 0
-81 -76 -83 -2 -6 0
-87 -76 -89 -2 -6 0
-92 -76 -94 -2 -6 0
-96 -76 -98 -2 -6 0
-87 -83 -89 -2 -7 0
-92 -83 -94 -2 -7 0
-96 -83 -98 -2 -7 0
-92 -89 -94 -2 -8 0
-96 -89 -98 -2 -8 0
-96 -94 -98 -2 -9 0
-66 -59 -68 -3 -4 0
-74 -59 -76 -3 -4 0
-81 -59 -83 -3 -4 0
-87 -59 -89 -3 -4 0
-92 -59 -94 -3 -4 0
-96 -59 -98 -3 -4 0
-74 -68 -76 -3 -5 0
-81 -68 -83 -3 -5 0
-87 -68 -89 -3 -5 0
-92 -68 -94 -3 -5 0
-96 -68 -98 -3 -5 0
-81 -76 -83 -3 -6 0
-87 -76 -89 -3 -6 0
-92 -76 -94 -3 -6 0
-96 -76 -98 -3 -6 0
-87 -83 -89 -3 -7 0
-92 -83 -94 -3 -7 0
-96 -83 -98 -3 -7 0
-92 -89 -94 -3 -8 0
-96 -89 -98 -3 -8 0
-96 -94 -98 -3 -9 0
-74 -68 -76 -4 -5 0
-81 -68 -83 -4 -5 0
-87 -68 -89 -4 -5 0
-92 -68 -94 -4 -5 0
-96 -68 -98 -4 -5 0
-81 -76 -83 -4 -6 0
-87 -76 -89 -4 -6 0
-92 -76 -94 -4 -6 0
-96 -76 -98 -4 -6 0
-87 -83 -89 -4 -7 0
-92 -83 -94 -4 -7 0
-96 -83 -98 -4 -7 0
-92 -89 -94 -4 -8 0
-96 -89 -98 -4 -8 0
-96 -94 -98 -4 -9 0
-81 -76 -83 -5 -6 0
-87 -76 -89 -5 -6 0
-92 -76 -94 -5 -6 0
-96 -76 -98 -5 -6 0
-87 -83 -89 -5 -7 0
-92 -83 -94 -5 -7 0
-96 -83 -98 -5 -7 0
-92 -89 -94 -5 -8 0
-96 -89 -98 -5 -8 0
-96 -94 -98 -5 -9 0
-87 -83 -89 -6 -7 0
-92 -83 -94 -6 -7 0
-96 -83 -98 -6 -7 0
-92 -89 -94 -6 -8 0
-96 -89 -98 -6 -8 0
-96 -94 -98 -6 -9 0
-92 -89 -94 -7 -8 0
-96 -89 -98 -7 -8 0
-96 -94 -98 -7 -9 0
-96 -94 -98 -8 -9 0
-57 -49 -59 -15 -16 0
-66 -49 -68 -15 -16 0
-74 -49 -76 -15 -16 0
-81 -49 -83 -15 -16 0
-87 -49 -89 -15 -16 0
-92 -49 -94 -15 -16 0
-96 -49 -98 -15 -16 0
-66 -59 -68 -15 -17 0
-74 -59 -76 -15 -17 0
-81 -59 -83 -15 -17 0
-87 -59 -89 -15 -17 0
-92 -59 -94 -15 -17 0
-96 -59 -98 -15 -17 0
-74 -68 -76 -15 -18 0
-81 -68 -83 -15 -18 0
-87 -68 -89 -15 -18 0
-92 -68 -94 -15 -18 0
-96 -68 -98 -15 -18 0
-81 -76 -83 -15 -19 0
-87 -76 -89 -15 -19 0
-92 -76 -94 -15 -19 0
-96 -76 -98 -15 -19 0
-87 -83 -89 -15 -20 0
-92 -83 -94 -15 -20 0
-96 -83 -98 -15 -20 0
-92 -89 -94 -15 -21 0
-96 -89 -98 -15 -21 0
-96 -94 -98 -15 -22 0
-66 -59 -68 -16 -17 0
-74 -59 -76 -16 -17 0
-81 -59 -83 -16 -17 0
-87 -59 -89 -16 -17 0
-92 -59 -94 -16 -17 0
-96 -59 -98 -16 -17 0
-74 -68 -76 -16 -18 0
-81 -68 -83 -16 -18 0
-87 -68 -89 -16 -18 0
-92 -68 -94 -16 -18 0
-96 -68 -98 -16 -18 0
-81 -76 -83 -16 -19 0
-87 -76 -89 -16 -19 0
-92 -76 -94 -16 -19 0
-96 -76 -98 -16 -19 0
-87 -83 -89 -16 -20 0
-92 -83 -94 -16 -20 0
-96 -83 -98 -16 -20 0
-92 -89 -94 -16 -21 0
-96 -89 -98 -16 -21 0
-96 -94 -98 -16 -22 0
-74 -68 -76 -17 -18 0
-81 -68 -83 -17 -18 0
-87 -68 -89 -17 -18 0
-92 -68 -94 -17 -18 0
-96 -68 -98 -17 -18 0
-81 -76 -83 -17 -19 0
-87 -76 -89 -17 -19 0
-92 -76 -94 -17 -19 0
-96 -76 -98 -17 -19 0
-87 -83 -89 -17 -20 0
-92 -83 -94 -17 -20 0
-96 -83 -98 -17 -20 0
-92 -89 -94 -17 -21 0
-96 -89 -98 -17 -21 0
-96 -94 -98 -17 -22 0
-81 -76 -83 -18 -19 0
-87 -76 -89 -18 -19 0
-92 -76 -94 -18 -19 0
-96 -76 -98 -18 -19 0
-87 -83 -89 -18 -20 0
-92 -83 -94 -18 -20 0
-96 -83 -98 -18 -20 0
-92 -89 -94 -18 -21 0
-96 -89 -98 -18 -21 0
-96 -94 -98 -18 -22 0
-87 -83 -89 -19 -20 0
-92 -83 -94 -19 -20 0
-96 -83 -98 -19 -20 0
-92 -89 -94 -19 -21 0
-96 -89 -98 -19 -21 0
-96 -94 -98 -19 -22 0
-92 -89 -94 -20 -21 0
-96 -89 -98 -20 -21 0
-96 -94 -98 -20 -22 0
-96 -94 -98 -21 -22 0
-66 -59 -68 -28 -29 0
-74 -59 -76 -28 -29 0
-81 -59 -83 -28 -29 0
-87 -59 -89 -28 -29 0
-92 -59 -94 -28 -29 0
-96 -59 -98 -28 -29 0
-74 -68 -76 -28 -30 0
-81 -68 -83 -28 -30 0
-87 -68 -89 -28 -30 0
-92 -68 -94 -28 -30 0
-96 -68 -98 -28 -30 0
-81 -76 -83 -28 -31 0
-87 -76 -89 -28 -31 0
-92 -76 -94 -28 -31 0
-96 -76 -98 -28 -31 0
-87 -83 -89 -28 -32 0
-92 -83 -94 -28 -32 0
-96 -83 -98 -28 -32 0
-92 -89 -94 -28 -33 0
-96 -89 -98 -28 -33 0
-96 -94 -98 -28 -34 0
-74 -68 -76 -29 -30 0
-81 -68 -83 -29 -30 0
-87 -68 -89 -29 -30 0
-92 -68 -94 -29 -30 0
-96 -68 -98 -29 -30 0
-81 -76 -83 -29 -31 0
-87 -76 -89 -29 -31 0
-92 -76 -94 -29 -31 0
-96 -76 -98 -29 -31 0
-87 -83 -89 -29 -32 0
-92 -83 -94 -29 -32 0
-96 -83 -98 -29 -32 0
-92 -89 -94 -29 -33 0
-96 -89 -98 -29 -33 0
-96 -94 -98 -29 -34 0
-81 -76 -83 -30 -31 0
-87 -76 -89 -30 -31 0
-92 -76 -94 -30 -31 0
-96 -76 -98 -30 -31 0
-87 -83 -89 -30 -32 0
-92 -83 -94 -30 -32 0
-96 -83 -98 -30 -32 0
-92 -89 -94 -30 -33 0
-96 -89 -98 -30 -33 0
-96 -94 -98 -30 -34 0
-87 -83 -89 -31 -32 0
-92 -83 -94 -31 -32 0
-96 -83 -98 -31 -32 0
-92 -89 -94 -31 -33 0
-96 -89 -98 -31 -33 0
-96 -94 -98 -31 -34 0
-92 -89 -94 -32 -33 0
-96 -89 -98 -32 -33 0
-96 -94 -98 -32 -34 0
-96 -94 -98 -33 -34 0
-74 -68 -76 -40 -41 0
-81 -68 -83 -40 -41 0
-87 -68 -89 -40 -41 0
-92 -68 -94 -40 -41 0
-96 -68 -98 -40 -41 0
-81 -76 -83 -40 -42 0
-87 -76 -89 -40 -42 0
-92 -76 -94 -40 -42 0
-96 -76 -98 -40 -42 0
-87 -83 -89 -40 -43 0
-92 -83 -94 -40 -43 0
-96 -83 -98 -40 -43 0
-92 -89 -94 -40 -44 0
-96 -89 -98 -40 -44 0
-96 -94 -98 -40 -45 0
-81 -76 -83 -41 -42 0
-87 -76 -89 -41 -42 0
-92 -76 -94 -41 -42 0
-96 -76 -98 -41 -42 0
-87 -83 -89 -41 -43 0
-92 -83 -94 -41 -43 0
-96 -83 -98 -41 -43 0
-92 -89 -94 -41 -44 0
-96 -89 -98 -41 -44 0
-96 -94 -98 -41 -45 0
-87 -83 -89 -42 -43 0
-92 -83 -94 -42 -43 0
-96 -83 -98 -42 -43 0
-92 -89 -94 -42 -44 0
-96 -89 -98 -42 -44 0
-96 -94 -98 -42 -45 0
-92 -89 -94 -43 -44 0
-96 -89 -98 -43 -44 0
-96 -94 -98 -43 -45 0
-96 -94 -98 -44 -45 0
-81 -76 -83 -51 -52 0
-87 -76 -89 -51 -52 0
-92 -76 -94 -51 -52 0
-96 -76 -98 -51 -52 0
-87 -83 -89 -51 -53 0
-92 -83 -94 -51 -53 0
-96 -83 -98 -51 -53 0
-92 -89 -94 -51 -54 0
-96 -89 -98 -51 -54 0
-96 -94 -98 -51 -55 0
-87 -83 -89 -52 -53 0
-92 -83 -94 -52 -53 0
-96 -83 -98 -52 -53 0
-92 -89 -94 -52 -54 0
-96 -89 -98 -52 -54 0
-96 -94 -98 -52 -55 0
-92 -89 -94 -53 -54 0
-96 -89 -98 -53 -54 0
-96 -94 -98 -53 -55 0
-96 -94 -98 -54 -55 0
-87 -83 -89 -61 -62 0
-92 -83 -94 -61 -62 0
-96 -83 -98 -61 -62 0
-92 -89 -94 -61 -63 0
-96 -89 -98 -61 -63 0
-96 -94 -98 -61 -64 0
-92 -89 -94 -62 -63 0
-96 -89 -98 -62 -63 0
-96 -94 -98 -62 -64 0
-96 -94 -98 -63 -64 0
-92 -89 -94 -70 -71 0
-96 -89 -98 -70 -71 0
-96 -94 -98 -70 -72 0
-96 -94 -98 -71 -72 0
-96 -94 -98 -78 -79 0
-47 -39 -50 -1 -2 0
-57 -39 -60 -1 -2 0
-66 -39 -69 -1 -2 0
-74 -39 -77 -1 -2 0
-81 -39 -84 -1 -2 0
-87 -39 -90 -1 -2 0
-92 -39 -95 -1 -2 0
-96 -39 -99 -1 -2 0
-57 -50 -60 -1 -3 0
-66 -50 -69 -1 -3 0
-74 -50 -77 -1 -3 0
-81 -50 -84 -1 -3 0
-87 -50 -90 -1 -3 0
-92 -50 -95 -1 -3 0
-96 -50 -99 -1 -3 0
-66 -60 -69 -1 -4 0
-74 -60 -77 -1 -4 0
-81 -60 -84 -1 -4 0
-87 -60 -90 -1 -4 0
-92 -60 -95 -1 -4 0
-96 -60 -99 -1 -4 0
-74 -69 -77 -1 -5 0
-81 -69 -84 -1 -5 0
-87 -69 -90 -1 -5 0
-92 -69 -95 -1 -5 0
-96 -69 -99 -1 -5 0
-81 -77 -84 -1 -6 0
-87 -77 -90 -1 -6 0
-92 -77 -95 -1 -6 0
-96 -77 -99 -1 -6 0
-87 -84 -90 -1 -7 0
-92 -84 -95 -1 -7 0
-96 -84 -99 -1 -7 0
-92 -90 -95 -1 -8 0
-96 -90 -99 -1 -8 0
-96 -95 -99 -1 -9 0
-57 -50 -60 -2 -3 0
-66 -50 -69 -2 -3 0
-74 -50 -77 -2 -3 0
-81 -50 -84 -2 -3 0
-87 -50 -90 -2 -3 0
-92 -50 -95 -2 -3 0
-96 -50 -99 -2 -3 0
-66 -60 -69 -2 -4 0
-74 -60 -77 -2 -4 0
-81 -60 -84 -2 -4 0
-87 -60 -90 -2 -4 0
-92 -60 -95 -2 -4 0
-96 -60 -99 -2 -4 0
-74 -69 -77 -2 -5 0
-81 -69 -84 -2 -5 0
-87 -69 -90 -2 -5 0
-92 -69 -95 -2 -5 0
-96 -69 -99 -2 -5 0
-81 -77 -84 -2 -6 0
-87 -77 -90 -2 -6 0
-92 -77 -95 -2 -6 0
-96 -77 -99 -2 -6 0
-87 -84 -90 -2 -7 0
-92 -84 -95 -2 -7 0
-96 -84 -99 -2 -7 0
-92 -90 -95 -2 -8 0
-96 -90 -99 -2 -8 0
-96 -95 -99 -2 -9 0
-66 -60 -69 -3 -4 0
-74 -60 -77 -3 -4 0
-81 -60 -84 -3 -4 0
-87 -60 -90 -3 -4 0
-92 -60 -95 -3 -4 0
-96 -60 -99 -3 -4 0
-74 -69 -77 -3 -5 0
-81 -69 -84 -3 -5 0
-87 -69 -90 -3 -5 0
-92 -69 -95 -3 -5 0
-96 -69 -99 -3 -5 0
-81 -77 -84 -3 -6 0
-87 -77 -90 -3 -6 0
-92 -77 -95 -3 -6 0
-96 -77 -99 -3 -6 0
-87 -84 -90 -3 -7 0
-92 -84 -95 -3 -7 0
-96 -84 -99 -3 -7 0
-92 -90 -95 -3 -8 0
-96 -90 -99 -3 -8 0
-96 -95 -99 -3 -9 0
-74 -69 -77 -4 -5 0
-81 -69 -84 -4 -5 0
-87 -69 -90 -4 -5 0
-92 -69 -95 -4 -5 0
-96 -69 -99 -4 -5 0
-81 -77 -84 -4 -6 0
-87 -77 -90 -4 -6 0
-92 -77 -95 -4 -6 0
-96 -77 -99 -4 -6 0
-87 -84 -90 -4 -7 0
-92 -84 -95 -4 -7 0
-96 -84 -99 -4 -7 0
-92 -90 -95 -4 -8 0
-96 -90 -99 -4 -8 0
-96 -95 -99 -4 -9 0
-81 -77 -84 -5 -6 0
-87 -77 -90 -5 -6 0
-92 -77 -95 -5 -6 0
-96 -77 -99 -5 -6 0
-87 -84 -90 -5 -7 0
-92 -84 -95 -5 -7 0
-96 -84 -99 -5 -7 0
-92 -90 -95 -5 -8 0
-96 -90 -99 -5 -8 0
-96 -95 -99 -5 -9 0
-87 -84 -90 -6 -7 0
-92 -84 -95 -6 -7 0
-96 -84 -99 -6 -7 0
-92 -90 -95 -6 -8 0
-96 -90 -99 -6 -8 0
-96 -95 -99 -6 -9 0
-92 -90 -95 -7 -8 0
-96 -90 -99 -7 -8 0
-96 -95 -99 -7 -9 0
-96 -95 -99 -8 -9 0
-57 -50 -60 -15 -16 0
-66 -50 -69 -15 -16 0
-74 -50 -77 -15 -16 0
-81 -50 -84 -15 -16 0
-87 -50 -90 -15 -16 0
-92 -50 -95 -15 -16 0
-96 -50 -99 -15 -16 0
-66 -60 -69 -15 -17 0
-74 -60 -77 -15 -17 0
-81 -60 -84 -15 -17 0
-87 -60 -90 -15 -17 0
-92 -60 -95 -15 -17 0
-96 -60 -99 -15 -17 0
-74 -69 -77 -15 -18 0
-81 -69 -84 -15 -18 0
-87 -69 -90 -15 -18 0
-92 -69 -95 -15 -18 0
-96 -69 -99 -15 -18 0
-81 -77 -84 -15 -19 0
-87 -77 -90 -15 -19 0
-92 -77 -95 -15 -19 0
-96 -77 -99 -15 -19 0
-87 -84 -90 -15 -20 0
-92 -84 -95 -15 -20 0
-96 -84 -99 -15 -20 0
-92 -90 -95 -15 -21 0
-96 -90 -99 -15 -21 0
-96 -95 -99 -15 -22 0
-66 -60 -69 -16 -17 0
-74 -60 -77 -16 -17 0
-81 -60 -84 -16 -17 0
-87 -60 -90 -16 -17 0
-92 -60 -95 -16 -17 0
-96 -60 -99 -16 -17 0
-74 -69 -77 -16 -18 0
-81 -69 -84 -16 -18 0
-87 -69 -90 -16 -18 0
-92 -69 -95 -16 -18 0
-96 -69 -99 -16 -18 0
-81 -77 -84 -16 -19 0
-87 -77 -90 -16 -19 0
-92 -77 -95 -16 -19 0
-96 -77 -99 -16 -19 0
-87 -84 -90 -16 -20 0
-92 -84 -95 -16 -20 0
-96 -84 -99 -16 -20 0
-92 -90 -95 -16 -21 0
-96 -90 -99 -16 -21 0
-96 -95 -99 -16 -22 0
-74 -69 -77 -17 -18 0
-81 -69 -84 -17 -18 0
-87 -69 -90 -17 -18 0
-92 -69 -95 -17 -18 0
-96 -69 -99 -17 -18 0
-81 -77 -84 -17 -19 0
-87 -77 -90 -17 -19 0
-92 -77 -95 -17 -19 0
-96 -77 -99 -17 -19 0
-87 -84 -90 -17 -20 0
-92 -84 -95 -17 -20 0
-96 -84 -99 -17 -20 0
-92 -90 -95 -17 -21 0
-96 -90 -99 -17 -21 0
-96 -95 -99 -17 -22 0
-81 -77 -84 -18 -19 0
-87 -77 -90 -18 -19 0
-92 -77 -95 -18 -19 0
-96 -77 -99 -18 -19 0
-87 -84 -90 -18 -20 0
-92 -84 -95 -18 -20 0
-96 -84 -99 -18 -20 0
-92 -90 -95 -18 -21 0
-96 -90 -99 -18 -21 0
-96 -95 -99 -18 -22 0
-87 -84 -90 -19 -20 0
-92 -84 -95 -19 -20 0
-96 -84 -99 -19 -20 0
-92 -90 -95 -19 -21 0
-96 -90 -99 -19 -21 0
-96 -95 -99 -19 -22 0
-92 -90 -95 -20 -21 0
-96 -90 -99 -20 -21 0
-96 -95 -99 -20 -22 0
-96 -95 -99 -21 -22 0
-66 -60 -69 -28 -29 0
-74 -60 -77 -28 -29 0
-81 -60 -84 -28 -29 0
-87 -60 -90 -28 -29 0
-92 -60 -95 -28 -29 0
-96 -60 -99 -28 -29 0
-74 -69 -77 -28 -30 0
-81 -69 -84 -28 -30 0
-87 -69 -90 -28 -30 0
-92 -69 -95 -28 -30 0
-96 -69 -99 -28 -30 0
-81 -77 -84 -28 -31 0
-87 -77 -90 -28 -31 0
-92 -77 -95 -28 -31 0
-96 -77 -99 -28 -31 0
-87 -84 -90 -28 -32 0
-92 -84 -95 -28 -32 0
-96 -84 -99 -28 -32 0
-92 -90 -95 -28 -33 0
-96 -90 -99 -28 -33 0
-96 -95 -99 -28 -34 0
-74 -69 -77 -29 -30 0
-81 -69 -84 -29 -30 0
-87 -69 -90 -29 -30 0
-92 -69 -95 -29 -30 0
-96 -69 -99 -29 -30 0
-81 -77 -84 -29 -31 0
-87 -77 -90 -29 -31 0
-92 -77 -95 -29 -31 0
-96 -77 -99 -29 -31 0
-87 -84 -90 -29 -32 0
-92 -84 -95 -29 -32 0
-96 -84 -99 -29 -32 0
-92 -90 -95 -29 -33 0
-96 -90 -99 -29 -33 0
-96 -95 -99 -29 -34 0
-81 -77 -84 -30 -31 0
-87 -77 -90 -30 -31 0
-92 -77 -95 -30 -31 0
-96 -77 -99 -30 -31 0
-87 -84 -90 -30 -32 0
-92 -84 -95 -30 -32 0
-96 -84 -99 -30 -32 0
-92 -90 -95 -30 -33 0
-96 -90 -99 -30 -33 0
-96 -95 -99 -30 -34 0
-87 -84 -90 -31 -32 0
-92 -84 -95 -31 -32 0
-96 -84 -99 -31 -32 0
-92 -90 -95 -31 -33 0
-96 -90 -99 -31 -33 0
-96 -95 -99 -31 -34 0
-92 -90 -95 -32 -33 0
-96 -90 -99 -32 -33 0
-96 -95 -99 -32 -34 0
-96 -95 -99 -33 -34 0
-74 -69 -77 -40 -41 0
-81 -69 -84 -40 -41 0
-87 -69 -90 -40 -41 0
-92 -69 -95 -40 -41 0
-96 -69 -99 -40 -41 0
-81 -77 -84 -40 -42 0
-87 -77 -90 -40 -42 0
-92 -77 -95 -40 -42 0
-96 -77 -99 -40 -42 0
-87 -84 -90 -40 -43 0
-92 -84 -95 -40 -43 0
-96 -84 -99 -40 -43 0
-92 -90 -95 -40 -44 0
-96 -90 -99 -40 -44 0
-96 -95 -99 -40 -45 0
-81 -77 -84 -41 -42 0
-87 -77 -90 -41 -42 0
-92 -77 -95 -41 -42 0
-96 -77 -99 -41 -42 0
-87 -84 -90 -41 -43 0
-92 -84 -95 -41 -43 0
-96 -84 -99 -41 -43 0
-92 -90 -95 -41 -44 0
-96 -90 -99 -41 -44 0
-96 -95 -99 -41 -45 0
-87 -84 -90 -42 -43 0
-92 -84 -95 -42 -43 0
-96 -84 -99 -42 -43 0
-92 -90 -95 -42 -44 0
-96 -90 -99 -42 -44 0
-96 -95 -99 -42 -45 0
-92 -90 -95 -43 -44 0
-96 -90 -99 -43 -44 0
-96 -95 -99 -43 -45 0
-96 -95 -99 -44 -45 0
-81 -77 -84 -51 -52 0
-87 -77 -90 -51 -52 0
-92 -77 -95 -51 -52 0
-96 -77 -99 -51 -52 0
-87 -84 -90 -51 -53 0
-92 -84 -95 -51 -53 0
-96 -84 -99 -51 -53 0
-92 -90 -95 -51 -54 0
-96 -90 -99 -51 -54 0
-96 -95 -99 -51 -55 0
-87 -84 -90 -52 -53 0
-92 -84 -95 -52 -53 0
-96 -84 -99 -52 -53 0
-92 -90 -95 -52 -54 0
-96 -90 -99 -52 -54 0
-96 -95 -99 -52 -55 0
-92 -90 -95 -53 -54 0
-96 -90 -99 -53 -54 0
-96 -95 -99 -53 -55 0
-96 -95 -99 -54 -55 0
-87 -84 -90 -61 -62 0
-92 -84 -95 -61 -62 0
-96 -84 -99 -61 -62 0
-92 -90 -95 -61 -63 0
-96 -90 -99 -61 -63 0
-96 -95 -99 -61 -64 0
-92 -90 -95 -62 -63 0
-96 -90 -99 -62 -63 0
-96 -95 -99 -62 -64 0
-96 -95 -99 -63 -64 0
-92 -90 -95 -70 -71 0
-96 -90 -99 -70 -71 0
-96 -95 -99 -70 -72 0
-96 -95 -99 -71 -72 0
-96 -95 -99 -78 -79 0
-57 -3 -4 -15 -16 0
-66 -3 -5 -15 -16 0
-74 -3 -6 -15 -16 0
-81 -3 -7 -15 -16 0
-87 -3 -8 -15 -16 0
-92 -3 -9 -15 -16 0
-96 -3 -10 -15 -16 0
-66 -4 -5 -15 -17 0
-74 -4 -6 -15 -17 0
-81 -4 -7 -15 -17 0
-87 -4 -8 -15 -17 0
-92 -4 -9 -15 -17 0
-96 -4 -10 -15 -17 0
-74 -5 -6 -15 -18 0
-81 -5 -7 -15 -18 0
-87 -5 -8 -15 -18 0
-92 -5 -9 -15 -18 0
-96 -5 -10 -15 -18 0
-81 -6 -7 -15 -19 0
-87 -6 -8 -15 -19 0
-92 -6 -9 -15 -19 0
-96 -6 -10 -15 -19 0
-87 -7 -8 -15 -20 0
-92 -7 -9 -15 -20 0
-96 -7 -10 -15 -20 0
-92 -8 -9 -15 -21 0
-96 -8 -10 -15 -21 0
-96 -9 -10 -15 -22 0
-66 -4 -5 -16 -17 0
-74 -4 -6 -16 -17 0
-81 -4 -7 -16 -17 0
-87 -4 -8 -16 -17 0
-92 -4 -9 -16 -17 0
-96 -4 -10 -16 -17 0
-74 -5 -6 -16 -18 0
-81 -5 -7 -16 -18 0
-87 -5 -8 -16 -18 0
-92 -5 -9 -16 -18 0
-96 -5 -10 -16 -18 0
-81 -6 -7 -16 -19 0
-87 -6 -8 -16 -19 0
-92 -6 -9 -16 -19 0
-96 -6 -10 -16 -19 0
-87 -7 -8 -16 -20 0
-92 -7 -9 -16 -20 0
-96 -7 -10 -16 -20 0
-92 -8 -9 -16 -21 0
-96 -8 -10 -16 -21 0
-96 -9 -10 -16 -22 0
-74 -5 -6 -17 -18 0
-81 -5 -7 -17 -18 0
-87 -5 -8 -17 -18 0
-92 -5 -9 -17 -18 0
-96 -5 -10 -17 -18 0
-81 -6 -7 -17 -19 0
-87 -6 -8 -17 -19 0
-92 -6 -9 -17 -19 0
-96 -6 -10 -17 -19 0
-87 -7 -8 -17 -20 0
-92 -7 -9 -17 -20 0
-96 -7 -10 -17 -20 0
-92 -8 -9 -17 -21 0
-96 -8 -10 -17 -21 0
-96 -9 -10 -17 -22 0
-81 -6 -7 -18 -19 0
-87 -6 -8 -18 -19 0
-92 -6 -9 -18 -19 0
-96 -6 -10 -18 -19 0
-87 -7 -8 -18 -20 0
-92 -7 -9 -18 -20 0
-96 -7 -10 -18 -20 0
-92 -8 -9 -18 -21 0
-96 -8 -10 -18 -21 0
-96 -9 -10 -18 -22 0
-87 -7 -8 -19 -20 0
-92 -7 -9 -19 -20 0
-96 -7 -10 -19 -20 0
-92 -8 -9 -19 -21 0
-96 -8 -10 -19 -21 0
-96 -9 -10 -19 -22 0
-92 -8 -9 -20 -21 0
-96 -8 -10 -20 -21 0
-96 -9 -10 -20 -22 0
-96 -9 -10 -21 -22 0
-66 -4 -5 -28 -29 0
-74 -4 -6 -28 -29 0
-81 -4 -7 -28 -29 0
-87 -4 -8 -28 -29 0
-92 -4 -9 -28 -29 0
-96 -4 -10 -28 -29 0
-74 -5 -6 -28 -30 0
-81 -5 -7 -28 -30 0
-87 -5 -8 -28 -30 0
-92 -5 -9 -28 -30 0
-96 -5 -10 -28 -30 0
-81 -6 -7 -28 -31 0
-87 -6 -8 -28 -31 0
-92 -6 -9 -28 -31 0
-96 -6 -10 -28 -31 0
-87 -7 -8 -28 -32 0
-92 -7 -9 -28 -32 0
-96 -7 -10 -28 -32 0
-92 -8 -9 -28 -33 0
-96 -8 -10 -28 -33 0
-96 -9 -10 -28 -34 0
-74 -5 -6 -29 -30 0
-81 -5 -7 -29 -30 0
-87 -5 -8 -29 -30 0
-92 -5 -9 -29 -30 0
-96 -5 -10 -29 -30 0
-81 -6 -7 -29 -31 0
-87 -6 -8 -29 -31 0
-92 -6 -9 -29 -31 0
-96 -6 -10 -29 -31 0
-87 -7 -8 -29 -32 0
-92 -7 -9 -29 -32 0
-96 -7 -10 -29 -32 0
-92 -8 -9 -29 -33 0
-96 -8 -10 -29 -33 0
-96 -9 -10 -29 -34 0
-81 -6 -7 -30 -31 0
-87 -6 -8 -30 -31 0
-92 -6 -9 -30 -31 0
-96 -6 -10 -30 -31 0
-87 -7 -8 -30 -32 0
-92 -7 -9 -30 -32 0
-96 -7 -10 -30 -32 0
-92 -8 -9 -30 -33 0
-96 -8 -10 -30 -33 0
-96 -9 -10 -30 -34 0
-87 -7 -8 -31 -32 0
-92 -7 -9 -31 -32 0
-96 -7 -10 -31 -32 0
-92 -8 -9 -31 -33 0
-96 -8 -10 -31 -33 0
-96 -9 -10 -31 -34 0
-92 -8 -9 -32 -33 0
-96 -8 -10 -32 -33 0
-96 -9 -10 -32 -34 0
-96 -9 -10 -33 -34 0
-74 -5 -6 -40 -41 0
-81 -5 -7 -40 -41 0
-87 -5 -8 -40 -41 0
-92 -5 -9 -40 -41 0
-96 -5 -10 -40 -41 0
-81 -6 -7 -40 -42 0
-87 -6 -8 -40 -42 0
-92 -6 -9 -40 -42 0
-96 -6 -10 -40 -42 0
-87 -7 -8 -40 -43 0
-92 -7 -9 -40 -43 0
-96 -7 -10 -40 -43 0
-92 -8 -9 -40 -44 0
-96 -8 -10 -40 -44 0
-96 -9 -10 -40 -45 0
-81 -6 -7 -41 -42 0
-87 -6 -8 -41 -42 0
-92 -6 -9 -41 -42 0
-96 -6 -10 -41 -42 0
-87 -7 -8 -41 -43 0
-92 -7 -9 -41 -43 0
-96 -7 -10 -41 -43 0
-92 -8 -9 -41 -44 0
-96 -8 -10 -41 -44 0
-96 -9 -10 -41 -45 0
-87 -7 -8 -42 -43 0
-92 -7 -9 -42 -43 0
-96 -7 -10 -42 -43 0
-92 -8 -9 -42 -44 0
-96 -8 -10 -42 -44 0
-96 -9 -10 -42 -45 0
-92 -8 -9 -43 -44 0
-96 -8 -10 -43 -44 0
-96 -9 -10 -43 -45 0
-96 -9 -10 -44 -45 0
-81 -6 -7 -51 -52 0
-87 -6 -8 -51 -52 0
-92 -6 -9 -51 -52 0
-96 -6 -10 -51 -52 0
-87 -7 -8 -51 -53 0
-92 -7 -9 -51 -53 0
-96 -7 -10 -51 -53 0
-92 -8 -9 -51 -54 0
-96 -8 -10 -51 -54 0
-96 -9 -10 -51 -55 0
-87 -7 -8 -52 -53 0
-92 -7 -9 -52 -53 0
-96 -7 -10 -52 -53 0
-92 -8 -9 -52 -54 0
-96 -8 -10 -52 -54 0
-96 -9 -10 -52 -55 0
-92 -8 -9 -53 -54 0
-96 -8 -10 -53 -54 0
-96 -9 -10 -53 -55 0
-96 -9 -10 -54 -55 0
-87 -7 -8 -61 -62 0
-92 -7 -9 -61 -62 0
-96 -7 -10 -61 -62 0
-92 -8 -9 -61 -63 0
-96 -8 -10 -61 -63 0
-96 -9 -10 -61 -64 0
-92 -8 -9 -62 -63 0
-96 -8 -10 -62 -63 0
-96 -9 -10 -62 -64 0
-96 -9 -10 -63 -64 0
-92 -8 -9 -70 -71 0
-96 -8 -10 -70 -71 0
-96 -9 -10 -70 -72 0
-96 -9 -10 -71 -72 0
-96 -9 -10 -78 -79 0
-66 -17 -18 -28 -29 0
-74 -17 -19 -28 -29 0
-81 -17 -20 -28 -29 0
-87 -17 -21 -28 -29 0
-92 -17 -22 -28 -29 0
-96 -17 -23 -28 -29 0
-74 -18 -19 -28 -30 0
-81 -18 -20 -28 -30 0
-87 -18 -21 -28 -30 0
-92 -18 -22 -28 -30 0
-96 -18 -23 -28 -30 0
-81 -19 -20 -28 -31 0
-87 -19 -21 -28 -31 0
-92 -19 -22 -28 -31 0
-96 -19 -23 -28 -31 0
-87 -20 -21 -28 -32 0
-92 -20 -22 -28 -32 0
-96 -20 -23 -28 -32 0
-92 -21 -22 -28 -33 0
-96 -21 -23 -28 -33 0
-96 -22 -23 -28 -34 0
-74 -18 -19 -29 -30 0
-81 -18 -20 -29 -30 0
-87 -18 -21 -29 -30 0
-92 -18 -22 -29 -30 0
-96 -18 -23 -29 -30 0
-81 -19 -20 -29 -31 0
-87 -19 -21 -29 -31 0
-92 -19 -22 -29 -31 0
-96 -19 -23 -29 -31 0
-87 -20 -21 -29 -32 0
-92 -20 -22 -29 -32 0
-96 -20 -23 -29 -32 0
-92 -21 -22 -29 -33 0
-96 -21 -23 -29 -33 0
-96 -22 -23 -29 -34 0
-81 -19 -20 -30 -31 0
-87 -19 -21 -30 -31 0
-92 -19 -22 -30 -31 0
-96 -19 -23 -30 -31 0
-87 -20 -21 -30 -32 0
-92 -20 -22 -30 -32 0
-96 -20 -23 -30 -32 0
-92 -21 -22 -30 -33 0
-96 -21 -23 -30 -33 0
-96 -22 -23 -30 -34 0
-87 -20 -21 -31 -32 0
-92 -20 -22 -31 -32 0
-96 -20 -23 -31 -32 0
-92 -21 -22 -31 -33 0
-96 -21 -23 -31 -33 0
-96 -22 -23 -31 -34 0
-92 -21 -22 -32 -33 0
-96 -21 -23 -32 -33 0
-96 -22 -23 -32 -34 0
-96 -22 -23 -33 -34 0
-74 -18 -19 -40 -41 0
-81 -18 -20 -40 -41 0
-87 -18 -21 -40 -41 0
-92 -18 -22 -40 -41 0
-96 -18 -23 -40 -41 0
-81 -19 -20 -40 -42 0
-87 -19 -21 -40 -42 0
-92 -19 -22 -40 -42 0
-96 -19 -23 -40 -42 0
-87 -20 -21 -40 -43 0
-92 -20 -22 -40 -43 0
-96 -20 -23 -40 -43 0
-92 -21 -22 -40 -44 0
-96 -21 -23 -40 -44 0
-96 -22 -23 -40 -45 0
-81 -19 -20 -41 -42 0
-87 -19 -21 -41 -42 0
-92 -19 -22 -41 -42 0
-96 -19 -23 -41 -42 0
-87 -20 -21 -41 -43 0
-92 -20 -22 -41 -43 0
-96 -20 -23 -41 -43 0
-92 -21 -22 -41 -44 0
-96 -21 -23 -41 -44 0
-96 -22 -23 -41 -45 0
-87 -20 -21 -42 -43 0
-92 -20 -22 -42 -43 0
-96 -20 -23 -42 -43 0
-92 -21 -22 -42 -44 0
-96 -21 -23 -42 -44 0
-96 -22 -23 -42 -45 0
-92 -21 -22 -43 -44 0
-96 -21 -23 -43 -44 0
-96 -22 -23 -43 -45 0
-96 -22 -23 -44 -45 0
-81 -19 -20 -51 -52 0
-87 -19 -21 -51 -52 0
-92 -19 -22 -51 -52 0
-96 -19 -23 -51 -52 0
-87 -20 -21 -51 -53 0
-92 -20 -22 -51 -53 0
-96 -20 -23 -51 -53 0
-92 -21 -22 -51 -54 0
-96 -21 -23 -51 -54 0
-96 -22 -23 -51 -55 0
-87 -20 -21 -52 -53 0
-92 -20 -22 -52 -53 0
-96 -20 -23 -52 -53 0
-92 -21 -22 -52 -54 0
-96 -21 -23 -52 -54 0
-96 -22 -23 -52 -55 0
-92 -21 -22 -53 -54 0
-96 -21 -23 -53 -54 0
-96 -22 -23 -53 -55 0
-96 -22 -23 -54 -55 0
-87 -20 -21 -61 -62 0
-92 -20 -22 -61 -62 0
-96 -20 -23 -61 -62 0
-92 -21 -22 -61 -63 0
-96 -21 -23 -61 -63 0
-96 -22 -23 -61 -64 0
-92 -21 -22 -62 -63 0
-96 -21 -23 -62 -63 0
-96 -22 -23 -62 -64 0
-96 -22 -23 -63 -64 0
-92 -21 -22 -70 -71 0
-96 -21 -23 -70 -71 0
-96 -22 -23 -70 -72 0
-96 -22 -23 -71 -72 0
-96 -22 -23 -78 -79 0
-74 -30 -31 -40 -41 0
-81 -30 -32 -40 -41 0
-87 -30 -33 -40 -41 0
-92 -30 -34 -40 -41 0
-96 -30 -35 -40 -41 0
-81 -31 -32 -40 -42 0
-87 -31 -33 -40 -42 0
-92 -31 -34 -40 -42 0
-96 -31 -35 -40 -42 0
-87 -32 -33 -40 -43 0
-92 -32 -34 -40 -43 0
-96 -32 -35 -40 -43 0
-92 -33 -34 -40 -44 0
-96 -33 -35 -40 -44 0
-96 -34 -35 -40 -45 0
-81 -31 -32 -41 -42 0
-87 -31 -33 -41 -42 0
-92 -31 -34 -41 -42 0
-96 -31 -35 -41 -42 0
-87 -32 -33 -41 -43 0
-92 -32 -34 -41 -43 0
-96 -32 -35 -41 -43 0
-92 -33 -34 -41 -44 0
-96 -33 -35 -41 -44 0
-96 -34 -35 -41 -45 0
-87 -32 -33 -42 -43 0
-92 -32 -34 -42 -43 0
-96 -32 -35 -42 -43 0
-92 -33 -34 -42 -44 0
-96 -33 -35 -42 -44 0
-96 -34 -35 -42 -45 0
-92 -33 -34 -43 -44 0
-96 -33 -35 -43 -44 0
-96 -34 -35 -43 -45 0
-96 -34 -35 -44 -45 0
-81 -31 -32 -51 -52 0
-87 -31 -33 -51 -52 0
-92 -31 -34 -51 -52 0
-96 -31 -35 -51 -52 0
-87 -32 -33 -51 -53 0
-92 -32 -34 -51 -53 0
-96 -32 -35 -51 -53 0
-92 -33 -34 -51 -54 0
-96 -33 -35 -51 -54 0
-96 -34 -35 -51 -55 0
-87 -32 -33 -52 -53 0
-92 -32 -34 -52 -53 0
-96 -32 -35 -52 -53 0
-92 -33 -34 -52 -54 0
-96 -33 -35 -52 -54 0
-96 -34 -35 -52 -55 0
-92 -33 -34 -53 -54 0
-96 -33 -35 -53 -54 0
-96 -34 -35 -53 -55 0
-96 -34 -35 -54 -55 0
-87 -32 -33 -61 -62 0
-92 -32 -34 -61 -62 0
-96 -32 -35 -61 -62 0
-92 -33 -34 -61 -63 0
-96 -33 -35 -61 -63 0
-96 -34 -35 -61 -64 0
-92 -33 -34 -62 -63 0
-96 -33 -35 -62 -63 0
-96 -34 -35 -62 -64 0
-96 -34 -35 -63 -64 0
-92 -33 -34 -70 -71 0
-96 -33 -35 -70 -71 0
-96 -34 -35 -70 -72 0
-96 -34 -35 -71 -72 0
-96 -34 -35 -78 -79 0
-81 -42 -43 -51 -52 0
-87 -42 -44 -51 -52 0
-92 -42 -45 -51 -52 0
-96 -42 -46 -51 -52 0
-87 -43 -44 -51 -53 0
-92 -43 -45 -51 -53 0
-96 -43 -46 -51 -53 0
-92 -44 -45 -51 -54 0
-96 -44 -46 -51 -54 0
-96 -45 -46 -51 -55 0
-87 -43 -44 -52 -53 0
-92 -43 -45 -52 -53 0
-96 -43 -46 -52 -53 0
-92 -44 -45 -52 -54 0
-96 -44 -46 -52 -54 0
-96 -45 -46 -52 -55 0
-92 -44 -45 -53 -54 0
-96 -44 -46 -53 -54 0
-96 -45 -46 -53 -55 0
-96 -45 -46 -54 -55 0
-87 -43 -44 -61 -62 0
-92 -43 -45 -61 -62 0
-96 -43 -46 -61 -62 0
-92 -44 -45 -61 -63 0
-96 -44 -46 -61 -63 0
-96 -45 -46 -61 -64 0
-92 -44 -45 -62 -63 0
-96 -44 -46 -62 -63 0
-96 -45 -46 -62 -64 0
-96 -45 -46 -63 -64 0
-92 -44 -45 -70 -71 0
-96 -44 -46 -70 -71 0
-96 -45 -46 -70 -72 0
-96 -45 -46 -71 -72 0
-96 -45 -46 -78 -79 0
-87 -53 -54 -61 -62 0
-92 -53 -55 -61 -62 0
-96 -53 -56 -61 -62 0
-92 -54 -55 -61 -63 0
-96 -54 -56 -61 -63 0
-96 -55 -56 -61 -64 0
-92 -54 -55 -62 -63 0
-96 -54 -56 -62 -63 0
-96 -55 -56 -62 -64 0
-96 -55 -56 -63 -64 0
-92 -54 -55 -70 -71 0
-96 -54 -56 -70 -71 0
-96 -55 -56 -70 -72 0
-96 -55 -56 -71 -72 0
-96 -55 -56 -78 -79 0
-92 -63 -64 -70 -71 0
-96 -63 -65 -70 -71 0
-96 -64 -65 -70 -72 0
-96 -64 -65 -71 -72 0
-96 -64 -65 -78 -79 0
-96 -72 -73 -78 -79 0
-37 -26 -38 -14 -27 0
-48 -26 -49 -14 -27 0
-58 -26 -59 -14 -27 0
-67 -26 -68 -14 -27 0
-75 -26 -76 -14 -27 0
-82 -26 -83 -14 -27 0
-88 -26 -89 -14 -27 0
-93 -26 -94 -14 -27 0
-97 -26 -98 -14 -27 0
-100 -26 -101 -14 -27 0
-48 -38 -49 -14 -39 0
-58 -38 -59 -14 -39 0
-67 -38 -68 -14 -39 0
-75 -38 -76 -14 -39 0
-82 -38 -83 -14 -39 0
-88 -38 -89 -14 -39 0
-93 -38 -94 -14 -39 0
-97 -38 -98 -14 -39 0
-100 -38 -101 -14 -39 0
-58 -49 -59 -14 -50 0
-67 -49 -68 -14 -50 0
-75 -49 -76 -14 -50 0
-82 -49 -83 -14 -50 0
-88 -49 -89 -14 -50 0
-93 -49 -94 -14 -50 0
-97 -49 -98 -14 -50 0
-100 -49 -101 -14 -50 0
-67 -59 -68 -14 -60 0
-75 -59 -76 -14 -60 0
-82 -59 -83 -14 -60 0
-88 -59 -89 -14 -60 0
-93 -59 -94 -14 -60 0
-97 -59 -98 -14 -60 0
-100 -59 -101 -14 -60 0
-75 -68 -76 -14 -69 0
-82 -68 -83 -14 -69 0
-88 -68 -89 -14 -69 0
-93 -68 -94 -14 -69 0
-97 -68 -98 -14 -69 0
-100 -68 -101 -14 -69 0
-82 -76 -83 -14 -77 0
-88 -76 -89 -14 -77 0
-93 -76 -94 -14 -77 0
-97 -76 -98 -14 -77 0
-100 -76 -101 -14 -77 0
-88 -83 -89 -14 -84 0
-93 -83 -94 -14 -84 0
-97 -83 -98 -14 -84 0
-100 -83 -101 -14 -84 0
-93 -89 -94 -14 -90 0
-97 -89 -98 -14 -90 0
-100 -89 -101 -14 -90 0
-97 -94 -98 -14 -95 0
-100 -94 -101 -14 -95 0
-100 -98 -101 -14 -99 0
-48 -38 -49 -27 -39 0
-58 -38 -59 -27 -39 0
-67 -38 -68 -27 -39 0
-75 -38 -76 -27 -39 0
-82 -38 -83 -27 -39 0
-88 -38 -89 -27 -39 0
-93 -38 -94 -27 -39 0
-97 -38 -98 -27 -39 0
-100 -38 -101 -27 -39 0
-58 -49 -59 -27 -50 0
-67 -49 -68 -27 -50 0
-75 -49 -76 -27 -50 0
-82 -49 -83 -27 -50 0
-88 -49 -89 -27 -50 0
-93 -49 -94 -27 -50 0
-97 -49 -98 -27 -50 0
-100 -49 -101 -27 -50 0
-67 -59 -68 -27 -60 0
-75 -59 -76 -27 -60 0
-82 -59 -83 -27 -60 0
-88 -59 -89 -27 -60 0
-93 -59 -94 -27 -60 0
-97 -59 -98 -27 -60 0
-100 -59 -101 -27 -60 0
-75 -68 -76 -27 -69 0
-82 -68 -83 -27 -69 0
-88 -68 -89 -27 -69 0
-93 -68 -94 -27 -69 0
-97 -68 -98 -27 -69 0
-100 -68 -101 -27 -69 0
-82 -76 -83 -27 -77 0
-88 -76 -89 -27 -77 0
-93 -76 -94 -27 -77 0
-97 -76 -98 -27 -77 0
-100 -76 -101 -27 -77 0
-88 -83 -89 -27 -84 0
-93 -83 -94 -27 -84 0
-97 -83 -98 -27 -84 0
-100 -83 -101 -27 -84 0
-93 -89 -94 -27 -90 0
-97 -89 -98 -27 -90 0
-100 -89 -101 -27 -90 0
-97 -94 -98 -27 -95 0
-100 -94 -101 -27 -95 0
-100 -98 -101 -27 -99 0
-58 -49 -59 -39 -50 0
-67 -49 -68 -39 -50 0
-75 -49 -76 -39 -50 0
-82 -49 -83 -39 -50 0
-88 -49 -89 -39 -50 0
-93 -49 -94 -39 -50 0
-97 -49 -98 -39 -50 0
-100 -49 -101 -39 -50 0
-67 -59 -68 -39 -60 0
-75 -59 -76 -39 -60 0
-82 -59 -83 -39 -60 0
-88 -59 -89 -39 -60 0
-93 -59 -94 -39 -60 0
-97 -59 -98 -39 -60 0
-100 -59 -101 -39 -60 0
-75 -68 -76 -39 -69 0
-82 -68 -83 -39 -69 0
-88 -68 -89 -39 -69 0
-93 -68 -94 -39 -69 0
-97 -68 -98 -39 -69 0
-100 -68 -101 -39 -69 0
-82 -76 -83 -39 -77 0
-88 -76 -89 -39 -77 0
-93 -76 -94 -39 -77 0
-97 -76 -98 -39 -77 0
-100 -76 -101 -39 -77 0
-88 -83 -89 -39 -84 0
-93 -83 -94 -39 -84 0
-97 -83 -98 -39 -84 0
-100 -83 -101 -39 -84 0
-93 -89 -94 -39 -90 0
-97 -89 -98 -39 -90 0
-100 -89 -101 -39 -90 0
-97 -94 -98 -39 -95 0
-100 -94 -101 -39 -95 0
-100 -98 -101 -39 -99 0
-67 -59 -68 -50 -60 0
-75 -59 -76 -50 -60 0
-82 -59 -83 -50 -60 0
-88 -59 -89 -50 -60 0
-93 -59 -94 -50 -60 0
-97 -59 -98 -50 -60 0
-100 -59 -101 -50 -60 0
-75 -68 -76 -50 -69 0
-82 -68 -83 -50 -69 0
-88 -68 -89 -50 -69 0
-93 -68 -94 -50 -69 0
-97 -68 -98 -50 -69 0
-100 -68 -101 -50 -69 0
-82 -76 -83 -50 -77 0
-88 -76 -89 -50 -77 0
-93 -76 -94 -50 -77 0
-97 -76 -98 -50 -77 0
-100 -76 -101 -50 -77 0
-88 -83 -89 -50 -84 0
-93 -83 -94 -50 -84 0
-97 -83 -98 -50 -84 0
-100 -83 -101 -50 -84 0
-93 -89 -94 -50 -90 0
-97 -89 -98 -50 -90 0
-100 -89 -101 -50 -90 0
-97 -94 -98 -50 -95 0
-100 -94 -101 -50 -95 0
-100 -98 -101 -50 -99 0
-75 -68 -76 -60 -69 0
-82 -68 -83 -60 -69 0
-88 -68 -89 -60 -69 0
-93 -68 -94 -60 -69 0
-97 -68 -98 -60 -69 0
-100 -68 -101 -60 -69 0
-82 -76 -83 -60 -77 0
-88 -76 -89 -60 -77 0
-93 -76 -94 -60 -77 0
-97 -76 -98 -60 -77 0
-100 -76 -101 -60 -77 0
-88 -83 -89 -60 -84 0
-93 -83 -94 -60 -84 0
-97 -83 -98 -60 -84 0
-100 -83 -101 -60 -84 0
-93 -89 -94 -60 -90 0
-97 -89 -98 -60 -90 0
-100 -89 -101 -60 -90 0
-97 -94 -98 -60 -95 0
-100 -94 -101 -60 -95 0
-100 -98 -101 -60 -99 0
-82 -76 -83 -69 -77 0
-88 -76 -89 -69 -77 0
-93 -76 -94 -69 -77 0
-97 -76 -98 -69 -77 0
-100 -76 -101 -69 -77 0
-88 -83 -89 -69 -84 0
-93 -83 -94 -69 -84 0
-97 -83 -98 -69 -84 0
-100 -83 -101 -69 -84 0
-93 -89 -94 -69 -90 0
-97 -89 -98 -69 -90 0
-100 -89 -101 -69 -90 0
-97 -94 -98 -69 -95 0
-100 -94 -101 -69 -95 0
-100 -98 -101 -69 -99 0
-88 -83 -89 -77 -84 0
-93 -83 -94 -77 -84 0
-97 -83 -98 -77 -84 0
-100 -83 -101 -77 -84 0
-93 -89 -94 -77 -90 0
-97 -89 -98 -77 -90 0
-100 -89 -101 -77 -90 0
-97 -94 -98 -77 -95 0
-100 -94 -101 -77 -95 0
-100 -98 -101 -77 -99 0
-93 -89 -94 -84 -90 0
-97 -89 -98 -84 -90 0
-100 -89 -101 -84 -90 0
-97 -94 -98 -84 -95 0
-100 -94 -101 -84 -95 0
-100 -98 -101 -84 -99 0
-97 -94 -98 -90 -95 0
-100 -94 -101 -90 -95 0
-100 -98 -101 -90 -99 0
-100 -98 -101 -95 -99 0
-48 -38 -49 -1 -2 0
-58 -38 -59 -1 -2 0
-67 -38 -68 -1 -2 0
-75 -38 -76 -1 -2 0
-82 -38 -83 -1 -2 0
-88 -38 -89 -1 -2 0
-93 -38 -94 -1 -2 0
-97 -38 -98 -1 -2 0
-100 -38 -101 -1 -2 0
-58 -49 -59 -1 -3 0
-67 -49 -68 -1 -3 0
-75 -49 -76 -1 -3 0
-82 -49 -83 -1 -3 0
-88 -49 -89 -1 -3 0
-93 -49 -94 -1 -3 0
-97 -49 -98 -1 -3 0
-100 -49 -101 -1 -3 0
-67 -59 -68 -1 -4 0
-75 -59 -76 -1 -4 0
-82 -59 -83 -1 -4 0
-88 -59 -89 -1 -4 0
-93 -59 -94 -1 -4 0
-97 -59 -98 -1 -4 0
-100 -59 -101 -1 -4 0
-75 -68 -76 -1 -5 0
-82 -68 -83 -1 -5 0
-88 -68 -89 -1 -5 0
-93 -68 -94 -1 -5 0
-97 -68 -98 -1 -5 0
-100 -68 -101 -1 -5 0
-82 -76 -83 -1 -6 0
-88 -76 -89 -1 -6 0
-93 -76 -94 -1 -6 0
-97 -76 -98 -1 -6 0
-100 -76 -101 -1 -6 0
-88 -83 -89 -1 -7 0
-93 -83 -94 -1 -7 0
-97 -83 -98 -1 -7 0
-100 -83 -101 -1 -7 0
-93 -89 -94 -1 -8 0
-97 -89 -98 -1 -8 0
-100 -89 -101 -1 -8 0
-97 -94 -98 -1 -9 0
-100 -94 -101 -1 -9 0
-100 -98 -101 -1 -10 0
-58 -49 -59 -2 -3 0
-67 -49 -68 -2 -3 0
-75 -49 -76 -2 -3 0
-82 -49 -83 -2 -3 0
-88 -49 -89 -2 -3 0
-93 -49 -94 -2 -3 0
-97 -49 -98 -2 -3 0
-100 -49 -101 -2 -3 0
-67 -59 -68 -2 -4 0
-75 -59 -76 -2 -4 0
-82 -59 -83 -2 -4 0
-88 -59 -89 -2 -4 0
-93 -59 -94 -2 -4 0
-97 -59 -98 -2 -4 0
-100 -59 -101 -2 -4 0
-75 -68 -76 -2 -5 0
-82 -68 -83 -2 -5 0
-88 -68 -89 -2 -5 0
-93 -68 -94 -2 -5 0
-97 -68 -98 -2 -5 0
-100 -68 -101 -2 -5 0
-82 -76 -83 -2 -6 0
-88 -76 -89 -2 -6 0
-93 -76 -94 -2 -6 0
-97 -76 -98 -2 -6 0
-100 -76 -101 -2 -6 0
-88 -83 -89 -2 -7 0
-93 -83 -94 -2 -7 0
-97 -83 -98 -2 -7 0
-100 -83 -101 -2 -7 0
-93 -89 -94 -2 -8 0
-97 -89 -98 -2 -8 0
-100 -89 -101 -2 -8 0
-97 -94 -98 -2 -9 0
-100 -94 -101 -2 -9 0
-100 -98 -101 -2 -10 0
-67 -59 -68 -3 -4 0
-75 -59 -76 -3 -4 0
-82 -59 -83 -3 -4 0
-88 -59 -89 -3 -4 0
-93 -59 -94 -3 -4 0
-97 -59 -98 -3 -4 0
-100 -59 -101 -3 -4 0
-75 -68 -76 -3 -5 0
-82 -68 -83 -3 -5 0
-88 -68 -89 -3 -5 0
-93 -68 -94 -3 -5 0
-97 -68 -98 -3 -5 0
-100 -68 -101 -3 -5 0
-82 -76 -83 -3 -6 0
-88 -76 -89 -3 -6 0
-93 -76 -94 -3 -6 0
-97 -76 -98 -3 -6 0
-100 -76 -101 -3 -6 0
-88 -83 -89 -3 -7 0
-93 -83 -94 -3 -7 0
-97 -83 -98 -3 -7 0
-100 -83 -101 -3 -7 0
-93 -89 -94 -3 -8 0
-97 -89 -98 -3 -8 0
-100 -89 -101 -3 -8 0
-97 -94 -98 -3 -9 0
-100 -94 -101 -3 -9 0
-100 -98 -101 -3 -10 0
-75 -68 -76 -4 -5 0
-82 -68 -83 -4 -5 0
-88 -68 -89 -4 -5 0
-93 -68 -94 -4 -5 0
-97 -68 -98 -4 -5 0
-100 -68 -101 -4 -5 0
-82 -76 -83 -4 -6 0
-88 -76 -89 -4 -6 0
-93 -76 -94 -4 -6 0
-97 -76 -98 -4 -6 0
-100 -76 -101 -4 -6 0
-88 -83 -89 -4 -7 0
-93 -83 -94 -4 -7 0
-97 -83 -98 -4 -7 0
-100 -83 -101 -4 -7 0
-93 -89 -94 -4 -8 0
-97 -89 -98 -4 -8 0
-100 -89 -101 -4 -8 0
-97 -94 -98 -4 -9 0
-100 -94 -101 -4 -9 0
-100 -98 -101 -4 -10 0
-82 -76 -83 -5 -6 0
-88 -76 -89 -5 -6 0
-93 -76 -94 -5 -6 0
-97 -76 -98 -5 -6 0
-100 -76 -101 -5 -6 0
-88 -83 -89 -5 -7 0
-93 -83 -94 -5 -7 0
-97 -83 -98 -5 -7 0
-100 -83 -101 -5 -7 0
-93 -89 -94 -5 -8 0
-97 -89 -98 -5 -8 0
-100 -89 -101 -5 -8 0
-97 -94 -98 -5 -9 0
-100 -94 -101 -5 -9 0
-100 -98 -101 -5 -10 0
-88 -83 -89 -6 -7 0
-93 -83 -94 -6 -7 0
-97 -83 -98 -6 -7 0
-100 -83 -101 -6 -7 0
-93 -89 -94 -6 -8 0
-97 -89 -98 -6 -8 0
-100 -89 -101 -6 -8 0
-97 -94 -98 -6 -9 0
-100 -94 -101 -6 -9 0
-100 -98 -101 -6 -10 0
-93 -89 -94 -7 -8 0
-97 -89 -98 -7 -8 0
-100 -89 -101 -7 -8 0
-97 -94 -98 -7 -9 0
-100 -94 -101 -7 -9 0
-100 -98 -101 -7 -10 0
-97 -94 -98 -8 -9 0
-100 -94 -101 -8 -9 0
-100 -98 -101 -8 -10 0
-100 -98 -101 -9 -10 0
-58 -49 -59 -15 -16 0
-67 -49 -68 -15 -16 0
-75 -49 -76 -15 -16 0
-82 -49 -83 -15 -16 0
-88 -49 -89 -15 -16 0
-93 -49 -94 -15 -16 0
-97 -49 -98 -15 -16 0
-100 -49 -101 -15 -16 0
-67 -59 -68 -15 -17 0
-75 -59 -76 -15 -17 0
-82 -59 -83 -15 -17 0
-88 -59 -89 -15 -17 0
-93 -59 -94 -15 -17 0
-97 -59 -98 -15 -17 0
-100 -59 -101 -15 -17 0
-75 -68 -76 -15 -18 0
-82 -68 -83 -15 -18 0
-88 -68 -89 -15 -18 0
-93 -68 -94 -15 -18 0
-97 -68 -98 -15 -18 0
-100 -68 -101 -15 -18 0
-82 -76 -83 -15 -19 0
-88 -76 -89 -15 -19 0
-93 -76 -94 -15 -19 0
-97 -76 -98 -15 -19 0
-100 -76 -101 -15 -19 0
-88 -83 -89 -15 -20 0
-93 -83 -94 -15 -20 0
-97 -83 -98 -15 -20 0
-100 -83 -101 -15 -20 0
-93 -89 -94 -15 -21 0
-97 -89 -98 -15 -21 0
-100 -89 -101 -15 -21 0
-97 -94 -98 -15 -22 0
-100 -94 -101 -15 -22 0
-100 -98 -101 -15 -23 0
-67 -59 -68 -16 -17 0
-75 -59 -76 -16 -17 0
-82 -59 -83 -16 -17 0
-88 -59 -89 -16 -17 0
-93 -59 -94 -16 -17 0
-97 -59 -98 -16 -17 0
-100 -59 -101 -16 -17 0
-75 -68 -76 -16 -18 0
-82 -68 -83 -16 -18 0
-88 -68 -89 -16 -18 0
-93 -68 -94 -16 -18 0
-97 -68 -98 -16 -18 0
-100 -68 -101 -16 -18 0
-82 -76 -83 -16 -19 0
-88 -76 -89 -16 -19 0
-93 -76 -94 -16 -19 0
-97 -76 -98 -16 -19 0
-100 -76 -101 -16 -19 0
-88 -83 -89 -16 -20 0
-93 -83 -94 -16 -20 0
-97 -83 -98 -16 -20 0
-100 -83 -101 -16 -20 0
-93 -89 -94 -16 -21 0
-97 -89 -98 -16 -21 0
-100 -89 -101 -16 -21 0
-97 -94 -98 -16 -22 0
-100 -94 -101 -16 -22 0
-100 -98 -101 -16 -23 0
-75 -68 -76 -17 -18 0
-82 -68 -83 -17 -18 0
-88 -68 -89 -17 -18 0
-93 -68 -94 -17 -18 0
-97 -68 -98 -17 -18 0
-100 -68 -101 -17 -18 0
-82 -76 -83 -17 -19 0
-88 -76 -89 -17 -19 0
-93 -76 -94 -17 -19 0
-97 -76 -98 -17 -19 0
-100 -76 -101 -17 -19 0
-88 -83 -89 -17 -20 0
-93 -83 -94 -17 -20 0
-97 -83 -98 -17 -20 0
-100 -83 -101 -17 -20 0
-93 -89 -94 -17 -21 0
-97 -89 -98 -17 -21 0
-100 -89 -101 -17 -21 0
-97 -94 -98 -17 -22 0
-100 -94 -101 -17 -22 0
-100 -98 -101 -17 -23 0
-82 -76 -83 -18 -19 0
-88 -76 -89 -18 -19 0
-93 -76 -94 -18 -19 0
-97 -76 -98 -18 -19 0
-100 -76 -101 -18 -19 0
-88 -83 -89 -18 -20 0
-93 -83 -94 -18 -20 0
-97 -83 -98 -18 -20 0
-100 -83 -101 -18 -20 0
-93 -89 -94 -18 -21 0
-97 -89 -98 -18 -21 0
-100 -89 -101 -18 -21 0
-97 -94 -98 -18 -22 0
-100 -94 -101 -18 -22 0
-100 -98 -101 -18 -23 0
-88 -83 -89 -19 -20 0
-93 -83 -94 -19 -20 0
-97 -83 -98 -19 -20 0
-100 -83 -101 -19 -20 0
-93 -89 -94 -19 -21 0
-97 -89 -98 -19 -21 0
-100 -89 -101 -19 -21 0
-97 -94 -98 -19 -22 0
-100 -94 -101 -19 -22 0
-100 -98 -101 -19 -23 0
-93 -89 -94 -20 -21 0
-97 -89 -98 -20 -21 0
-100 -89 -101 -20 -21 0
-97 -94 -98 -20 -22 0
-100 -94 -101 -20 -22 0
-100 -98 -101 -20 -23 0
-97 -94 -98 -21 -22 0
-100 -94 -101 -21 -22 0
-100 -98 -101 -21 -23 0
-100 -98 -101 -22 -23 0
-67 -59 -68 -28 -29 0
-75 -59 -76 -28 -29 0
-82 -59 -83 -28 -29 0
-88 -59 -89 -28 -29 0
-93 -59 -94 -28 -29 0
-97 -59 -98 -28 -29 0
-100 -59 -101 -28 -29 0
-75 -68 -76 -28 -30 0
-82 -68 -83 -28 -30 0
-88 -68 -89 -28 -30 0
-93 -68 -94 -28 -30 0
-97 -68 -98 -28 -30 0
-100 -68 -101 -28 -30 0
-82 -76 -83 -28 -31 0
-88 -76 -89 -28 -31 0
-93 -76 -94 -28 -31 0
-97 -76 -98 -28 -31 0
-100 -76 -101 -28 -31 0
-88 -83 -89 -28 -32 0
-93 -83 -94 -28 -32 0
-97 -83 -98 -28 -32 0
-100 -83 -101 -28 -32 0
-93 -89 -94 -28 -33 0
-97 -89 -98 -28 -33 0
-100 -89 -101 -28 -33 0
-97 -94 -98 -28 -34 0
-100 -94 -101 -28 -34 0
-100 -98 -101 -28 -35 0
-75 -68 -76 -29 -30 0
-82 -68 -83 -29 -30 0
-88 -68 -89 -29 -30 0
-93 -68 -94 -29 -30 0
-97 -68 -98 -29 -30 0
-100 -68 -101 -29 -30 0
-82 -76 -83 -29 -31 0
-88 -76 -89 -29 -31 0
-93 -76 -94 -29 -31 0
-97 -76 -98 -29 -31 0
-100 -76 -101 -29 -31 0
-88 -83 -89 -29 -32 0
-93 -83 -94 -29 -32 0
-97 -83 -98 -29 -32 0
-100 -83 -101 -29 -32 0
-93 -89 -94 -29 -33 0
-97 -89 -98 -29 -33 0
-100 -89 -101 -29 -33 0
-97 -94 -98 -29 -34 0
-100 -94 -101 -29 -34 0
-100 -98 -101 -29 -35 0
-82 -76 -83 -30 -31 0
-88 -76 -89 -30 -31 0
-93 -76 -94 -30 -31 0
-97 -76 -98 -30 -31 0
-100 -76 -101 -30 -31 0
-88 -83 -89 -30 -32 0
-93 -83 -94 -30 -32 0
-97 -83 -98 -30 -32 0
-100 -83 -101 -30 -32 0
-93 -89 -94 -30 -33 0
-97 -89 -98 -30 -33 0
-100 -89 -101 -30 -33 0
-97 -94 -98 -30 -34 0
-100 -94 -101 -30 -34 0
-100 -98 -101 -30 -35 0
-88 -83 -89 -31 -32 0
-93 -83 -94 -31 -32 0
-97 -83 -98 -31 -32 0
-100 -83 -101 -31 -32 0
-93 -89 -94 -31 -33 0
-97 -89 -98 -31 -33 0
-100 -89 -101 -31 -33 0
-97 -94 -98 -31 -34 0
-100 -94 -101 -31 -34 0
-100 -98 -101 -31 -35 0
-93 -89 -94 -32 -33 0
-97 -89 -98 -32 -33 0
-100 -89 -101 -32 -33 0
-97 -94 -98 -32 -34 0
-100 -94 -101 -32 -34 0
-100 -98 -101 -32 -35 0
-97 -94 -98 -33 -34 0
-100 -94 -101 -33 -34 0
-100 -98 -101 -33 -35 0
-100 -98 -101 -34 -35 0
-75 -68 -76 -40 -41 0
-82 -68 -83 -40 -41 0
-88 -68 -89 -40 -41 0
-93 -68 -94 -40 -41 0
-97 -68 -98 -40 -41 0
-100 -68 -101 -40 -41 0
-82 -76 -83 -40 -42 0
-88 -76 -89 -40 -42 0
-93 -76 -94 -40 -42 0
-97 -76 -98 -40 -42 0
-100 -76 -101 -40 -42 0
-88 -83 -89 -40 -43 0
-93 -83 -94 -40 -43 0
-97 -83 -98 -40 -43 0
-100 -83 -101 -40 -43 0
-93 -89 -94 -40 -44 0
-97 -89 -98 -40 -44 0
-100 -89 -101 -40 -44 0
-97 -94 -98 -40 -45 0
-100 -94 -101 -40 -45 0
-100 -98 -101 -40 -46 0
-82 -76 -83 -41 -42 0
-88 -76 -89 -41 -42 0
-93 -76 -94 -41 -42 0
-97 -76 -98 -41 -42 0
-100 -76 -101 -41 -42 0
-88 -83 -89 -41 -43 0
-93 -83 -94 -41 -43 0
-97 -83 -98 -41 -43 0
-100 -83 -101 -41 -43 0
-93 -89 -94 -41 -44 0
-97 -89 -98 -41 -44 0
-100 -89 -101 -41 -44 0
-97 -94 -98 -41 -45 0
-100 -94 -101 -41 -45 0
-100 -98 -101 -41 -46 0
-88 -83 -89 -42 -43 0
-93 -83 -94 -42 -43 0
-97 -83 -98 -42 -43 0
-100 -83 -101 -42 -43 0
-93 -89 -94 -42 -44 0
-97 -89 -98 -42 -44 0
-100 -89 -101 -42 -44 0
-97 -94 -98 -42 -45 0
-100 -94 -101 -42 -45 0
-100 -98 -101 -42 -46 0
-93 -89 -94 -43 -44 0
-97 -89 -98 -43 -44 0
-100 -89 -101 -43 -44 0
-97 -94 -98 -43 -45 0
-100 -94 -101 -43 -45 0
-100 -98 -101 -43 -46 0
-97 -94 -98 -44 -45 0
-100 -94 -101 -44 -45 0
-100 -98 -101 -44 -46 0
-100 -98 -101 -45 -46 0
-82 -76 -83 -51 -52 0
-88 -76 -89 -51 -52 0
-93 -76 -94 -51 -52 0
-97 -76 -98 -51 -52 0
-100 -76 -101 -51 -52 0
-88 -83 -89 -51 -53 0
-93 -83 -94 -51 -53 0
-97 -83 -98 -51 -53 0
-100 -83 -101 -51 -53 0
-93 -89 -94 -51 -54 0
-97 -89 -98 -51 -54 0
-100 -89 -101 -51 -54 0
-97 -94 -98 -51 -55 0
-100 -94 -101 -51 -55 0
-100 -98 -101 -51 -56 0
-88 -83 -89 -52 -53 0
-93 -83 -94 -52 -53 0
-97 -83 -98 -52 -53 0
-100 -83 -101 -52 -53 0
-93 -89 -94 -52 -54 0
-97 -89 -98 -52 -54 0
-100 -89 -101 -52 -54 0
-97 -94 -98 -52 -55 0
-100 -94 -101 -52 -55 0
-100 -98 -101 -52 -56 0
-93 -89 -94 -53 -54 0
-97 -89 -98 -53 -54 0
-100 -89 -101 -53 -54 0
-97 -94 -98 -53 -55 0
-100 -94 -101 -53 -55 0
-100 -98 -101 -53 -56 0
-97 -94 -98 -54 -55 0
-100 -94 -101 -54 -55 0
-100 -98 -101 -54 -56 0
-100 -98 -101 -55 -56 0
-88 -83 -89 -61 -62 0
-93 -83 -94 -61 -62 0
-97 -83 -98 -61 -62 0
-100 -83 -101 -61 -62 0
-93 -89 -94 -61 -63 0
-97 -89 -98 -61 -63 0
-100 -89 -101 -61 -63 0
-97 -94 -98 -61 -64 0
-100 -94 -101 -61 -64 0
-100 -98 -101 -61 -65 0
-93 -89 -94 -62 -63 0
-97 -89 -98 -62 -63 0
-100 -89 -101 -62 -63 0
-97 -94 -98 -62 -64 0
-100 -94 -101 -62 -64 0
-100 -98 -101 -62 -65 0
-97 -94 -98 -63 -64 0
-100 -94 -101 -63 -64 0
-100 -98 -101 -63 -65 0
-100 -98 -101 -64 -65 0
-93 -89 -94 -70 -71 0
-97 -89 -98 -70 -71 0
-100 -89 -101 -70 -71 0
-97 -94 -98 -70 -72 0
-100 -94 -101 -70 -72 0
-100 -98 -101 -70 -73 0
-97 -94 -98 -71 -72 0
-100 -94 -101 -71 -72 0
-100 -98 -101 -71 -73 0
-100 -98 -101 -72 -73 0
-97 -94 -98 -78 -79 0
-100 -94 -101 -78 -79 0
-100 -98 -101 -78 -80 0
-100 -98 -101 -79 -80 0
-100 -98 -101 -85 -86 0
-48 -39 -50 -1 -2 0
-58 -39 -60 -1 -2 0
-67 -39 -69 -1 -2 0
-75 -39 -77 -1 -2 0
-82 -39 -84 -1 -2 0
-88 -39 -90 -1 -2 0
-93 -39 -95 -1 -2 0
-97 -39 -99 -1 -2 0
-100 -39 -102 -1 -2 0
-58 -50 -60 -1 -3 0
-67 -50 -69 -1 -3 0
-75 -50 -77 -1 -3 0
-82 -50 -84 -1 -3 0
-88 -50 -90 -1 -3 0
-93 -50 -95 -1 -3 0
-97 -50 -99 -1 -3 0
-100 -50 -102 -1 -3 0
-67 -60 -69 -1 -4 0
-75 -60 -77 -1 -4 0
-82 -60 -84 -1 -4 0
-88 -60 -90 -1 -4 0
-93 -60 -95 -1 -4 0
-97 -60 -99 -1 -4 0
-100 -60 -102 -1 -4 0
-75 -69 -77 -1 -5 0
-82 -69 -84 -1 -5 0
-88 -69 -90 -1 -5 0
-93 -69 -95 -1 -5 0
-97 -69 -99 -1 -5 0
-100 -69 -102 -1 -5 0
-82 -77 -84 -1 -6 0
-88 -77 -90 -1 -6 0
-93 -77 -95 -1 -6 0
-97 -77 -99 -1 -6 0
-100 -77 -102 -1 -6 0
-88 -84 -90 -1 -7 0
-93 -84 -95 -1 -7 0
-97 -84 -99 -1 -7 0
-100 -84 -102 -1 -7 0
-93 -90 -95 -1 -8 0
-97 -90 -99 -1 -8 0
-100 -90 -102 -1 -8 0
-97 -95 -99 -1 -9 0
-100 -95 -102 -1 -9 0
-100 -99 -102 -1 -10 0
-58 -50 -60 -2 -3 0
-67 -50 -69 -2 -3 0
-75 -50 -77 -2 -3 0
-82 -50 -84 -2 -3 0
-88 -50 -90 -2 -3 0
-93 -50 -95 -2 -3 0
-97 -50 -99 -2 -3 0
-100 -50 -102 -2 -3 0
-67 -60 -69 -2 -4 0
-75 -60 -77 -2 -4 0
-82 -60 -84 -2 -4 0
-88 -60 -90 -2 -4 0
-93 -60 -95 -2 -4 0
-97 -60 -99 -2 -4 0
-100 -60 -102 -2 -4 0
-75 -69 -77 -2 -5 0
-82 -69 -84 -2 -5 0
-88 -69 -90 -2 -5 0
-93 -69 -95 -2 -5 0
-97 -69 -99 -2 -5 0
-100 -69 -102 -2 -5 0
-82 -77 -84 -2 -6 0
-88 -77 -90 -2 -6 0
-93 -77 -95 -2 -6 0
-97 -77 -99 -2 -6 0
-100 -77 -102 -2 -6 0
-88 -84 -90 -2 -7 0
-93 -84 -95 -2 -7 0
-97 -84 -99 -2 -7 0
-100 -84 -102 -2 -7 0
-93 -90 -95 -2 -8 0
-97 -90 -99 -2 -8 0
-100 -90 -102 -2 -8 0
-97 -95 -99 -2 -9 0
-100 -95 -102 -2 -9 0
-100 -99 -102 -2 -10 0
-67 -60 -69 -3 -4 0
-75 -60 -77 -3 -4 0
-82 -60 -84 -3 -4 0
-88 -60 -90 -3 -4 0
-93 -60 -95 -3 -4 0
-97 -60 -99 -3 -4 0
-100 -60 -102 -3 -4 0
-75 -69 -77 -3 -5 0
-82 -69 -84 -3 -5 0
-88 -69 -90 -3 -5 0
-93 -69 -95 -3 -5 0
-97 -69 -99 -3 -5 0
-100 -69 -102 -3 -5 0
-82 -77 -84 -3 -6 0
-88 -77 -90 -3 -6 0
-93 -77 -95 -3 -6 0
-97 -77 -99 -3 -6 0
-100 -77 -102 -3 -6 0
-88 -84 -90 -3 -7 0
-93 -84 -95 -3 -7 0
-97 -84 -99 -3 -7 0
-100 -84 -102 -3 -7 0
-93 -90 -95 -3 -8 0
-97 -90 -99 -3 -8 0
-100 -90 -102 -3 -8 0
-97 -95 -99 -3 -9 0
-100 -95 -102 -3 -9 0
-100 -99 -102 -3 -10 0
-75 -69 -77 -4 -5 0
-82 -69 -84 -4 -5 0
-88 -69 -90 -4 -5 0
-93 -69 -95 -4 -5 0
-97 -69 -99 -4 -5 0
-100 -69 -102 -4 -5 0
-82 -77 -84 -4 -6 0
-88 -77 -90 -4 -6 0
-93 -77 -95 -4 -6 0
-97 -77 -99 -4 -6 0
-100 -77 -102 -4 -6 0
-88 -84 -90 -4 -7 0
-93 -84 -95 -4 -7 0
-97 -84 -99 -4 -7 0
-100 -84 -102 -4 -7 0
-93 -90 -95 -4 -8 0
-97 -90 -99 -4 -8 0
-100 -90 -102 -4 -8 0
-97 -95 -99 -4 -9 0
-100 -95 -102 -4 -9 0
-100 -99 -102 -4 -10 0
-82 -77 -84 -5 -6 0
-88 -77 -90 -5 -6 0
-93 -77 -95 -5 -6 0
-97 -77 -99 -5 -6 0
-100 -77 -102 -5 -6 0
-88 -84 -90 -5 -7 0
-93 -84 -95 -5 -7 0
-97 -84 -99 -5 -7 0
-100 -84 -102 -5 -7 0
-93 -90 -95 -5 -8 0
-97 -90 -99 -5 -8 0
-100 -90 -102 -5 -8 0
-97 -95 -99 -5 -9 0
-100 -95 -102 -5 -9 0
-100 -99 -102 -5 -10 0
-88 -84 -90 -6 -7 0
-93 -84 -95 -6 -7 0
-97 -84 -99 -6 -7 0
-100 -84 -102 -6 -7 0
-93 -90 -95 -6 -8 0
-97 -90 -99 -6 -8 0
-100 -90 -102 -6 -8 0
-97 -95 -99 -6 -9 0
-100 -95 -102 -6 -9 0
-100 -99 -102 -6 -10 0
-93 -90 -95 -7 -8 0
-97 -90 -99 -7 -8 0
-100 -90 -102 -7 -8 0
-97 -95 -99 -7 -9 0
-100 -95 -102 -7 -9 0
-100 -99 -102 -7 -10 0
-97 -95 -99 -8 -9 0
-100 -95 -102 -8 -9 0
-100 -99 -102 -8 -10 0
-100 -99 -102 -9 -10 0
-58 -50 -60 -15 -16 0
-67 -50 -69 -15 -16 0
-75 -50 -77 -15 -16 0
-82 -50 -84 -15 -16 0
-88 -50 -90 -15 -16 0
-93 -50 -95 -15 -16 0
-97 -50 -99 -15 -16 0
-100 -50 -102 -15 -16 0
-67 -60 -69 -15 -17 0
-75 -60 -77 -15 -17 0
-82 -60 -84 -15 -17 0
-88 -60 -90 -15 -17 0
-93 -60 -95 -15 -17 0
-97 -60 -99 -15 -17 0
-100 -60 -102 -15 -17 0
-75 -69 -77 -15 -18 0
-82 -69 -84 -15 -18 0
-88 -69 -90 -15 -18 0
-93 -69 -95 -15 -18 0
-97 -69 -99 -15 -18 0
-100 -69 -102 -15 -18 0
-82 -77 -84 -15 -19 0
-88 -77 -90 -15 -19 0
-93 -77 -95 -15 -19 0
-97 -77 -99 -15 -19 0
-100 -77 -102 -15 -19 0
-88 -84 -90 -15 -20 0
-93 -84 -95 -15 -20 0
-97 -84 -99 -15 -20 0
-100 -84 -102 -15 -20 0
-93 -90 -95 -15 -21 0
-97 -90 -99 -15 -21 0
-100 -90 -102 -15 -21 0
-97 -95 -99 -15 -22 0
-100 -95 -102 -15 -22 0
-100 -99 -102 -15 -23 0
-67 -60 -69 -16 -17 0
-75 -60 -77 -16 -17 0
-82 -60 -84 -16 -17 0
-88 -60 -90 -16 -17 0
-93 -60 -95 -16 -17 0
-97 -60 -99 -16 -17 0
-100 -60 -102 -16 -17 0
-75 -69 -77 -16 -18 0
-82 -69 -84 -16 -18 0
-88 -69 -90 -16 -18 0
-93 -69 -95 -16 -18 0
-97 -69 -99 -16 -18 0
-100 -69 -102 -16 -18 0
-82 -77 -84 -16 -19 0
-88 -77 -90 -16 -19 0
-93 -77 -95 -16 -19 0
-97 -77 -99 -16 -19 0
-100 -77 -102 -16 -19 0
-88 -84 -90 -16 -20 0
-93 -84 -95 -16 -20 0
-97 -84 -99 -16 -20 0
-100 -84 -102 -16 -20 0
-93 -90 -95 -16 -21 0
-97 -90 -99 -16 -21 0
-100 -90 -102 -16 -21 0
-97 -95 -99 -16 -22 0
-100 -95 -102 -16 -22 0
-100 -99 -102 -16 -23 0
-75 -69 -77 -17 -18 0
-82 -69 -84 -17 -18 0
-88 -69 -90 -17 -18 0
-93 -69 -95 -17 -18 0
-97 -69 -99 -17 -18 0
-100 -69 -102 -17 -18 0
-82 -77 -84 -17 -19 0
-88 -77 -90 -17 -19 0
-93 -77 -95 -17 -19 0
-97 -77 -99 -17 -19 0
-100 -77 -102 -17 -19 0
-88 -84 -90 -17 -20 0
-93 -84 -95 -17 -20 0
-97 -84 -99 -17 -20 0
-100 -84 -102 -17 -20 0
-93 -90 -95 -17 -21 0
-97 -90 -99 -17 -21 0
-100 -90 -102 -17 -21 0
-97 -95 -99 -17 -22 0
-100 -95 -102 -17 -22 0
-100 -99 -102 -17 -23 0
-82 -77 -84 -18 -19 0
-88 -77 -90 -18 -19 0
-93 -77 -95 -18 -19 0
-97 -77 -99 -18 -19 0
-100 -77 -102 -18 -19 0
-88 -84 -90 -18 -20 0
-93 -84 -95 -18 -20 0
-97 -84 -99 -18 -20 0
-100 -84 -102 -18 -20 0
-93 -90 -95 -18 -21 0
-97 -90 -99 -18 -21 0
-100 -90 -102 -18 -21 0
-97 -95 -99 -18 -22 0
-100 -95 -102 -18 -22 0
-100 -99 -102 -18 -23 0
-88 -84 -90 -19 -20 0
-93 -84 -95 -19 -20 0
-97 -84 -99 -19 -20 0
-100 -84 -102 -19 -20 0
-93 -90 -95 -19 -21 0
-97 -90 -99 -19 -21 0
-100 -90 -102 -19 -21 0
-97 -95 -99 -19 -22 0
-100 -95 -102 -19 -22 0
-100 -99 -102 -19 -23 0
-93 -90 -95 -20 -21 0
-97 -90 -99 -20 -21 0
-100 -90 -102 -20 -21 0
-97 -95 -99 -20 -22 0
-100 -95 -102 -20 -22 0
-100 -99 -102 -20 -23 0
-97 -95 -99 -21 -22 0
-100 -95 -102 -21 -22 0
-100 -99 -102 -21 -23 0
-100 -99 -102 -22 -23 0
-67 -60 -69 -28 -29 0
-75 -60 -77 -28 -29 0
-82 -60 -84 -28 -29 0
-88 -60 -90 -28 -29 0
-93 -60 -95 -28 -29 0
-97 -60 -99 -28 -29 0
-100 -60 -102 -28 -29 0
-75 -69 -77 -28 -30 0
-82 -69 -84 -28 -30 0
-88 -69 -90 -28 -30 0
-93 -69 -95 -28 -30 0
-97 -69 -99 -28 -30 0
-100 -69 -102 -28 -30 0
-82 -77 -84 -28 -31 0
-88 -77 -90 -28 -31 0
-93 -77 -95 -28 -31 0
-97 -77 -99 -28 -31 0
-100 -77 -102 -28 -31 0
-88 -84 -90 -28 -32 0
-93 -84 -95 -28 -32 0
-97 -84 -99 -28 -32 0
-100 -84 -102 -28 -32 0
-93 -90 -95 -28 -33 0
-97 -90 -99 -28 -33 0
-100 -90 -102 -28 -33 0
-97 -95 -99 -28 -34 0
-100 -95 -102 -28 -34 0
-100 -99 -102 -28 -35 0
-75 -69 -77 -29 -30 0
-82 -69 -84 -29 -30 0
-88 -69 -90 -29 -30 0
-93 -69 -95 -29 -30 0
-97 -69 -99 -29 -30 0
-100 -69 -102 -29 -30 0
-82 -77 -84 -29 -31 0
-88 -77 -90 -29 -31 0
-93 -77 -95 -29 -31 0
-97 -77 -99 -29 -31 0
-100 -77 -102 -29 -31 0
-88 -84 -90 -29 -32 0
-93 -84 -95 -29 -32 0
-97 -84 -99 -29 -32 0
-100 -84 -102 -29 -32 0
-93 -90 -95 -29 -33 0
-97 -90 -99 -29 -33 0
-100 -90 -102 -29 -33 0
-97 -95 -99 -29 -34 0
-100 -95 -102 -29 -34 0
-100 -99 -102 -29 -35 0
-82 -77 -84 -30 -31 0
-88 -77 -90 -30 -31 0
-93 -77 -95 -30 -31 0
-97 -77 -99 -30 -31 0
-100 -77 -102 -30 -31 0
-88 -84 -90 -30 -32 0
-93 -84 -95 -30 -32 0
-97 -84 -99 -30 -32 0
-100 -84 -102 -30 -32 0
-93 -90 -95 -30 -33 0
-97 -90 -99 -30 -33 0
-100 -90 -102 -30 -33 0
-97 -95 -99 -30 -34 0
-100 -95 -102 -30 -34 0
-100 -99 -102 -30 -35 0
-88 -84 -90 -31 -32 0
-93 -84 -95 -31 -32 0
-97 -84 -99 -31 -32 0
-100 -84 -102 -31 -32 0
-93 -90 -95 -31 -33 0
-97 -90 -99 -31 -33 0
-100 -90 -102 -31 -33 0
-97 -95 -99 -31 -34 0
-100 -95 -102 -31 -34 0
-100 -99 -102 -31 -35 0
-93 -90 -95 -32 -33 0
-97 -90 -99 -32 -33 0
-100 -90 -102 -32 -33 0
-97 -95 -99 -32 -34 0
-100 -95 -102 -32 -34 0
-100 -99 -102 -32 -35 0
-97 -95 -99 -33 -34 0
-100 -95 -102 -33 -34 0
-100 -99 -102 -33 -35 0
-100 -99 -102 -34 -35 0
-75 -69 -77 -40 -41 0
-82 -69 -84 -40 -41 0
-88 -69 -90 -40 -41 0
-93 -69 -95 -40 -41 0
-97 -69 -99 -40 -41 0
-100 -69 -102 -40 -41 0
-82 -77 -84 -40 -42 0
-88 -77 -90 -40 -42 0
-93 -77 -95 -40 -42 0
-97 -77 -99 -40 -42 0
-100 -77 -102 -40 -42 0
-88 -84 -90 -40 -43 0
-93 -84 -95 -40 -43 0
-97 -84 -99 -40 -43 0
-100 -84 -102 -40 -43 0
-93 -90 -95 -40 -44 0
-97 -90 -99 -40 -44 0
-100 -90 -102 -40 -44 0
-97 -95 -99 -40 -45 0
-100 -95 -102 -40 -45 0
-100 -99 -102 -40 -46 0
-82 -77 -84 -41 -42 0
-88 -77 -90 -41 -42 0
-93 -77 -95 -41 -42 0
-97 -77 -99 -41 -42 0
-100 -77 -102 -41 -42 0
-88 -84 -90 -41 -43 0
-93 -84 -95 -41 -43 0
-97 -84 -99 -41 -43 0
-100 -84 -102 -41 -43 0
-93 -90 -95 -41 -44 0
-97 -90 -99 -41 -44 0
-100 -90 -102 -41 -44 0
-97 -95 -99 -41 -45 0
-100 -95 -102 -41 -45 0
-100 -99 -102 -41 -46 0
-88 -84 -90 -42 -43 0
-93 -84 -95 -42 -43 0
-97 -84 -99 -42 -43 0
-100 -84 -102 -42 -43 0
-93 -90 -95 -42 -44 0
-97 -90 -99 -42 -44 0
-100 -90 -102 -42 -44 0
-97 -95 -99 -42 -45 0
-100 -95 -102 -42 -45 0
-100 -99 -102 -42 -46 0
-93 -90 -95 -43 -44 0
-97 -90 -99 -43 -44 0
-100 -90 -102 -43 -44 0
-97 -95 -99 -43 -45 0
-100 -95 -102 -43 -45 0
-100 -99 -102 -43 -46 0
-97 -95 -99 -44 -45 0
-100 -95 -102 -44 -45 0
-100 -99 -102 -44 -46 0
-100 -99 -102 -45 -46 0
-82 -77 -84 -51 -52 0
-88 -77 -90 -51 -52 0
-93 -77 -95 -51 -52 0
-97 -77 -99 -51 -52 0
-100 -77 -102 -51 -52 0
-88 -84 -90 -51 -53 0
-93 -84 -95 -51 -53 0
-97 -84 -99 -51 -53 0
-100 -84 -102 -51 -53 0
-93 -90 -95 -51 -54 0
-97 -90 -99 -51 -54 0
-100 -90 -102 -51 -54 0
-97 -95 -99 -51 -55 0
-100 -95 -102 -51 -55 0
-100 -99 -102 -51 -56 0
-88 -84 -90 -52 -53 0
-93 -84 -95 -52 -53 0
-97 -84 -99 -52 -53 0
-100 -84 -102 -52 -53 0
-93 -90 -95 -52 -54 0
-97 -90 -99 -52 -54 0
-100 -90 -102 -52 -54 0
-97 -95 -99 -52 -55 0
-100 -95 -102 -52 -55 0
-100 -99 -102 -52 -56 0
-93 -90 -95 -53 -54 0
-97 -90 -99 -53 -54 0
-100 -90 -102 -53 -54 0
-97 -95 -99 -53 -55 0
-100 -95 -102 -53 -55 0
-100 -99 -102 -53 -56 0
-97 -95 -99 -54 -55 0
-100 -95 -102 -54 -55 0
-100 -99 -102 -54 -56 0
-100 -99 -102 -55 -56 0
-88 -84 -90 -61 -62 0
-93 -84 -95 -61 -62 0
-97 -84 -99 -61 -62 0
-100 -84 -102 -61 -62 0
-93 -90 -95 -61 -63 0
-97 -90 -99 -61 -63 0
-100 -90 -102 -61 -63 0
-97 -95 -99 -61 -64 0
-100 -95 -102 -61 -64 0
-100 -99 -102 -61 -65 0
-93 -90 -95 -62 -63 0
-97 -90 -99 -62 -63 0
-100 -90 -102 -62 -63 0
-97 -95 -99 -62 -64 0
-100 -95 -102 -62 -64 0
-100 -99 -102 -62 -65 0
-97 -95 -99 -63 -64 0
-100 -95 -102 -63 -64 0
-100 -99 -102 -63 -65 0
-100 -99 -102 -64 -65 0
-93 -90 -95 -70 -71 0
-97 -90 -99 -70 -71 0
-100 -90 -102 -70 -71 0
-97 -95 -99 -70 -72 0
-100 -95 -102 -70 -72 0
-100 -99 -102 -70 -73 0
-97 -95 -99 -71 -72 0
-100 -95 -102 -71 -72 0
-100 -99 -102 -71 -73 0
-100 -99 -102 -72 -73 0
-97 -95 -99 -78 -79 0
-100 -95 -102 -78 -79 0
-100 -99 -102 -78 -80 0
-100 -99 -102 -79 -80 0
-100 -99 -102 -85 -86 0
-58 -3 -4 -15 -16 0
-67 -3 -5 -15 -16 0
-75 -3 -6 -15 -16 0
-82 -3 -7 -15 -16 0
-88 -3 -8 -15 -16 0
-93 -3 -9 -15 -16 0
-97 -3 -10 -15 -16 0
-100 -3 -11 -15 -16 0
-67 -4 -5 -15 -17 0
-75 -4 -6 -15 -17 0
-82 -4 -7 -15 -17 0
-88 -4 -8 -15 -17 0
-93 -4 -9 -15 -17 0
-97 -4 -10 -15 -17 0
-100 -4 -11 -15 -17 0
-75 -5 -6 -15 -18 0
-82 -5 -7 -15 -18 0
-88 -5 -8 -15 -18 0
-93 -5 -9 -15 -18 0
-97 -5 -10 -15 -18 0
-100 -5 -11 -15 -18 0
-82 -6 -7 -15 -19 0
-88 -6 -8 -15 -19 0
-93 -6 -9 -15 -19 0
-97 -6 -10 -15 -19 0
-100 -6 -11 -15 -19 0
-88 -7 -8 -15 -20 0
-93 -7 -9 -15 -20 0
-97 -7 -10 -15 -20 0
-100 -7 -11 -15 -20 0
-93 -8 -9 -15 -21 0
-97 -8 -10 -15 -21 0
-100 -8 -11 -15 -21 0
-97 -9 -10 -15 -22 0
-100 -9 -11 -15 -22 0
-100 -10 -11 -15 -23 0
-67 -4 -5 -16 -17 0
-75 -4 -6 -16 -17 0
-82 -4 -7 -16 -17 0
-88 -4 -8 -16 -17 0
-93 -4 -9 -16 -17 0
-97 -4 -10 -16 -17 0
-100 -4 -11 -16 -17 0
-75 -5 -6 -16 -18 0
-82 -5 -7 -16 -18 0
-88 -5 -8 -16 -18 0
-93 -5 -9 -16 -18 0
-97 -5 -10 -16 -18 0
-100 -5 -11 -16 -18 0
-82 -6 -7 -16 -19 0
-88 -6 -8 -16 -19 0
-93 -6 -9 -16 -19 0
-97 -6 -10 -16 -19 0
-100 -6 -11 -16 -19 0
-88 -7 -8 -16 -20 0
-93 -7 -9 -16 -20 0
-97 -7 -10 -16 -20 0
-100 -7 -11 -16 -20 0
-93 -8 -9 -16 -21 0
-97 -8 -10 -16 -21 0
-100 -8 -11 -16 -21 0
-97 -9 -10 -16 -22 0
-100 -9 -11 -16 -22 0
-100 -10 -11 -16 -23 0
-75 -5 -6 -17 -18 0
-82 -5 -7 -17 -18 0
-88 -5 -8 -17 -18 0
-93 -5 -9 -17 -18 0
-97 -5 -10 -17 -18 0
-100 -5 -11 -17 -18 0
-82 -6 -7 -17 -19 0
-88 -6 -8 -17 -19 0
-93 -6 -9 -17 -19 0
-97 -6 -10 -17 -19 0
-100 -6 -11 -17 -19 0
-88 -7 -8 -17 -20 0
-93 -7 -9 -17 -20 0
-97 -7 -10 -17 -20 0
-100 -7 -11 -17 -20 0
-93 -8 -9 -17 -21 0
-97 -8 -10 -17 -21 0
-100 -8 -11 -17 -21 0
-97 -9 -10 -17 -22 0
-100 -9 -11 -17 -22 0
-100 -10 -11 -17 -23 0
-82 -6 -7 -18 -19 0
-88 -6 -8 -18 -19 0
-93 -6 -9 -18 -19 0
-97 -6 -10 -18 -19 0
-100 -6 -11 -18 -19 0
-88 -7 -8 -18 -20 0
-93 -7 -9 -18 -20 0
-97 -7 -10 -18 -20 0
-100 -7 -11 -18 -20 0
-93 -8 -9 -18 -21 0
-97 -8 -10 -18 -21 0
-100 -8 -11 -18 -21 0
-97 -9 -10 -18 -22 0
-100 -9 -11 -18 -22 0
-100 -10 -11 -18 -23 0
-88 -7 -8 -19 -20 0
-93 -7 -9 -19 -20 0
-97 -7 -10 -19 -20 0
-100 -7 -11 -19 -20 0
-93 -8 -9 -19 -21 0
-97 -8 -10 -19 -21 0
-100 -8 -11 -19 -21 0
-97 -9 -10 -19 -22 0
-100 -9 -11 -19 -22 0
-100 -10 -11 -19 -23 0
-93 -8 -9 -20 -21 0
-97 -8 -10 -20 -21 0
-100 -8 -11 -20 -21 0
-97 -9 -10 -20 -22 0
-100 -9 -11 -20 -22 0
-100 -10 -11 -20 -23 0
-97 -9 -10 -21 -22 0
-100 -9 -11 -21 -22 0
-100 -10 -11 -21 -23 0
-100 -10 -11 -22 -23 0
-67 -4 -5 -28 -29 0
-75 -4 -6 -28 -29 0
-82 -4 -7 -28 -29 0
-88 -4 -8 -28 -29 0
-93 -4 -9 -28 -29 0
-97 -4 -10 -28 -29 0
-100 -4 -11 -28 -29 0
-75 -5 -6 -28 -30 0
-82 -5 -7 -28 -30 0
-88 -5 -8 -28 -30 0
-93 -5 -9 -28 -30 0
-97 -5 -10 -28 -30 0
-100 -5 -11 -28 -30 0
-82 -6 -7 -28 -31 0
-88 -6 -8 -28 -31 0
-93 -6 -9 -28 -31 0
-97 -6 -10 -28 -31 0
-100 -6 -11 -28 -31 0
-88 -7 -8 -28 -32 0
-93 -7 -9 -28 -32 0
-97 -7 -10 -28 -32 0
-100 -7 -11 -28 -32 0
-93 -8 -9 -28 -33 0
-97 -8 -10 -28 -33 0
-100 -8 -11 -28 -33 0
-97 -9 -10 -28 -34 0
-100 -9 -11 -28 -34 0
-100 -10 -11 -28 -35 0
-75 -5 -6 -29 -30 0
-82 -5 -7 -29 -30 0
-88 -5 -8 -29 -30 0
-93 -5 -9 -29 -30 0
-97 -5 -10 -29 -30 0
-100 -5 -11 -29 -30 0
-82 -6 -7 -29 -31 0
-88 -6 -8 -29 -31 0
-93 -6 -9 -29 -31 0
-97 -6 -10 -29 -31 0
-100 -6 -11 -29 -31 0
-88 -7 -8 -29 -32 0
-93 -7 -9 -29 -32 0
-97 -7 -10 -29 -32 0
-100 -7 -11 -29 -32 0
-93 -8 -9 -29 -33 0
-97 -8 -10 -29 -33 0
-100 -8 -11 -29 -33 0
-97 -9 -10 -29 -34 0
-100 -9 -11 -29 -34 0
-100 -10 -11 -29 -35 0
-82 -6 -7 -30 -31 0
-88 -6 -8 -30 -31 0
-93 -6 -9 -30 -31 0
-97 -6 -10 -30 -31 0
-100 -6 -11 -30 -31 0
-88 -7 -8 -30 -32 0
-93 -7 -9 -30 -32 0
-97 -7 -10 -30 -32 0
-100 -7 -11 -30 -32 0
-93 -8 -9 -30 -33 0
-97 -8 -10 -30 -33 0
-100 -8 -11 -30 -33 0
-97 -9 -10 -30 -34 0
-100 -9 -11 -30 -34 0
-100 -10 -11 -30 -35 0
-88 -7 -8 -31 -32 0
-93 -7 -9 -31 -32 0
-97 -7 -10 -31 -32 0
-100 -7 -11 -31 -32 0
-93 -8 -9 -31 -33 0
-97 -8 -10 -31 -33 0
-100 -8 -11 -31 -33 0
-97 -9 -10 -31 -34 0
-100 -9 -11 -31 -34 0
-100 -10 -11 -31 -35 0
-93 -8 -9 -32 -33 0
-97 -8 -10 -32 -33 0
-100 -8 -11 -32 -33 0
-97 -9 -10 -32 -34 0
-100 -9 -11 -32 -34 0
-100 -10 -11 -32 -35 0
-97 -9 -10 -33 -34 0
-100 -9 -11 -33 -34 0
-100 -10 -11 -33 -35 0
-100 -10 -11 -34 -35 0
-75 -5 -6 -40 -41 0
-82 -5 -7 -40 -41 0
-88 -5 -8 -40 -41 0
-93 -5 -9 -40 -41 0
-97 -5 -10 -40 -41 0
-100 -5 -11 -40 -41 0
-82 -6 -7 -40 -42 0
-88 -6 -8 -40 -42 0
-93 -6 -9 -40 -42 0
-97 -6 -10 -40 -42 0
-100 -6 -11 -40 -42 0
-88 -7 -8 -40 -43 0
-93 -7 -9 -40 -43 0
-97 -7 -10 -40 -43 0
-100 -7 -11 -40 -43 0
-93 -8 -9 -40 -44 0
-97 -8 -10 -40 -44 0
-100 -8 -11 -40 -44 0
-97 -9 -10 -40 -45 0
-100 -9 -11 -40 -45 0
-100 -10 -11 -40 -46 0
-82 -6 -7 -41 -42 0
-88 -6 -8 -41 -42 0
-93 -6 -9 -41 -42 0
-97 -6 -10 -41 -42 0
-100 -6 -11 -41 -42 0
-88 -7 -8 -41 -43 0
-93 -7 -9 -41 -43 0
-97 -7 -10 -41 -43 0
-100 -7 -11 -41 -43 0
-93 -8 -9 -41 -44 0
-97 -8 -10 -41 -44 0
-100 -8 -11 -41 -44 0
-97 -9 -10 -41 -45 0
-100 -9 -11 -41 -45 0
-100 -10 -11 -41 -46 0
-88 -7 -8 -42 -43 0
-93 -7 -9 -42 -43 0
-97 -7 -10 -42 -43 0
-100 -7 -11 -42 -43 0
-93 -8 -9 -42 -44 0
-97 -8 -10 -42 -44 0
-100 -8 -11 -42 -44 0
-97 -9 -10 -42 -45 0
-100 -9 -11 -42 -45 0
-100 -10 -11 -42 -46 0
-93 -8 -9 -43 -44 0
-97 -8 -10 -43 -44 0
-100 -8 -11 -43 -44 0
-97 -9 -10 -43 -45 0
-100 -9 -11 -43 -45 0
-100 -10 -11 -43 -46 0
-97 -9 -10 -44 -45 0
-100 -9 -11 -44 -45 0
-100 -10 -11 -44 -46 0
-100 -10 -11 -45 -46 0
-82 -6 -7 -51 -52 0
-88 -6 -8 -51 -52 0
-93 -6 -9 -51 -52 0
-97 -6 -10 -51 -52 0
-100 -6 -11 -51 -52 0
-88 -7 -8 -51 -53 0
-93 -7 -9 -51 -53 0
-97 -7 -10 -51 -53 0
-100 -7 -11 -51 -53 0
-93 -8 -9 -51 -54 0
-97 -8 -10 -51 -54 0
-100 -8 -11 -51 -54 0
-97 -9 -10 -51 -55 0
-100 -9 -11 -51 -55 0
-100 -10 -11 -51 -56 0
-88 -7 -8 -52 -53 0
-93 -7 -9 -52 -53 0
-97 -7 -10 -52 -53 0
-100 -7 -11 -52 -53 0
-93 -8 -9 -52 -54 0
-97 -8 -10 -52 -54 0
-100 -8 -11 -52 -54 0
-97 -9 -10 -52 -55 0
-100 -9 -11 -52 -55 0
-100 -10 -11 -52 -56 0
-93 -8 -9 -53 -54 0
-97 -8 -10 -53 -54 0
-100 -8 -11 -53 -54 0
-97 -9 -10 -53 -55 0
-100 -9 -11 -53 -55 0
-100 -10 -11 -53 -56 0
-97 -9 -10 -54 -55 0
-100 -9 -11 -54 -55 0
-100 -10 -11 -54 -56 0
-100 -10 -11 -55 -56 0
-88 -7 -8 -61 -62 0
-93 -7 -9 -61 -62 0
-97 -7 -10 -61 -62 0
-100 -7 -11 -61 -62 0
-93 -8 -9 -61 -63 0
-97 -8 -10 -61 -63 0
-100 -8 -11 -61 -63 0
-97 -9 -10 -61 -64 0
-100 -9 -11 -61 -64 0
-100 -10 -11 -61 -65 0
-93 -8 -9 -62 -63 0
-97 -8 -10 -62 -63 0
-100 -8 -11 -62 -63 0
-97 -9 -10 -62 -64 0
-100 -9 -11 -62 -64 0
-100 -10 -11 -62 -65 0
-97 -9 -10 -63 -64 0
-100 -9 -11 -63 -64 0
-100 -10 -11 -63 -65 0
-100 -10 -11 -64 -65 0
-93 -8 -9 -70 -71 0
-97 -8 -10 -70 -71 0
-100 -8 -11 -70 -71 0
-97 -9 -10 -70 -72 0
-100 -9 -11 -70 -72 0
-100 -10 -11 -70 -73 0
-97 -9 -10 -71 -72 0
-100 -9 -11 -71 -72 0
-100 -10 -11 -71 -73 0
-100 -10 -11 -72 -73 0
-97 -9 -10 -78 -79 0
-100 -9 -11 -78 -79 0
-100 -10 -11 -78 -80 0
-100 -10 -11 -79 -80 0
-100 -10 -11 -85 -86 0
-67 -17 -18 -28 -29 0
-75 -17 -19 -28 -29 0
-82 -17 -20 -28 -29 0
-88 -17 -21 -28 -29 0
-93 -17 -22 -28 -29 0
-97 -17 -23 -28 -29 0
-100 -17 -24 -28 -29 0
-75 -18 -19 -28 -30 0
-82 -18 -20 -28 -30 0
-88 -18 -21 -28 -30 0
-93 -18 -22 -28 -30 0
-97 -18 -23 -28 -30 0
-100 -18 -24 -28 -30 0
-82 -19 -20 -28 -31 0
-88 -19 -21 -28 -31 0
-93 -19 -22 -28 -31 0
-97 -19 -23 -28 -31 0
-100 -19 -24 -28 -31 0
-88 -20 -21 -28 -32 0
-93 -20 -22 -28 -32 0
-97 -20 -23 -28 -32 0
-100 -20 -24 -28 -32 0
-93 -21 -22 -28 -33 0
-97 -21 -23 -28 -33 0
-100 -21 -24 -28 -33 0
-97 -22 -23 -28 -34 0
-100 -22 -24 -28 -34 0
-100 -23 -24 -28 -35 0
-75 -18 -19 -29 -30 0
-82 -18 -20 -29 -30 0
-88 -18 -21 -29 -30 0
-93 -18 -22 -29 -30 0
-97 -18 -23 -29 -30 0
-100 -18 -24 -29 -30 0
-82 -19 -20 -29 -31 0
-88 -19 -21 -29 -31 0
-93 -19 -22 -29 -31 0
-97 -19 -23 -29 -31 0
-100 -19 -24 -29 -31 0
-88 -20 -21 -29 -32 0
-93 -20 -22 -29 -32 0
-97 -20 -23 -29 -32 0
-100 -20 -24 -29 -32 0
-93 -21 -22 -29 -33 0
-97 -21 -23 -29 -33 0
-100 -21 -24 -29 -33 0
-97 -22 -23 -29 -34 0
-100 -22 -24 -29 -34 0
-100 -23 -24 -29 -35 0
-82 -19 -20 -30 -31 0
-88 -19 -21 -30 -31 0
-93 -19 -22 -30 -31 0
-97 -19 -23 -30 -31 0
-100 -19 -24 -30 -31 0
-88 -20 -21 -30 -32 0
-93 -20 -22 -30 -32 0
-97 -20 -23 -30 -32 0
-100 -20 -24 -30 -32 0
-93 -21 -22 -30 -33 0
-97 -21 -23 -30 -33 0
-100 -21 -24 -30 -33 0
-97 -22 -23 -30 -34 0
-100 -22 -24 -30 -34 0
-100 -23 -24 -30 -35 0
-88 -20 -21 -31 -32 0
-93 -20 -22 -31 -32 0
-97 -20 -23 -31 -32 0
-100 -20 -24 -31 -32 0
-93 -21 -22 -31 -33 0
-97 -21 -23 -31 -33 0
-100 -21 -24 -31 -33 0
-97 -22 -23 -31 -34 0
-100 -22 -24 -31 -34 0
-100 -23 -24 -31 -35 0
-93 -21 -22 -32 -33 0
-97 -21 -23 -32 -33 0
-100 -21 -24 -32 -33 0
-97 -22 -23 -32 -34 0
-100 -22 -24 -32 -34 0
-100 -23 -24 -32 -35 0
-97 -22 -23 -33 -34 0
-100 -22 -24 -33 -34 0
-100 -23 -24 -33 -35 0
-100 -23 -24 -34 -35 0
-75 -18 -19 -40 -41 0
-82 -18 -20 -40 -41 0
-88 -18 -21 -40 -41 0
-93 -18 -22 -40 -41 0
-97 -18 -23 -40 -41 0
-100 -18 -24 -40 -41 0
-82 -19 -20 -40 -42 0
-88 -19 -21 -40 -42 0
-93 -19 -22 -40 -42 0
-97 -19 -23 -40 -42 0
-100 -19 -24 -40 -42 0
-88 -20 -21 -40 -43 0
-93 -20 -22 -40 -43 0
-97 -20 -23 -40 -43 0
-100 -20 -24 -40 -43 0
-93 -21 -22 -40 -44 0
-97 -21 -23 -40 -44 0
-100 -21 -24 -40 -44 0
-97 -22 -23 -40 -45 0
-100 -22 -24 -40 -45 0
-100 -23 -24 -40 -46 0
-82 -19 -20 -41 -42 0
-88 -19 -21 -41 -42 0
-93 -19 -22 -41 -42 0
-97 -19 -23 -41 -42 0
-100 -19 -24 -41 -42 0
-88 -20 -21 -41 -43 0
-93 -20 -22 -41 -43 0
-97 -20 -23 -41 -43 0
-100 -20 -24 -41 -43 0
-93 -21 -22 -41 -44 0
-97 -21 -23 -41 -44 0
-100 -21 -24 -41 -44 0
-97 -22 -23 -41 -45 0
-100 -22 -24 -41 -45 0
-100 -23 -24 -41 -46 0
-88 -20 -21 -42 -43 0
-93 -20 -22 -42 -43 0
-97 -20 -23 -42 -43 0
-100 -20 -24 -42 -43 0
-93 -21 -22 -42 -44 0
-97 -21 -23 -42 -44 0
-100 -21 -24 -42 -44 0
-97 -22 -23 -42 -45 0
-100 -22 -24 -42 -45 0
-100 -23 -24 -42 -46 0
-93 -21 -22 -43 -44 0
-97 -21 -23 -43 -44 0
-100 -21 -24 -43 -44 0
-97 -22 -23 -43 -45 0
-100 -22 -24 -43 -45 0
-100 -23 -24 -43 -46 0
-97 -22 -23 -44 -45 0
-100 -22 -24 -44 -45 0
-100 -23 -24 -44 -46 0
-100 -23 -24 -45 -46 0
-82 -19 -20 -51 -52 0
-88 -19 -21 -51 -52 0
-93 -19 -22 -51 -52 0
-97 -19 -23 -51 -52 0
-100 -19 -24 -51 -52 0
-88 -20 -21 -51 -53 0
-93 -20 -22 -51 -53 0
-97 -20 -23 -51 -53 0
-100 -20 -24 -51 -53 0
-93 -21 -22 -51 -54 0
-97 -21 -23 -51 -54 0
-100 -21 -24 -51 -54 0
-97 -22 -23 -51 -55 0
-100 -22 -24 -51 -55 0
-100 -23 -24 -51 -56 0
-88 -20 -21 -52 -53 0
-93 -20 -22 -52 -53 0
-97 -20 -23 -52 -53 0
-100 -20 -24 -52 -53 0
-93 -21 -22 -52 -54 0
-97 -21 -23 -52 -54 0
-100 -21 -24 -52 -54 0
-97 -22 -23 -52 -55 0
-100 -22 -24 -52 -55 0
-100 -23 -24 -52 -56 0
-93 -21 -22 -53 -54 0
-97 -21 -23 -53 -54 0
-100 -21 -24 -53 -54 0
-97 -22 -23 -53 -55 0
-100 -22 -24 -53 -55 0
-100 -23 -24 -53 -56 0
-97 -22 -23 -54 -55 0
-100 -22 -24 -54 -55 0
-100 -23 -24 -54 -56 0
-100 -23 -24 -55 -56 0
-88 -20 -21 -61 -62 0
-93 -20 -22 -61 -62 0
-97 -20 -23 -61 -62 0
-100 -20 -24 -61 -62 0
-93 -21 -22 -61 -63 0
-97 -21 -23 -61 -63 0
-100 -21 -24 -61 -63 0
-97 -22 -23 -61 -64 0
-100 -22 -24 -61 -64 0
-100 -23 -24 -61 -65 0
-93 -21 -22 -62 -63 0
-97 -21 -23 -62 -63 0
-100 -21 -24 -62 -63 0
-97 -22 -23 -62 -64 0
-100 -22 -24 -62 -64 0
-100 -23 -24 -62 -65 0
-97 -22 -23 -63 -64 0
-100 -22 -24 -63 -64 0
-100 -23 -24 -63 -65 0
-100 -23 -24 -64 -65 0
-93 -21 -22 -70 -71 0
-97 -21 -23 -70 -71 0
-100 -21 -24 -70 -71 0
-97 -22 -23 -70 -72 0
-100 -22 -24 -70 -72 0
-100 -23 -24 -70 -73 0
-97 -22 -23 -71 -72 0
-100 -22 -24 -71 -72 0
-100 -23 -24 -71 -73 0
-100 -23 -24 -72 -73 0
-97 -22 -23 -78 -79 0
-100 -22 -24 -78 -79 0
-100 -23 -24 -78 -80 0
-100 -23 -24 -79 -80 0
-100 -23 -24 -85 -86 0
-75 -30 -31 -40 -41 0
-82 -30 -32 -40 -41 0
-88 -30 -33 -40 -41 0
-93 -30 -34 -40 -41 0
-97 -30 -35 -40 -41 0
-100 -30 -36 -40 -41 0
-82 -31 -32 -40 -42 0
-88 -31 -33 -40 -42 0
-93 -31 -34 -40 -42 0
-97 -31 -35 -40 -42 0
-100 -31 -36 -40 -42 0
-88 -32 -33 -40 -43 0
-93 -32 -34 -40 -43 0
-97 -32 -35 -40 -43 0
-100 -32 -36 -40 -43 0
-93 -33 -34 -40 -44 0
-97 -33 -35 -40 -44 0
-100 -33 -36 -40 -44 0
-97 -34 -35 -40 -45 0
-100 -34 -36 -40 -45 0
-100 -35 -36 -40 -46 0
-82 -31 -32 -41 -42 0
-88 -31 -33 -41 -42 0
-93 -31 -34 -41 -42 0
-97 -31 -35 -41 -42 0
-100 -31 -36 -41 -42 0
-88 -32 -33 -41 -43 0
-93 -32 -34 -41 -43 0
-97 -32 -35 -41 -43 0
-100 -32 -36 -41 -43 0
-93 -33 -34 -41 -44 0
-97 -33 -35 -41 -44 0
-100 -33 -36 -41 -44 0
-97 -34 -35 -41 -45 0
-100 -34 -36 -41 -45 0
-100 -35 -36 -41 -46 0
-88 -32 -33 -42 -43 0
-93 -32 -34 -42 -43 0
-97 -32 -35 -42 -43 0
-100 -32 -36 -42 -43 0
-93 -33 -34 -42 -44 0
-97 -33 -35 -42 -44 0
-100 -33 -36 -42 -44 0
-97 -34 -35 -42 -45 0
-100 -34 -36 -42 -45 0
-100 -35 -36 -42 -46 0
-93 -33 -34 -43 -44 0
-97 -33 -35 -43 -44 0
-100 -33 -36 -43 -44 0
-97 -34 -35 -43 -45 0
-100 -34 -36 -43 -45 0
-100 -35 -36 -43 -46 0
-97 -34 -35 -44 -45 0
-100 -34 -36 -44 -45 0
-100 -35 -36 -44 -46 0
-100 -35 -36 -45 -46 0
-82 -31 -32 -51 -52 0
-88 -31 -33 -51 -52 0
-93 -31 -34 -51 -52 0
-97 -31 -35 -51 -52 0
-100 -31 -36 -51 -52 0
-88 -32 -33 -51 -53 0
-93 -32 -34 -51 -53 0
-97 -32 -35 -51 -53 0
-100 -32 -36 -51 -53 0
-93 -33 -34 -51 -54 0
-97 -33 -35 -51 -54 0
-100 -33 -36 -51 -54 0
-97 -34 -35 -51 -55 0
-100 -34 -36 -51 -55 0
-100 -35 -36 -51 -56 0
-88 -32 -33 -52 -53 0
-93 -32 -34 -52 -53 0
-97 -32 -35 -52 -53 0
-100 -32 -36 -52 -53 0
-93 -33 -34 -52 -54 0
-97 -33 -35 -52 -54 0
-100 -33 -36 -52 -54 0
-97 -34 -35 -52 -55 0
-100 -34 -36 -52 -55 0
-100 -35 -36 -52 -56 0
-93 -33 -34 -53 -54 0
-97 -33 -35 -53 -54 0
-100 -33 -36 -53 -54 0
-97 -34 -35 -53 -55 0
-100 -34 -36 -53 -55 0
-100 -35 -36 -53 -56 0
-97 -34 -35 -54 -55 0
-100 -34 -36 -54 -55 0
-100 -35 -36 -54 -56 0
-100 -35 -36 -55 -56 0
-88 -32 -33 -61 -62 0
-93 -32 -34 -61 -62 0
-97 -32 -35 -61 -62 0
-100 -32 -36 -61 -62 0
-93 -33 -34 -61 -63 0
-97 -33 -35 -61 -63 0
-100 -33 -36 -61 -63 0
-97 -34 -35 -61 -64 0
-100 -34 -36 -61 -64 0
-100 -35 -36 -61 -65 0
-93 -33 -34 -62 -63 0
-97 -33 -35 -62 -63 0
-100 -33 -36 -62 -63 0
-97 -34 -35 -62 -64 0
-100 -34 -36 -62 -64 0
-100 -35 -36 -62 -65 0
-97 -34 -35 -63 -64 0
-100 -34 -36 -63 -64 0
-100 -35 -36 -63 -65 0
-100 -35 -36 -64 -65 0
-93 -33 -34 -70 -71 0
-97 -33 -35 -70 -71 0
-100 -33 -36 -70 -71 0
-97 -34 -35 -70 -72 0
-100 -34 -36 -70 -72 0
-100 -35 -36 -70 -73 0
-97 -34 -35 -71 -72 0
-100 -34 -36 -71 -72 0
-100 -35 -36 -71 -73 0
-100 -35 -36 -72 -73 0
-97 -34 -35 -78 -79 0
-100 -34 -36 -78 -79 0
-100 -35 -36 -78 -80 0
-100 -35 -36 -79 -80 0
-100 -35 -36 -85 -86 0
-82 -42 -43 -51 -52 0
-88 -42 -44 -51 -52 0
-93 -42 -45 -51 -52 0
-97 -42 -46 -51 -52 0
-100 -42 -47 -51 -52 0
-88 -43 -44 -51 -53 0
-93 -43 -45 -51 -53 0
-97 -43 -46 -51 -53 0
-100 -43 -47 -51 -53 0
-93 -44 -45 -51 -54 0
-97 -44 -46 -51 -54 0
-100 -44 -47 -51 -54 0
-97 -45 -46 -51 -55 0
-100 -45 -47 -51 -55 0
-100 -46 -47 -51 -56 0
-88 -43 -44 -52 -53 0
-93 -43 -45 -52 -53 0
-97 -43 -46 -52 -53 0
-100 -43 -47 -52 -53 0
-93 -44 -45 -52 -54 0
-97 -44 -46 -52 -54 0
-100 -44 -47 -52 -54 0
-97 -45 -46 -52 -55 0
-100 -45 -47 -52 -55 0
-100 -46 -47 -52 -56 0
-93 -44 -45 -53 -54 0
-97 -44 -46 -53 -54 0
-100 -44 -47 -53 -54 0
-97 -45 -46 -53 -55 0
-100 -45 -47 -53 -55 0
-100 -46 -47 -53 -56 0
-97 -45 -46 -54 -55 0
-100 -45 -47 -54 -55 0
-100 -46 -47 -54 -56 0
-100 -46 -47 -55 -56 0
-88 -43 -44 -61 -62 0
-93 -43 -45 -61 -62 0
-97 -43 -46 -61 -62 0
-100 -43 -47 -61 -62 0
-93 -44 -45 -61 -63 0
-97 -44 -46 -61 -63 0
-100 -44 -47 -61 -63 0
-97 -45 -46 -61 -64 0
-100 -45 -47 -61 -64 0
-100 -46 -47 -61 -65 0
-93 -44 -45 -62 -63 0
-97 -44 -46 -62 -63 0
-100 -44 -47 -62 -63 0
-97 -45 -46 -62 -64 0
-100 -45 -47 -62 -64 0
-100 -46 -47 -62 -65 0
-97 -45 -46 -63 -64 0
-100 -45 -47 -63 -64 0
-100 -46 -47 -63 -65 0
-100 -46 -47 -64 -65 0
-93 -44 -45 -70 -71 0
-97 -44 -46 -70 -71 0
-100 -44 -47 -70 -71 0
-97 -45 -46 -70 -72 0
-100 -45 -47 -70 -72 0
-100 -46 -47 -70 -73 0
-97 -45 -46 -71 -72 0
-100 -45 -47 -71 -72 0
-100 -46 -47 -71 -73 0
-100 -46 -47 -72 -73 0
-97 -45 -46 -78 -79 0
-100 -45 -47 -78 -79 0
-100 -46 -47 -78 -80 0
-100 -46 -47 -79 -80 0
-100 -46 -47 -85 -86 0
-88 -53 -54 -61 -62 0
-93 -53 -55 -61 -62 0
-97 -53 -56 -61 -62 0
-100 -53 -57 -61 -62 0
-93 -54 -55 -61 -63 0
-97 -54 -56 -61 -63 0
-100 -54 -57 -61 -63 0
-97 -55 -56 -61 -64 0
-100 -55 -57 -61 -64 0
-100 -56 -57 -61 -65 0
-93 -54 -55 -62 -63 0
-97 -54 -56 -62 -63 0
-100 -54 -57 -62 -63 0
-97 -55 -56 -62 -64 0
-100 -55 -57 -62 -64 0
-100 -56 -57 -62 -65 0
-97 -55 -56 -63 -64 0
-100 -55 -57 -63 -64 0
-100 -56 -57 -63 -65 0
-100 -56 -57 -64 -65 0
-93 -54 -55 -70 -71 0
-97 -54 -56 -70 -71 0
-100 -54 -57 -70 -71 0
-97 -55 -56 -70 -72 0
-100 -55 -57 -70 -72 0
-100 -56 -57 -70 -73 0
-97 -55 -56 -71 -72 0
-100 -55 -57 -71 -72 0
-100 -56 -57 -71 -73 0
-100 -56 -57 -72 -73 0
-97 -55 -56 -78 -79 0
-100 -55 -57 -78 -79 0
-100 -56 -57 -78 -80 0
-100 -56 -57 -79 -80 0
-100 -56 -57 -85 -86 0
-93 -63 -64 -70 -71 0
-97 -63 -65 -70 -71 0
-100 -63 -66 -70 -71 0
-97 -64 -65 -70 -72 0
-100 -64 -66 -70 -72 0
-100 -65 -66 -70 -73 0
-97 -64 -65 -71 -72 0
-100 -64 -66 -71 -72 0
-100 -65 -66 -71 -73 0
-100 -65 -66 -72 -73 0
-97 -64 -65 -78 -79 0
-100 -64 -66 -78 -79 0
-100 -65 -66 -78 -80 0
-100 -65 -66 -79 -80 0
-100 -65 -66 -85 -86 0
-97 -72 -73 -78 -79 0
-100 -72 -74 -78 -79 0
-100 -73 -74 -78 -80 0
-100 -73 -74 -79 -80 0
-100 -73 -74 -85 -86 0
-100 -80 -81 -85 -86 0
-49 -39 -50 -1 -2 0
-59 -39 -60 -1 -2 0
-68 -39 -69 -1 -2 0
-76 -39 -77 -1 -2 0
-83 -39 -84 -1 -2 0
-89 -39 -90 -1 -2 0
-94 -39 -95 -1 -2 0
-98 -39 -99 -1 -2 0
-101 -39 -102 -1 -2 0
-103 -39 -104 -1 -2 0
-59 -50 -60 -1 -3 0
-68 -50 -69 -1 -3 0
-76 -50 -77 -1 -3 0
-83 -50 -84 -1 -3 0
-89 -50 -90 -1 -3 0
-94 -50 -95 -1 -3 0
-98 -50 -99 -1 -3 0
-101 -50 -102 -1 -3 0
-103 -50 -104 -1 -3 0
-68 -60 -69 -1 -4 0
-76 -60 -77 -1 -4 0
-83 -60 -84 -1 -4 0
-89 -60 -90 -1 -4 0
-94 -60 -95 -1 -4 0
-98 -60 -99 -1 -4 0
-101 -60 -102 -1 -4 0
-103 -60 -104 -1 -4 0
-76 -69 -77 -1 -5 0
-83 -69 -84 -1 -5 0
-89 -69 -90 -1 -5 0
-94 -69 -95 -1 -5 0
-98 -69 -99 -1 -5 0
-101 -69 -102 -1 -5 0
-103 -69 -104 -1 -5 0
-83 -77 -84 -1 -6 0
-89 -77 -90 -1 -6 0
-94 -77 -95 -1 -6 0
-98 -77 -99 -1 -6 0
-101 -77 -102 -1 -6 0
-103 -77 -104 -1 -6 0
-89 -84 -90 -1 -7 0
-94 -84 -95 -1 -7 0
-98 -84 -99 -1 -7 0
-101 -84 -102 -1 -7 0
-103 -84 -104 -1 -7 0
-94 -90 -95 -1 -8 0
-98 -90 -99 -1 -8 0
-101 -90 -102 -1 -8 0
-103 -90 -104 -1 -8 0
-98 -95 -99 -1 -9 0
-101 -95 -102 -1 -9 0
-103 -95 -104 -1 -9 0
-101 -99 -102 -1 -10 0
-103 -99 -104 -1 -10 0
-103 -102 -104 -1 -11 0
-59 -50 -60 -2 -3 0
-68 -50 -69 -2 -3 0
-76 -50 -77 -2 -3 0
-83 -50 -84 -2 -3 0
-89 -50 -90 -2 -3 0
-94 -50 -95 -2 -3 0
-98 -50 -99 -2 -3 0
-101 -50 -102 -2 -3 0
-103 -50 -104 -2 -3 0
-68 -60 -69 -2 -4 0
-76 -60 -77 -2 -4 0
-83 -60 -84 -2 -4 0
-89 -60 -90 -2 -4 0
-94 -60 -95 -2 -4 0
-98 -60 -99 -2 -4 0
-101 -60 -102 -2 -4 0
-103 -60 -104 -2 -4 0
-76 -69 -77 -2 -5 0
-83 -69 -84 -2 -5 0
-89 -69 -90 -2 -5 0
-94 -69 -95 -2 -5 0
-98 -69 -99 -2 -5 0
-101 -69 -102 -2 -5 0
-103 -69 -104 -2 -5 0
-83 -77 -84 -2 -6 0
-89 -77 -90 -2 -6 0
-94 -77 -95 -2 -6 0
-98 -77 -99 -2 -6 0
-101 -77 -102 -2 -6 0
-103 -77 -104 -2 -6 0
-89 -84 -90 -2 -7 0
-94 -84 -95 -2 -7 0
-98 -84 -99 -2 -7 0
-101 -84 -102 -2 -7 0
-103 -84 -104 -2 -7 0
-94 -90 -95 -2 -8 0
-98 -90 -99 -2 -8 0
-101 -90 -102 -2 -8 0
-103 -90 -104 -2 -8 0
-98 -95 -99 -2 -9 0
-101 -95 -102 -2 -9 0
-103 -95 -104 -2 -9 0
-101 -99 -102 -2 -10 0
-103 -99 -104 -2 -10 0
-103 -102 -104 -2 -11 0
-68 -60 -69 -3 -4 0
-76 -60 -77 -3 -4 0
-83 -60 -84 -3 -4 0
-89 -60 -90 -3 -4 0
-94 -60 -95 -3 -4 0
-98 -60 -99 -3 -4 0
-101 -60 -102 -3 -4 0
-103 -60 -104 -3 -4 0
-76 -69 -77 -3 -5 0
-83 -69 -84 -3 -5 0
-89 -69 -90 -3 -5 0
-94 -69 -95 -3 -5 0
-98 -69 -99 -3 -5 0
-101 -69 -102 -3 -5 0
-103 -69 -104 -3 -5 0
-83 -77 -84 -3 -6 0
-89 -77 -90 -3 -6 0
-94 -77 -95 -3 -6 0
-98 -77 -99 -3 -6 0
-101 -77 -102 -3 -6 0
-103 -77 -104 -3 -6 0
-89 -84 -90 -3 -7 0
-94 -84 -95 -3 -7 0
-98 -84 -99 -3 -7 0
-101 -84 -102 -3 -7 0
-103 -84 -104 -3 -7 0
-94 -90 -95 -3 -8 0
-98 -90 -99 -3 -8 0
-101 -90 -102 -3 -8 0
-103 -90 -104 -3 -8 0
-98 -95 -99 -3 -9 0
-101 -95 -102 -3 -9 0
-103 -95 -104 -3 -9 0
-101 -99 -102 -3 -10 0
-103 -99 -104 -3 -10 0
-103 -102 -104 -3 -11 0
-76 -69 -77 -4 -5 0
-83 -69 -84 -4 -5 0
-89 -69 -90 -4 -5 0
-94 -69 -95 -4 -5 0
-98 -69 -99 -4 -5 0
-101 -69 -102 -4 -5 0
-103 -69 -104 -4 -5 0
-83 -77 -84 -4 -6 0
-89 -77 -90 -4 -6 0
-94 -77 -95 -4 -6 0
-98 -77 -99 -4 -6 0
-101 -77 -102 -4 -6 0
-103 -77 -104 -4 -6 0
-89 -84 -90 -4 -7 0
-94 -84 -95 -4 -7 0
-98 -84 -99 -4 -7 0
-101 -84 -102 -4 -7 0
-103 -84 -104 -4 -7 0
-94 -90 -95 -4 -8 0
-98 -90 -99 -4 -8 0
-101 -90 -102 -4 -8 0
-103 -90 -104 -4 -8 0
-98 -95 -99 -4 -9 0
-101 -95 -102 -4 -9 0
-103 -95 -104 -4 -9 0
-101 -99 -102 -4 -10 0
-103 -99 -104 -4 -10 0
-103 -102 -104 -4 -11 0
-83 -77 -84 -5 -6 0
-89 -77 -90 -5 -6 0
-94 -77 -95 -5 -6 0
-98 -77 -99 -5 -6 0
-101 -77 -102 -5 -6 0
-103 -77 -104 -5 -6 0
-89 -84 -90 -5 -7 0
-94 -84 -95 -5 -7 0
-98 -84 -99 -5 -7 0
-101 -84 -102 -5 -7 0
-103 -84 -104 -5 -7 0
-94 -90 -95 -5 -8 0
-98 -90 -99 -5 -8 0
-101 -90 -102 -5 -8 0
-103 -90 -104 -5 -8 0
-98 -95 -99 -5 -9 0
-101 -95 -102 -5 -9 0
-103 -95 -104 -5 -9 0
-101 -99 -102 -5 -10 0
-103 -99 -104 -5 -10 0
-103 -102 -104 -5 -11 0
-89 -84 -90 -6 -7 0
-94 -84 -95 -6 -7 0
-98 -84 -99 -6 -7 0
-101 -84 -102 -6 -7 0
-103 -84 -104 -6 -7 0
-94 -90 -95 -6 -8 0
-98 -90 -99 -6 -8 0
-101 -90 -102 -6 -8 0
-103 -90 -104 -6 -8 0
-98 -95 -99 -6 -9 0
-101 -95 -102 -6 -9 0
-103 -95 -104 -6 -9 0
-101 -99 -102 -6 -10 0
-103 -99 -104 -6 -10 0
-103 -102 -104 -6 -11 0
-94 -90 -95 -7 -8 0
-98 -90 -99 -7 -8 0
-101 -90 -102 -7 -8 0
-103 -90 -104 -7 -8 0
-98 -95 -99 -7 -9 0
-101 -95 -102 -7 -9 0
-103 -95 -104 -7 -9 0
-101 -99 -102 -7 -10 0
-103 -99 -104 -7 -10 0
-103 -102 -104 -7 -11 0
-98 -95 -99 -8 -9 0
-101 -95 -102 -8 -9 0
-103 -95 -104 -8 -9 0
-101 -99 -102 -8 -10 0
-103 -99 -104 -8 -10 0
-103 -102 -104 -8 -11 0
-101 -99 -102 -9 -10 0
-103 -99 -104 -9 -10 0
-103 -102 -104 -9 -11 0
-103 -102 -104 -10 -11 0
-59 -50 -60 -15 -16 0
-68 -50 -69 -15 -16 0
-76 -50 -77 -15 -16 0
-83 -50 -84 -15 -16 0
-89 -50 -90 -15 -16 0
-94 -50 -95 -15 -16 0
-98 -50 -99 -15 -16 0
-101 -50 -102 -15 -16 0
-103 -50 -104 -15 -16 0
-68 -60 -69 -15 -17 0
-76 -60 -77 -15 -17 0
-83 -60 -84 -15 -17 0
-89 -60 -90 -15 -17 0
-94 -60 -95 -15 -17 0
-98 -60 -99 -15 -17 0
-101 -60 -102 -15 -17 0
-103 -60 -104 -15 -17 0
-76 -69 -77 -15 -18 0
-83 -69 -84 -15 -18 0
-89 -69 -90 -15 -18 0
-94 -69 -95 -15 -18 0
-98 -69 -99 -15 -18 0
-101 -69 -102 -15 -18 0
-103 -69 -104 -15 -18 0
-83 -77 -84 -15 -19 0
-89 -77 -90 -15 -19 0
-94 -77 -95 -15 -19 0
-98 -77 -99 -15 -19 0
-101 -77 -102 -15 -19 0
-103 -77 -104 -15 -19 0
-89 -84 -90 -15 -20 0
-94 -84 -95 -15 -20 0
-98 -84 -99 -15 -20 0
-101 -84 -102 -15 -20 0
-103 -84 -104 -15 -20 0
-94 -90 -95 -15 -21 0
-98 -90 -99 -15 -21 0
-101 -90 -102 -15 -21 0
-103 -90 -104 -15 -21 0
-98 -95 -99 -15 -22 0
-101 -95 -102 -15 -22 0
-103 -95 -104 -15 -22 0
-101 -99 -102 -15 -23 0
-103 -99 -104 -15 -23 0
-103 -102 -104 -15 -24 0
-68 -60 -69 -16 -17 0
-76 -60 -77 -16 -17 0
-83 -60 -84 -16 -17 0
-89 -60 -90 -16 -17 0
-94 -60 -95 -16 -17 0
-98 -60 -99 -16 -17 0
-101 -60 -102 -16 -17 0
-103 -60 -104 -16 -17 0
-76 -69 -77 -16 -18 0
-83 -69 -84 -16 -18 0
-89 -69 -90 -16 -18 0
-94 -69 -95 -16 -18 0
-98 -69 -99 -16 -18 0
-101 -69 -102 -16 -18 0
-103 -69 -104 -16 -18 0
-83 -77 -84 -16 -19 0
-89 -77 -90 -16 -19 0
-94 -77 -95 -16 -19 0
-98 -77 -99 -16 -19 0
-101 -77 -102 -16 -19 0
-103 -77 -104 -16 -19 0
-89 -84 -90 -16 -20 0
-94 -84 -95 -16 -20 0
-98 -84 -99 -16 -20 0
-101 -84 -102 -16 -20 0
-103 -84 -104 -16 -20 0
-94 -90 -95 -16 -21 0
-98 -90 -99 -16 -21 0
-101 -90 -102 -16 -21 0
-103 -90 -104 -16 -21 0
-98 -95 -99 -16 -22 0
-101 -95 -102 -16 -22 0
-103 -95 -104 -16 -22 0
-101 -99 -102 -16 -23 0
-103 -99 -104 -16 -23 0
-103 -102 -104 -16 -24 0
-76 -69 -77 -17 -18 0
-83 -69 -84 -17 -18 0
-89 -69 -90 -17 -18 0
-94 -69 -95 -17 -18 0
-98 -69 -99 -17 -18 0
-101 -69 -102 -17 -18 0
-103 -69 -104 -17 -18 0
-83 -77 -84 -17 -19 0
-89 -77 -90 -17 -19 0
-94 -77 -95 -17 -19 0
-98 -77 -99 -17 -19 0
-101 -77 -102 -17 -19 0
-103 -77 -104 -17 -19 0
-89 -84 -90 -17 -20 0
-94 -84 -95 -17 -20 0
-98 -84 -99 -17 -20 0
-101 -84 -102 -17 -20 0
-103 -84 -104 -17 -20 0
-94 -90 -95 -17 -21 0
-98 -90 -99 -17 -21 0
-101 -90 -102 -17 -21 0
-103 -90 -104 -17 -21 0
-98 -95 -99 -17 -22 0
-101 -95 -102 -17 -22 0
-103 -95 -104 -17 -22 0
-101 -99 -102 -17 -23 0
-103 -99 -104 -17 -23 0
-103 -102 -104 -17 -24 0
-83 -77 -84 -18 -19 0
-89 -77 -90 -18 -19 0
-94 -77 -95 -18 -19 0
-98 -77 -99 -18 -19 0
-101 -77 -102 -18 -19 0
-103 -77 -104 -18 -19 0
-89 -84 -90 -18 -20 0
-94 -84 -95 -18 -20 0
-98 -84 -99 -18 -20 0
-101 -84 -102 -18 -20 0
-103 -84 -104 -18 -20 0
-94 -90 -95 -18 -21 0
-98 -90 -99 -18 -21 0
-101 -90 -102 -18 -21 0
-103 -90 -104 -18 -21 0
-98 -95 -99 -18 -22 0
-101 -95 -102 -18 -22 0
-103 -95 -104 -18 -22 0
-101 -99 -102 -18 -23 0
-103 -99 -104 -18 -23 0
-103 -102 -104 -18 -24 0
-89 -84 -90 -19 -20 0
-94 -84 -95 -19 -20 0
-98 -84 -99 -19 -20 0
-101 -84 -102 -19 -20 0
-103 -84 -104 -19 -20 0
-94 -90 -95 -19 -21 0
-98 -90 -99 -19 -21 0
-101 -90 -102 -19 -21 0
-103 -90 -104 -19 -21 0
-98 -95 -99 -19 -22 0
-101 -95 -102 -19 -22 0
-103 -95 -104 -19 -22 0
-101 -99 -102 -19 -23 0
-103 -99 -104 -19 -23 0
-103 -102 -104 -19 -24 0
-94 -90 -95 -20 -21 0
-98 -90 -99 -20 -21 0
-101 -90 -102 -20 -21 0
-103 -90 -104 -20 -21 0
-98 -95 -99 -20 -22 0
-101 -95 -102 -20 -22 0
-103 -95 -104 -20 -22 0
-101 -99 -102 -20 -23 0
-103 -99 -104 -20 -23 0
-103 -102 -104 -20 -24 0
-98 -95 -99 -21 -22 0
-101 -95 -102 -21 -22 0
-103 -95 -104 -21 -22 0
-101 -99 -102 -21 -23 0
-103 -99 -104 -21 -23 0
-103 -102 -104 -21 -24 0
-101 -99 -102 -22 -23 0
-103 -99 -104 -22 -23 0
-103 -102 -104 -22 -24 0
-103 -102 -104 -23 -24 0
-68 -60 -69 -28 -29 0
-76 -60 -77 -28 -29 0
-83 -60 -84 -28 -29 0
-89 -60 -90 -28 -29 0
-94 -60 -95 -28 -29 0
-98 -60 -99 -28 -29 0
-101 -60 -102 -28 -29 0
-103 -60 -104 -28 -29 0
-76 -69 -77 -28 -30 0
-83 -69 -84 -28 -30 0
-89 -69 -90 -28 -30 0
-94 -69 -95 -28 -30 0
-98 -69 -99 -28 -30 0
-101 -69 -102 -28 -30 0
-103 -69 -104 -28 -30 0
-83 -77 -84 -28 -31 0
-89 -77 -90 -28 -31 0
-94 -77 -95 -28 -31 0
-98 -77 -99 -28 -31 0
-101 -77 -102 -28 -31 0
-103 -77 -104 -28 -31 0
-89 -84 -90 -28 -32 0
-94 -84 -95 -28 -32 0
-98 -84 -99 -28 -32 0
-101 -84 -102 -28 -32 0
-103 -84 -104 -28 -32 0
-94 -90 -95 -28 -33 0
-98 -90 -99 -28 -33 0
-101 -90 -102 -28 -33 0
-103 -90 -104 -28 -33 0
-98 -95 -99 -28 -34 0
-101 -95 -102 -28 -34 0
-103 -95 -104 -28 -34 0
-101 -99 -102 -28 -35 0
-103 -99 -104 -28 -35 0
-103 -102 -104 -28 -36 0
-76 -69 -77 -29 -30 0
-83 -69 -84 -29 -30 0
-89 -69 -90 -29 -30 0
-94 -69 -95 -29 -30 0
-98 -69 -99 -29 -30 0
-101 -69 -102 -29 -30 0
-103 -69 -104 -29 -30 0
-83 -77 -84 -29 -31 0
-89 -77 -90 -29 -31 0
-94 -77 -95 -29 -31 0
-98 -77 -99 -29 -31 0
-101 -77 -102 -29 -31 0
-103 -77 -104 -29 -31 0
-89 -84 -90 -29 -32 0
-94 -84 -95 -29 -32 0
-98 -84 -99 -29 -32 0
-101 -84 -102 -29 -32 0
-103 -84 -104 -29 -32 0
-94 -90 -95 -29 -33 0
-98 -90 -99 -29 -33 0
-101 -90 -102 -29 -33 0
-103 -90 -104 -29 -33 0
-98 -95 -99 -29 -34 0
-101 -95 -102 -29 -34 0
-103 -95 -104 -29 -34 0
-101 -99 -102 -29 -35 0
-103 -99 -104 -29 -35 0
-103 -102 -104 -29 -36 0
-83 -77 -84 -30 -31 0
-89 -77 -90 -30 -31 0
-94 -77 -95 -30 -31 0
-98 -77 -99 -30 -31 0
-101 -77 -102 -30 -31 0
-103 -77 -104 -30 -31 0
-89 -84 -90 -30 -32 0
-94 -84 -95 -30 -32 0
-98 -84 -99 -30 -32 0
-101 -84 -102 -30 -32 0
-103 -84 -104 -30 -32 0
-94 -90 -95 -30 -33 0
-98 -90 -99 -30 -33 0
-101 -90 -102 -30 -33 0
-103 -90 -104 -30 -33 0
-98 -95 -99 -30 -34 0
-101 -95 -102 -30 -34 0
-103 -95 -104 -30 -34 0
-101 -99 -102 -30 -35 0
-103 -99 -104 -30 -35 0
-103 -102 -104 -30 -36 0
-89 -84 -90 -31 -32 0
-94 -84 -95 -31 -32 0
-98 -84 -99 -31 -32 0
-101 -84 -102 -31 -32 0
-103 -84 -104 -31 -32 0
-94 -90 -95 -31 -33 0
-98 -90 -99 -31 -33 0
-101 -90 -102 -31 -33 0
-103 -90 -104 -31 -33 0
-98 -95 -99 -31 -34 0
-101 -95 -102 -31 -34 0
-103 -95 -104 -31 -34 0
-101 -99 -102 -31 -35 0
-103 -99 -104 -31 -35 0
-103 -102 -104 -31 -36 0
-94 -90 -95 -32 -33 0
-98 -90 -99 -32 -33 0
-101 -90 -102 -32 -33 0
-103 -90 -104 -32 -33 0
-98 -95 -99 -32 -34 0
-101 -95 -102 -32 -34 0
-103 -95 -104 -32 -34 0
-101 -99 -102 -32 -35 0
-103 -99 -104 -32 -35 0
-103 -102 -104 -32 -36 0
-98 -95 -99 -33 -34 0
-101 -95 -102 -33 -34 0
-103 -95 -104 -33 -34 0
-101 -99 -102 -33 -35 0
-103 -99 -104 -33 -35 0
-103 -102 -104 -33 -36 0
-101 -99 -102 -34 -35 0
-103 -99 -104 -34 -35 0
-103 -102 -104 -34 -36 0
-103 -102 -104 -35 -36 0
-76 -69 -77 -40 -41 0
-83 -69 -84 -40 -41 0
-89 -69 -90 -40 -41 0
-94 -69 -95 -40 -41 0
-98 -69 -99 -40 -41 0
-101 -69 -102 -40 -41 0
-103 -69 -104 -40 -41 0
-83 -77 -84 -40 -42 0
-89 -77 -90 -40 -42 0
-94 -77 -95 -40 -42 0
-98 -77 -99 -40 -42 0
-101 -77 -102 -40 -42 0
-103 -77 -104 -40 -42 0
-89 -84 -90 -40 -43 0
-94 -84 -95 -40 -43 0
-98 -84 -99 -40 -43 0
-101 -84 -102 -40 -43 0
-103 -84 -104 -40 -43 0
-94 -90 -95 -40 -44 0
-98 -90 -99 -40 -44 0
-101 -90 -102 -40 -44 0
-103 -90 -104 -40 -44 0
-98 -95 -99 -40 -45 0
-101 -95 -102 -40 -45 0
-103 -95 -104 -40 -45 0
-101 -99 -102 -40 -46 0
-103 -99 -104 -40 -46 0
-103 -102 -104 -40 -47 0
-83 -77 -84 -41 -42 0
-89 -77 -90 -41 -42 0
-94 -77 -95 -41 -42 0
-98 -77 -99 -41 -42 0
-101 -77 -102 -41 -42 0
-103 -77 -104 -41 -42 0
-89 -84 -90 -41 -43 0
-94 -84 -95 -41 -43 0
-98 -84 -99 -41 -43 0
-101 -84 -102 -41 -43 0
-103 -84 -104 -41 -43 0
-94 -90 -95 -41 -44 0
-98 -90 -99 -41 -44 0
-101 -90 -102 -41 -44 0
-103 -90 -104 -41 -44 0
-98 -95 -99 -41 -45 0
-101 -95 -102 -41 -45 0
-103 -95 -104 -41 -45 0
-101 -99 -102 -41 -46 0
-103 -99 -104 -41 -46 0
-103 -102 -104 -41 -47 0
-89 -84 -90 -42 -43 0
-94 -84 -95 -42 -43 0
-98 -84 -99 -42 -43 0
-101 -84 -102 -42 -43 0
-103 -84 -104 -42 -43 0
-94 -90 -95 -42 -44 0
-98 -90 -99 -42 -44 0
-101 -90 -102 -42 -44 0
-103 -90 -104 -42 -44 0
-98 -95 -99 -42 -45 0
-101 -95 -102 -42 -45 0
-103 -95 -104 -42 -45 0
-101 -99 -102 -42 -46 0
-103 -99 -104 -42 -46 0
-103 -102 -104 -42 -47 0
-94 -90 -95 -43 -44 0
-98 -90 -99 -43 -44 0
-101 -90 -102 -43 -44 0
-103 -90 -104 -43 -44 0
-98 -95 -99 -43 -45 0
-101 -95 -102 -43 -45 0
-103 -95 -104 -43 -45 0
-101 -99 -102 -43 -46 0
-103 -99 -104 -43 -46 0
-103 -102 -104 -43 -47 0
-98 -95 -99 -44 -45 0
-101 -95 -102 -44 -45 0
-103 -95 -104 -44 -45 0
-101 -99 -102 -44 -46 0
-103 -99 -104 -44 -46 0
-103 -102 -104 -44 -47 0
-101 -99 -102 -45 -46 0
-103 -99 -104 -45 -46 0
-103 -102 -104 -45 -47 0
-103 -102 -104 -46 -47 0
-83 -77 -84 -51 -52 0
-89 -77 -90 -51 -52 0
-94 -77 -95 -51 -52 0
-98 -77 -99 -51 -52 0
-101 -77 -102 -51 -52 0
-103 -77 -104 -51 -52 0
-89 -84 -90 -51 -53 0
-94 -84 -95 -51 -53 0
-98 -84 -99 -51 -53 0
-101 -84 -102 -51 -53 0
-103 -84 -104 -51 -53 0
-94 -90 -95 -51 -54 0
-98 -90 -99 -51 -54 0
-101 -90 -102 -51 -54 0
-103 -90 -104 -51 -54 0
-98 -95 -99 -51 -55 0
-101 -95 -102 -51 -55 0
-103 -95 -104 -51 -55 0
-101 -99 -102 -51 -56 0
-103 -99 -104 -51 -56 0
-103 -102 -104 -51 -57 0
-89 -84 -90 -52 -53 0
-94 -84 -95 -52 -53 0
-98 -84 -99 -52 -53 0
-101 -84 -102 -52 -53 0
-103 -84 -104 -52 -53 0
-94 -90 -95 -52 -54 0
-98 -90 -99 -52 -54 0
-101 -90 -102 -52 -54 0
-103 -90 -104 -52 -54 0
-98 -95 -99 -52 -55 0
-101 -95 -102 -52 -55 0
-103 -95 -104 -52 -55 0
-101 -99 -102 -52 -56 0
-103 -99 -104 -52 -56 0
-103 -102 -104 -52 -57 0
-94 -90 -95 -53 -54 0
-98 -90 -99 -53 -54 0
-101 -90 -102 -53 -54 0
-103 -90 -104 -53 -54 0
-98 -95 -99 -53 -55 0
-101 -95 -102 -53 -55 0
-103 -95 -104 -53 -55 0
-101 -99 -102 -53 -56 0
-103 -99 -104 -53 -56 0
-103 -102 -104 -53 -57 0
-98 -95 -99 -54 -55 0
-101 -95 -102 -54 -55 0
-103 -95 -104 -54 -55 0
-101 -99 -102 -54 -56 0
-103 -99 -104 -54 -56 0
-103 -102 -104 -54 -57 0
-101 -99 -102 -55 -56 0
-103 -99 -104 -55 -56 0
-103 -102 -104 -55 -57 0
-103 -102 -104 -56 -57 0
-89 -84 -90 -61 -62 0
-94 -84 -95 -61 -62 0
-98 -84 -99 -61 -62 0
-101 -84 -102 -61 -62 0
-103 -84 -104 -61 -62 0
-94 -90 -95 -61 -63 0
-98 -90 -99 -61 -63 0
-101 -90 -102 -61 -63 0
-103 -90 -104 -61 -63 0
-98 -95 -99 -61 -64 0
-101 -95 -102 -61 -64 0
-103 -95 -104 -61 -64 0
-101 -99 -102 -61 -65 0
-103 -99 -104 -61 -65 0
-103 -102 -104 -61 -66 0
-94 -90 -95 -62 -63 0
-98 -90 -99 -62 -63 0
-101 -90 -102 -62 -63 0
-103 -90 -104 -62 -63 0
-98 -95 -99 -62 -64 0
-101 -95 -102 -62 -64 0
-103 -95 -104 -62 -64 0
-101 -99 -102 -62 -65 0
-103 -99 -104 -62 -65 0
-103 -102 -104 -62 -66 0
-98 -95 -99 -63 -64 0
-101 -95 -102 -63 -64 0
-103 -95 -104 -63 -64 0
-101 -99 -102 -63 -65 0
-103 -99 -104 -63 -65 0
-103 -102 -104 -63 -66 0
-101 -99 -102 -64 -65 0
-103 -99 -104 -64 -65 0
-103 -102 -104 -64 -66 0
-103 -102 -104 -65 -66 0
-94 -90 -95 -70 -71 0
-98 -90 -99 -70 -71 0
-101 -90 -102 -70 -71 0
-103 -90 -104 -70 -71 0
-98 -95 -99 -70 -72 0
-101 -95 -102 -70 -72 0
-103 -95 -104 -70 -72 0
-101 -99 -102 -70 -73 0
-103 -99 -104 -70 -73 0
-103 -102 -104 -70 -74 0
-98 -95 -99 -71 -72 0
-101 -95 -102 -71 -72 0
-103 -95 -104 -71 -72 0
-101 -99 -102 -71 -73 0
-103 -99 -104 -71 -73 0
-103 -102 -104 -71 -74 0
-101 -99 -102 -72 -73 0
-103 -99 -104 -72 -73 0
-103 -102 -104 -72 -74 0
-103 -102 -104 -73 -74 0
-98 -95 -99 -78 -79 0
-101 -95 -102 -78 -79 0
-103 -95 -104 -78 -79 0
-101 -99 -102 -78 -80 0
-103 -99 -104 -78 -80 0
-103 -102 -104 -78 -81 0
-101 -99 -102 -79 -80 0
-103 -99 -104 -79 -80 0
-103 -102 -104 -79 -81 0
-103 -102 -104 -80 -81 0
-101 -99 -102 -85 -86 0
-103 -99 -104 -85 -86 0
-103 -102 -104 -85 -87 0
-103 -102 -104 -86 -87 0
-103 -102 -104 -91 -92 0
-59 -3 -4 -15 -16 0
-68 -3 -5 -15 -16 0
-76 -3 -6 -15 -16 0
-83 -3 -7 -15 -16 0
-89 -3 -8 -15 -16 0
-94 -3 -9 -15 -16 0
-98 -3 -10 -15 -16 0
-101 -3 -11 -15 -16 0
-103 -3 -12 -15 -16 0
-68 -4 -5 -15 -17 0
-76 -4 -6 -15 -17 0
-83 -4 -7 -15 -17 0
-89 -4 -8 -15 -17 0
-94 -4 -9 -15 -17 0
-98 -4 -10 -15 -17 0
-101 -4 -11 -15 -17 0
-103 -4 -12 -15 -17 0
-76 -5 -6 -15 -18 0
-83 -5 -7 -15 -18 0
-89 -5 -8 -15 -18 0
-94 -5 -9 -15 -18 0
-98 -5 -10 -15 -18 0
-101 -5 -11 -15 -18 0
-103 -5 -12 -15 -18 0
-83 -6 -7 -15 -19 0
-89 -6 -8 -15 -19 0
-94 -6 -9 -15 -19 0
-98 -6 -10 -15 -19 0
-101 -6 -11 -15 -19 0
-103 -6 -12 -15 -19 0
-89 -7 -8 -15 -20 0
-94 -7 -9 -15 -20 0
-98 -7 -10 -15 -20 0
-101 -7 -11 -15 -20 0
-103 -7 -12 -15 -20 0
-94 -8 -9 -15 -21 0
-98 -8 -10 -15 -21 0
-101 -8 -11 -15 -21 0
-103 -8 -12 -15 -21 0
-98 -9 -10 -15 -22 0
-101 -9 -11 -15 -22 0
-103 -9 -12 -15 -22 0
-101 -10 -11 -15 -23 0
-103 -10 -12 -15 -23 0
-103 -11 -12 -15 -24 0
-68 -4 -5 -16 -17 0
-76 -4 -6 -16 -17 0
-83 -4 -7 -16 -17 0
-89 -4 -8 -16 -17 0
-94 -4 -9 -16 -17 0
-98 -4 -10 -16 -17 0
-101 -4 -11 -16 -17 0
-103 -4 -12 -16 -17 0
-76 -5 -6 -16 -18 0
-83 -5 -7 -16 -18 0
-89 -5 -8 -16 -18 0
-94 -5 -9 -16 -18 0
-98 -5 -10 -16 -18 0
-101 -5 -11 -16 -18 0
-103 -5 -12 -16 -18 0
-83 -6 -7 -16 -19 0
-89 -6 -8 -16 -19 0
-94 -6 -9 -16 -19 0
-98 -6 -10 -16 -19 0
-101 -6 -11 -16 -19 0
-103 -6 -12 -16 -19 0
-89 -7 -8 -16 -20 0
-94 -7 -9 -16 -20 0
-98 -7 -10 -16 -20 0
-101 -7 -11 -16 -20 0
-103 -7 -12 -16 -20 0
-94 -8 -9 -16 -21 0
-98 -8 -10 -16 -21 0
-101 -8 -11 -16 -21 0
-103 -8 -12 -16 -21 0
-98 -9 -10 -16 -22 0
-101 -9 -11 -16 -22 0
-103 -9 -12 -16 -22 0
-101 -10 -11 -16 -23 0
-103 -10 -12 -16 -23 0
-103 -11 -12 -16 -24 0
-76 -5 -6 -17 -18 0
-83 -5 -7 -17 -18 0
-89 -5 -8 -17 -18 0
-94 -5 -9 -17 -18 0
-98 -5 -10 -17 -18 0
-101 -5 -11 -17 -18 0
-103 -5 -12 -17 -18 0
-83 -6 -7 -17 -19 0
-89 -6 -8 -17 -19 0
-94 -6 -9 -17 -19 0
-98 -6 -10 -17 -19 0
-101 -6 -11 -17 -19 0
-103 -6 -12 -17 -19 0
-89 -7 -8 -17 -20 0
-94 -7 -9 -17 -20 0
-98 -7 -10 -17 -20 0
-101 -7 -11 -17 -20 0
-103 -7 -12 -17 -20 0
-94 -8 -9 -17 -21 0
-98 -8 -10 -17 -21 0
-101 -8 -11 -17 -21 0
-103 -8 -12 -17 -21 0
-98 -9 -10 -17 -22 0
-101 -9 -11 -17 -22 0
-103 -9 -12 -17 -22 0
-101 -10 -11 -17 -23 0
-103 -10 -12 -17 -23 0
-103 -11 -12 -17 -24 0
-83 -6 -7 -18 -19 0
-89 -6 -8 -18 -19 0
-94 -6 -9 -18 -19 0
-98 -6 -10 -18 -19 0
-101 -6 -11 -18 -19 0
-103 -6 -12 -18 -19 0
-89 -7 -8 -18 -20 0
-94 -7 -9 -18 -20 0
-98 -7 -10 -18 -20 0
-101 -7 -11 -18 -20 0
-103 -7 -12 -18 -20 0
-94 -8 -9 -18 -21 0
-98 -8 -10 -18 -21 0
-101 -8 -11 -18 -21 0
-103 -8 -12 -18 -21 0
-98 -9 -10 -18 -22 0
-101 -9 -11 -18 -22 0
-103 -9 -12 -18 -22 0
-101 -10 -11 -18 -23 0
-103 -10 -12 -18 -23 0
-103 -11 -12 -18 -24 0
-89 -7 -8 -19 -20 0
-94 -7 -9 -19 -20 0
-98 -7 -10 -19 -20 0
-101 -7 -11 -19 -20 0
-103 -7 -12 -19 -20 0
-94 -8 -9 -19 -21 0
-98 -8 -10 -19 -21 0
-101 -8 -11 -19 -21 0
-103 -8 -12 -19 -21 0
-98 -9 -10 -19 -22 0
-101 -9 -11 -19 -22 0
-103 -9 -12 -19 -22 0
-101 -10 -11 -19 -23 0
-103 -10 -12 -19 -23 0
-103 -11 -12 -19 -24 0
-94 -8 -9 -20 -21 0
-98 -8 -10 -20 -21 0
-101 -8 -11 -20 -21 0
-103 -8 -12 -20 -21 0
-98 -9 -10 -20 -22 0
-101 -9 -11 -20 -22 0
-103 -9 -12 -20 -22 0
-101 -10 -11 -20 -23 0
-103 -10 -12 -20 -23 0
-103 -11 -12 -20 -24 0
-98 -9 -10 -21 -22 0
-101 -9 -11 -21 -22 0
-103 -9 -12 -21 -22 0
-101 -10 -11 -21 -23 0
-103 -10 -12 -21 -23 0
-103 -11 -12 -21 -24 0
-101 -10 -11 -22 -23 0
-103 -10 -12 -22 -23 0
-103 -11 -12 -22 -24 0
-103 -11 -12 -23 -24 0
-68 -4 -5 -28 -29 0
-76 -4 -6 -28 -29 0
-83 -4 -7 -28 -29 0
-89 -4 -8 -28 -29 0
-94 -4 -9 -28 -29 0
-98 -4 -10 -28 -29 0
-101 -4 -11 -28 -29 0
-103 -4 -12 -28 -29 0
-76 -5 -6 -28 -30 0
-83 -5 -7 -28 -30 0
-89 -5 -8 -28 -30 0
-94 -5 -9 -28 -30 0
-98 -5 -10 -28 -30 0
-101 -5 -11 -28 -30 0
-103 -5 -12 -28 -30 0
-83 -6 -7 -28 -31 0
-89 -6 -8 -28 -31 0
-94 -6 -9 -28 -31 0
-98 -6 -10 -28 -31 0
-101 -6 -11 -28 -31 0
-103 -6 -12 -28 -31 0
-89 -7 -8 -28 -32 0
-94 -7 -9 -28 -32 0
-98 -7 -10 -28 -32 0
-101 -7 -11 -28 -32 0
-103 -7 -12 -28 -32 0
-94 -8 -9 -28 -33 0
-98 -8 -10 -28 -33 0
-101 -8 -11 -28 -33 0
-103 -8 -12 -28 -33 0
-98 -9 -10 -28 -34 0
-101 -9 -11 -28 -34 0
-103 -9 -12 -28 -34 0
-101 -10 -11 -28 -35 0
-103 -10 -12 -28 -35 0
-103 -11 -12 -28 -36 0
-76 -5 -6 -29 -30 0
-83 -5 -7 -29 -30 0
-89 -5 -8 -29 -30 0
-94 -5 -9 -29 -30 0
-98 -5 -10 -29 -30 0
-101 -5 -11 -29 -30 0
-103 -5 -12 -29 -30 0
-83 -6 -7 -29 -31 0
-89 -6 -8 -29 -31 0
-94 -6 -9 -29 -31 0
-98 -6 -10 -29 -31 0
-101 -6 -11 -29 -31 0
-103 -6 -12 -29 -31 0
-89 -7 -8 -29 -32 0
-94 -7 -9 -29 -32 0
-98 -7 -10 -29 -32 0
-101 -7 -11 -29 -32 0
-103 -7 -12 -29 -32 0
-94 -8 -9 -29 -33 0
-98 -8 -10 -29 -33 0
-101 -8 -11 -29 -33 0
-103 -8 -12 -29 -33 0
-98 -9 -10 -29 -34 0
-101 -9 -11 -29 -34 0
-103 -9 -12 -29 -34 0
-101 -10 -11 -29 -35 0
-103 -10 -12 -29 -35 0
-103 -11 -12 -29 -36 0
-83 -6 -7 -30 -31 0
-89 -6 -8 -30 -31 0
-94 -6 -9 -30 -31 0
-98 -6 -10 -30 -31 0
-101 -6 -11 -30 -31 0
-103 -6 -12 -30 -31 0
-89 -7 -8 -30 -32 0
-94 -7 -9 -30 -32 0
-98 -7 -10 -30 -32 0
-101 -7 -11 -30 -32 0
-103 -7 -12 -30 -32 0
-94 -8 -9 -30 -33 0
-98 -8 -10 -30 -33 0
-101 -8 -11 -30 -33 0
-103 -8 -12 -30 -33 0
-98 -9 -10 -30 -34 0
-101 -9 -11 -30 -34 0
-103 -9 -12 -30 -34 0
-101 -10 -11 -30 -35 0
-103 -10 -12 -30 -35 0
-103 -11 -12 -30 -36 0
-89 -7 -8 -31 -32 0
-94 -7 -9 -31 -32 0
-98 -7 -10 -31 -32 0
-101 -7 -11 -31 -32 0
-103 -7 -12 -31 -32 0
-94 -8 -9 -31 -33 0
-98 -8 -10 -31 -33 0
-101 -8 -11 -31 -33 0
-103 -8 -12 -31 -33 0
-98 -9 -10 -31 -34 0
-101 -9 -11 -31 -34 0
-103 -9 -12 -31 -34 0
-101 -10 -11 -31 -35 0
-103 -10 -12 -31 -35 0
-103 -11 -12 -31 -36 0
-94 -8 -9 -32 -33 0
-98 -8 -10 -32 -33 0
-101 -8 -11 -32 -33 0
-103 -8 -12 -32 -33 0
-98 -9 -10 -32 -34 0
-101 -9 -11 -32 -34 0
-103 -9 -12 -32 -34 0
-101 -10 -11 -32 -35 0
-103 -10 -12 -32 -35 0
-103 -11 -12 -32 -36 0
-98 -9 -10 -33 -34 0
-101 -9 -11 -33 -34 0
-103 -9 -12 -33 -34 0
-101 -10 -11 -33 -35 0
-103 -10 -12 -33 -35 0
-103 -11 -12 -33 -36 0
-101 -10 -11 -34 -35 0
-103 -10 -12 -34 -35 0
-103 -11 -12 -34 -36 0
-103 -11 -12 -35 -36 0
-76 -5 -6 -40 -41 0
-83 -5 -7 -40 -41 0
-89 -5 -8 -40 -41 0
-94 -5 -9 -40 -41 0
-98 -5 -10 -40 -41 0
-101 -5 -11 -40 -41 0
-103 -5 -12 -40 -41 0
-83 -6 -7 -40 -42 0
-89 -6 -8 -40 -42 0
-94 -6 -9 -40 -42 0
-98 -6 -10 -40 -42 0
-101 -6 -11 -40 -42 0
-103 -6 -12 -40 -42 0
-89 -7 -8 -40 -43 0
-94 -7 -9 -40 -43 0
-98 -7 -10 -40 -43 0
-101 -7 -11 -40 -43 0
-103 -7 -12 -40 -43 0
-94 -8 -9 -40 -44 0
-98 -8 -10 -40 -44 0
-101 -8 -11 -40 -44 0
-103 -8 -12 -40 -44 0
-98 -9 -10 -40 -45 0
-101 -9 -11 -40 -45 0
-103 -9 -12 -40 -45 0
-101 -10 -11 -40 -46 0
-103 -10 -12 -40 -46 0
-103 -11 -12 -40 -47 0
-83 -6 -7 -41 -42 0
-89 -6 -8 -41 -42 0
-94 -6 -9 -41 -42 0
-98 -6 -10 -41 -42 0
-101 -6 -11 -41 -42 0
-103 -6 -12 -41 -42 0
-89 -7 -8 -41 -43 0
-94 -7 -9 -41 -43 0
-98 -7 -10 -41 -43 0
-101 -7 -11 -41 -43 0
-103 -7 -12 -41 -43 0
-94 -8 -9 -41 -44 0
-98 -8 -10 -41 -44 0
-101 -8 -11 -41 -44 0
-103 -8 -12 -41 -44 0
-98 -9 -10 -41 -45 0
-101 -9 -11 -41 -45 0
-103 -9 -12 -41 -45 0
-101 -10 -11 -41 -46 0
-103 -10 -12 -41 -46 0
-103 -11 -12 -41 -47 0
-89 -7 -8 -42 -43 0
-94 -7 -9 -42 -43 0
-98 -7 -10 -42 -43 0
-101 -7 -11 -42 -43 0
-103 -7 -12 -42 -43 0
-94 -8 -9 -42 -44 0
-98 -8 -10 -42 -44 0
-101 -8 -11 -42 -44 0
-103 -8 -12 -42 -44 0
-98 -9 -10 -42 -45 0
-101 -9 -11 -42 -45 0
-103 -9 -12 -42 -45 0
-101 -10 -11 -42 -46 0
-103 -10 -12 -42 -46 0
-103 -11 -12 -42 -47 0
-94 -8 -9 -43 -44 0
-98 -8 -10 -43 -44 0
-101 -8 -11 -43 -44 0
-103 -8 -12 -43 -44 0
-98 -9 -10 -43 -45 0
-101 -9 -11 -43 -45 0
-103 -9 -12 -43 -45 0
-101 -10 -11 -43 -46 0
-103 -10 -12 -43 -46 0
-103 -11 -12 -43 -47 0
-98 -9 -10 -44 -45 0
-101 -9 -11 -44 -45 0
-103 -9 -12 -44 -45 0
-101 -10 -11 -44 -46 0
-103 -10 -12 -44 -46 0
-103 -11 -12 -44 -47 0
-101 -10 -11 -45 -46 0
-103 -10 -12 -45 -46 0
-103 -11 -12 -45 -47 0
-103 -11 -12 -46 -47 0
-83 -6 -7 -51 -52 0
-89 -6 -8 -51 -52 0
-94 -6 -9 -51 -52 0
-98 -6 -10 -51 -52 0
-101 -6 -11 -51 -52 0
-103 -6 -12 -51 -52 0
-89 -7 -8 -51 -53 0
-94 -7 -9 -51 -53 0
-98 -7 -10 -51 -53 0
-101 -7 -11 -51 -53 0
-103 -7 -12 -51 -53 0
-94 -8 -9 -51 -54 0
-98 -8 -10 -51 -54 0
-101 -8 -11 -51 -54 0
-103 -8 -12 -51 -54 0
-98 -9 -10 -51 -55 0
-101 -9 -11 -51 -55 0
-103 -9 -12 -51 -55 0
-101 -10 -11 -51 -56 0
-103 -10 -12 -51 -56 0
-103 -11 -12 -51 -57 0
-89 -7 -8 -52 -53 0
-94 -7 -9 -52 -53 0
-98 -7 -10 -52 -53 0
-101 -7 -11 -52 -53 0
-103 -7 -12 -52 -53 0
-94 -8 -9 -52 -54 0
-98 -8 -10 -52 -54 0
-101 -8 -11 -52 -54 0
-103 -8 -12 -52 -54 0
-98 -9 -10 -52 -55 0
-101 -9 -11 -52 -55 0
-103 -9 -12 -52 -55 0
-101 -10 -11 -52 -56 0
-103 -10 -12 -52 -56 0
-103 -11 -12 -52 -57 0
-94 -8 -9 -53 -54 0
-98 -8 -10 -53 -54 0
-101 -8 -11 -53 -54 0
-103 -8 -12 -53 -54 0
-98 -9 -10 -53 -55 0
-101 -9 -11 -53 -55 0
-103 -9 -12 -53 -55 0
-101 -10 -11 -53 -56 0
-103 -10 -12 -53 -56 0
-103 -11 -12 -53 -57 0
-98 -9 -10 -54 -55 0
-101 -9 -11 -54 -55 0
-103 -9 -12 -54 -55 0
-101 -10 -11 -54 -56 0
-103 -10 -12 -54 -56 0
-103 -11 -12 -54 -57 0
-101 -10 -11 -55 -56 0
-103 -10 -12 -55 -56 0
-103 -11 -12 -55 -57 0
-103 -11 -12 -56 -57 0
-89 -7 -8 -61 -62 0
-94 -7 -9 -61 -62 0
-98 -7 -10 -61 -62 0
-101 -7 -11 -61 -62 0
-103 -7 -12 -61 -62 0
-94 -8 -9 -61 -63 0
-98 -8 -10 -61 -63 0
-101 -8 -11 -61 -63 0
-103 -8 -12 -61 -63 0
-98 -9 -10 -61 -64 0
-101 -9 -11 -61 -64 0
-103 -9 -12 -61 -64 0
-101 -10 -11 -61 -65 0
-103 -10 -12 -61 -65 0
-103 -11 -12 -61 -66 0
-94 -8 -9 -62 -63 0
-98 -8 -10 -62 -63 0
-101 -8 -11 -62 -63 0
-103 -8 -12 -62 -63 0
-98 -9 -10 -62 -64 0
-101 -9 -11 -62 -64 0
-103 -9 -12 -62 -64 0
-101 -10 -11 -62 -65 0
-103 -10 -12 -62 -65 0
-103 -11 -12 -62 -66 0
-98 -9 -10 -63 -64 0
-101 -9 -11 -63 -64 0
-103 -9 -12 -63 -64 0
-101 -10 -11 -63 -65 0
-103 -10 -12 -63 -65 0
-103 -11 -12 -63 -66 0
-101 -10 -11 -64 -65 0
-103 -10 -12 -64 -65 0
-103 -11 -12 -64 -66 0
-103 -11 -12 -65 -66 0
-94 -8 -9 -70 -71 0
-98 -8 -10 -70 -71 0
-101 -8 -11 -70 -71 0
-103 -8 -12 -70 -71 0
-98 -9 -10 -70 -72 0
-101 -9 -11 -70 -72 0
-103 -9 -12 -70 -72 0
-101 -10 -11 -70 -73 0
-103 -10 -12 -70 -73 0
-103 -11 -12 -70 -74 0
-98 -9 -10 -71 -72 0
-101 -9 -11 -71 -72 0
-103 -9 -12 -71 -72 0
-101 -10 -11 -71 -73 0
-103 -10 -12 -71 -73 0
-103 -11 -12 -71 -74 0
-101 -10 -11 -72 -73 0
-103 -10 -12 -72 -73 0
-103 -11 -12 -72 -74 0
-103 -11 -12 -73 -74 0
-98 -9 -10 -78 -79 0
-101 -9 -11 -78 -79 0
-103 -9 -12 -78 -79 0
-101 -10 -11 -78 -80 0
-103 -10 -12 -78 -80 0
-103 -11 -12 -78 -81 0
-101 -10 -11 -79 -80 0
-103 -10 -12 -79 -80 0
-103 -11 -12 -79 -81 0
-103 -11 -12 -80 -81 0
-101 -10 -11 -85 -86 0
-103 -10 -12 -85 -86 0
-103 -11 -12 -85 -87 0
-103 -11 -12 -86 -87 0
-103 -11 -12 -91 -92 0
-68 -17 -18 -28 -29 0
-76 -17 -19 -28 -29 0
-83 -17 -20 -28 -29 0
-89 -17 -21 -28 -29 0
-94 -17 -22 -28 -29 0
-98 -17 -23 -28 -29 0
-101 -17 -24 -28 -29 0
-103 -17 -25 -28 -29 0
-76 -18 -19 -28 -30 0
-83 -18 -20 -28 -30 0
-89 -18 -21 -28 -30 0
-94 -18 -22 -28 -30 0
-98 -18 -23 -28 -30 0
-101 -18 -24 -28 -30 0
-103 -18 -25 -28 -30 0
-83 -19 -20 -28 -31 0
-89 -19 -21 -28 -31 0
-94 -19 -22 -28 -31 0
-98 -19 -23 -28 -31 0
-101 -19 -24 -28 -31 0
-103 -19 -25 -28 -31 0
-89 -20 -21 -28 -32 0
-94 -20 -22 -28 -32 0
-98 -20 -23 -28 -32 0
-101 -20 -24 -28 -32 0
-103 -20 -25 -28 -32 0
-94 -21 -22 -28 -33 0
-98 -21 -23 -28 -33 0
-101 -21 -24 -28 -33 0
-103 -21 -25 -28 -33 0
-98 -22 -23 -28 -34 0
-101 -22 -24 -28 -34 0
-103 -22 -25 -28 -34 0
-101 -23 -24 -28 -35 0
-103 -23 -25 -28 -35 0
-103 -24 -25 -28 -36 0
-76 -18 -19 -29 -30 0
-83 -18 -20 -29 -30 0
-89 -18 -21 -29 -30 0
-94 -18 -22 -29 -30 0
-98 -18 -23 -29 -30 0
-101 -18 -24 -29 -30 0
-103 -18 -25 -29 -30 0
-83 -19 -20 -29 -31 0
-89 -19 -21 -29 -31 0
-94 -19 -22 -29 -31 0
-98 -19 -23 -29 -31 0
-101 -19 -24 -29 -31 0
-103 -19 -25 -29 -31 0
-89 -20 -21 -29 -32 0
-94 -20 -22 -29 -32 0
-98 -20 -23 -29 -32 0
-101 -20 -24 -29 -32 0
-103 -20 -25 -29 -32 0
-94 -21 -22 -29 -33 0
-98 -21 -23 -29 -33 0
-101 -21 -24 -29 -33 0
-103 -21 -25 -29 -33 0
-98 -22 -23 -29 -34 0
-101 -22 -24 -29 -34 0
-103 -22 -25 -29 -34 0
-101 -23 -24 -29 -35 0
-103 -23 -25 -29 -35 0
-103 -24 -25 -29 -36 0
-83 -19 -20 -30 -31 0
-89 -19 -21 -30 -31 0
-94 -19 -22 -30 -31 0
-98 -19 -23 -30 -31 0
-101 -19 -24 -30 -31 0
-103 -19 -25 -30 -31 0
-89 -20 -21 -30 -32 0
-94 -20 -22 -30 -32 0
-98 -20 -23 -30 -32 0
-101 -20 -24 -30 -32 0
-103 -20 -25 -30 -32 0
-94 -21 -22 -30 -33 0
-98 -21 -23 -30 -33 0
-101 -21 -24 -30 -33 0
-103 -21 -25 -30 -33 0
-98 -22 -23 -30 -34 0
-101 -22 -24 -30 -34 0
-103 -22 -25 -30 -34 0
-101 -23 -24 -30 -35 0
-103 -23 -25 -30 -35 0
-103 -24 -25 -30 -36 0
-89 -20 -21 -31 -32 0
-94 -20 -22 -31 -32 0
-98 -20 -23 -31 -32 0
-101 -20 -24 -31 -32 0
-103 -20 -25 -31 -32 0
-94 -21 -22 -31 -33 0
-98 -21 -23 -31 -33 0
-101 -21 -24 -31 -33 0
-103 -21 -25 -31 -33 0
-98 -22 -23 -31 -34 0
-101 -22 -24 -31 -34 0
-103 -22 -25 -31 -34 0
-101 -23 -24 -31 -35 0
-103 -23 -25 -31 -35 0
-103 -24 -25 -31 -36 0
-94 -21 -22 -32 -33 0
-98 -21 -23 -32 -33 0
-101 -21 -24 -32 -33 0
-103 -21 -25 -32 -33 0
-98 -22 -23 -32 -34 0
-101 -22 -24 -32 -34 0
-103 -22 -25 -32 -34 0
-101 -23 -24 -32 -35 0
-103 -23 -25 -32 -35 0
-103 -24 -25 -32 -36 0
-98 -22 -23 -33 -34 0
-101 -22 -24 -33 -34 0
-103 -22 -25 -33 -34 0
-101 -23 -24 -33 -35 0
-103 -23 -25 -33 -35 0
-103 -24 -25 -33 -36 0
-101 -23 -24 -34 -35 0
-103 -23 -25 -34 -35 0
-103 -24 -25 -34 -36 0
-103 -24 -25 -35 -36 0
-76 -18 -19 -40 -41 0
-83 -18 -20 -40 -41 0
-89 -18 -21 -40 -41 0
-94 -18 -22 -40 -41 0
-98 -18 -23 -40 -41 0
-101 -18 -24 -40 -41 0
-103 -18 -25 -40 -41 0
-83 -19 -20 -40 -42 0
-89 -19 -21 -40 -42 0
-94 -19 -22 -40 -42 0
-98 -19 -23 -40 -42 0
-101 -19 -24 -40 -42 0
-103 -19 -25 -40 -42 0
-89 -20 -21 -40 -43 0
-94 -20 -22 -40 -43 0
-98 -20 -23 -40 -43 0
-101 -20 -24 -40 -43 0
-103 -20 -25 -40 -43 0
-94 -21 -22 -40 -44 0
-98 -21 -23 -40 -44 0
-101 -21 -24 -40 -44 0
-103 -21 -25 -40 -44 0
-98 -22 -23 -40 -45 0
-101 -22 -24 -40 -45 0
-103 -22 -25 -40 -45 0
-101 -23 -24 -40 -46 0
-103 -23 -25 -40 -46 0
-103 -24 -25 -40 -47 0
-83 -19 -20 -41 -42 0
-89 -19 -21 -41 -42 0
-94 -19 -22 -41 -42 0
-98 -19 -23 -41 -42 0
-101 -19 -24 -41 -42 0
-103 -19 -25 -41 -42 0
-89 -20 -21 -41 -43 0
-94 -20 -22 -41 -43 0
-98 -20 -23 -41 -43 0
-101 -20 -24 -41 -43 0
-103 -20 -25 -41 -43 0
-94 -21 -22 -41 -44 0
-98 -21 -23 -41 -44 0
-101 -21 -24 -41 -44 0
-103 -21 -25 -41 -44 0
-98 -22 -23 -41 -45 0
-101 -22 -24 -41 -45 0
-103 -22 -25 -41 -45 0
-101 -23 -24 -41 -46 0
-103 -23 -25 -41 -46 0
-103 -24 -25 -41 -47 0
-89 -20 -21 -42 -43 0
-94 -20 -22 -42 -43 0
-98 -20 -23 -42 -43 0
-101 -20 -24 -42 -43 0
-103 -20 -25 -42 -43 0
-94 -21 -22 -42 -44 0
-98 -21 -23 -42 -44 0
-101 -21 -24 -42 -44 0
-103 -21 -25 -42 -44 0
-98 -22 -23 -42 -45 0
-101 -22 -24 -42 -45 0
-103 -22 -25 -42 -45 0
-101 -23 -24 -42 -46 0
-103 -23 -25 -42 -46 0
-103 -24 -25 -42 -47 0
-94 -21 -22 -43 -44 0
-98 -21 -23 -43 -44 0
-101 -21 -24 -43 -44 0
-103 -21 -25 -43 -44 0
-98 -22 -23 -43 -45 0
-101 -22 -24 -43 -45 0
-103 -22 -25 -43 -45 0
-101 -23 -24 -43 -46 0
-103 -23 -25 -43 -46 0
-103 -24 -25 -43 -47 0
-98 -22 -23 -44 -45 0
-101 -22 -24 -44 -45 0
-103 -22 -25 -44 -45 0
-101 -23 -24 -44 -46 0
-103 -23 -25 -44 -46 0
-103 -24 -25 -44 -47 0
-101 -23 -24 -45 -46 0
-103 -23 -25 -45 -46 0
-103 -24 -25 -45 -47 0
-103 -24 -25 -46 -47 0
-83 -19 -20 -51 -52 0
-89 -19 -21 -51 -52 0
-94 -19 -22 -51 -52 0
-98 -19 -23 -51 -52 0
-101 -19 -24 -51 -52 0
-103 -19 -25 -51 -52 0
-89 -20 -21 -51 -53 0
-94 -20 -22 -51 -53 0
-98 -20 -23 -51 -53 0
-101 -20 -24 -51 -53 0
-103 -20 -25 -51 -53 0
-94 -21 -22 -51 -54 0
-98 -21 -23 -51 -54 0
-101 -21 -24 -51 -54 0
-103 -21 -25 -51 -54 0
-98 -22 -23 -51 -55 0
-101 -22 -24 -51 -55 0
-103 -22 -25 -51 -55 0
-101 -23 -24 -51 -56 0
-103 -23 -25 -51 -56 0
-103 -24 -25 -51 -57 0
-89 -20 -21 -52 -53 0
-94 -20 -22 -52 -53 0
-98 -20 -23 -52 -53 0
-101 -20 -24 -52 -53 0
-103 -20 -25 -52 -53 0
-94 -21 -22 -52 -54 0
-98 -21 -23 -52 -54 0
-101 -21 -24 -52 -54 0
-103 -21 -25 -52 -54 0
-98 -22 -23 -52 -55 0
-101 -22 -24 -52 -55 0
-103 -22 -25 -52 -55 0
-101 -23 -24 -52 -56 0
-103 -23 -25 -52 -56 0
-103 -24 -25 -52 -57 0
-94 -21 -22 -53 -54 0
-98 -21 -23 -53 -54 0
-101 -21 -24 -53 -54 0
-103 -21 -25 -53 -54 0
-98 -22 -23 -53 -55 0
-101 -22 -24 -53 -55 0
-103 -22 -25 -53 -55 0
-101 -23 -24 -53 -56 0
-103 -23 -25 -53 -56 0
-103 -24 -25 -53 -57 0
-98 -22 -23 -54 -55 0
-101 -22 -24 -54 -55 0
-103 -22 -25 -54 -55 0
-101 -23 -24 -54 -56 0
-103 -23 -25 -54 -56 0
-103 -24 -25 -54 -57 0
-101 -23 -24 -55 -56 0
-103 -23 -25 -55 -56 0
-103 -24 -25 -55 -57 0
-103 -24 -25 -56 -57 0
-89 -20 -21 -61 -62 0
-94 -20 -22 -61 -62 0
-98 -20 -23 -61 -62 0
-101 -20 -24 -61 -62 0
-103 -20 -25 -61 -62 0
-94 -21 -22 -61 -63 0
-98 -21 -23 -61 -63 0
-101 -21 -24 -61 -63 0
-103 -21 -25 -61 -63 0
-98 -22 -23 -61 -64 0
-101 -22 -24 -61 -64 0
-103 -22 -25 -61 -64 0
-101 -23 -24 -61 -65 0
-103 -23 -25 -61 -65 0
-103 -24 -25 -61 -66 0
-94 -21 -22 -62 -63 0
-98 -21 -23 -62 -63 0
-101 -21 -24 -62 -63 0
-103 -21 -25 -62 -63 0
-98 -22 -23 -62 -64 0
-101 -22 -24 -62 -64 0
-103 -22 -25 -62 -64 0
-101 -23 -24 -62 -65 0
-103 -23 -25 -62 -65 0
-103 -24 -25 -62 -66 0
-98 -22 -23 -63 -64 0
-101 -22 -24 -63 -64 0
-103 -22 -25 -63 -64 0
-101 -23 -24 -63 -65 0
-103 -23 -25 -63 -65 0
-103 -24 -25 -63 -66 0
-101 -23 -24 -64 -65 0
-103 -23 -25 -64 -65 0
-103 -24 -25 -64 -66 0
-103 -24 -25 -65 -66 0
-94 -21 -22 -70 -71 0
-98 -21 -23 -70 -71 0
-101 -21 -24 -70 -71 0
-103 -21 -25 -70 -71 0
-98 -22 -23 -70 -72 0
-101 -22 -24 -70 -72 0
-103 -22 -25 -70 -72 0
-101 -23 -24 -70 -73 0
-103 -23 -25 -70 -73 0
-103 -24 -25 -70 -74 0
-98 -22 -23 -71 -72 0
-101 -22 -24 -71 -72 0
-103 -22 -25 -71 -72 0
-101 -23 -24 -71 -73 0
-103 -23 -25 -71 -73 0
-103 -24 -25 -71 -74 0
-101 -23 -24 -72 -73 0
-103 -23 -25 -72 -73 0
-103 -24 -25 -72 -74 0
-103 -24 -25 -73 -74 0
-98 -22 -23 -78 -79 0
-101 -22 -24 -78 -79 0
-103 -22 -25 -78 -79 0
-101 -23 -24 -78 -80 0
-103 -23 -25 -78 -80 0
-103 -24 -25 -78 -81 0
-101 -23 -24 -79 -80 0
-103 -23 -25 -79 -80 0
-103 -24 -25 -79 -81 0
-103 -24 -25 -80 -81 0
-101 -23 -24 -85 -86 0
-103 -23 -25 -85 -86 0
-103 -24 -25 -85 -87 0
-103 -24 -25 -86 -87 0
-103 -24 -25 -91 -92 0
-76 -30 -31 -40 -41 0
-83 -30 -32 -40 -41 0
-89 -30 -33 -40 -41 0
-94 -30 -34 -40 -41 0
-98 -30 -35 -40 -41 0
-101 -30 -36 -40 -41 0
-103 -30 -37 -40 -41 0
-83 -31 -32 -40 -42 0
-89 -31 -33 -40 -42 0
-94 -31 -34 -40 -42 0
-98 -31 -35 -40 -42 0
-101 -31 -36 -40 -42 0
-103 -31 -37 -40 -42 0
-89 -32 -33 -40 -43 0
-94 -32 -34 -40 -43 0
-98 -32 -35 -40 -43 0
-101 -32 -36 -40 -43 0
-103 -32 -37 -40 -43 0
-94 -33 -34 -40 -44 0
-98 -33 -35 -40 -44 0
-101 -33 -36 -40 -44 0
-103 -33 -37 -40 -44 0
-98 -34 -35 -40 -45 0
-101 -34 -36 -40 -45 0
-103 -34 -37 -40 -45 0
-101 -35 -36 -40 -46 0
-103 -35 -37 -40 -46 0
-103 -36 -37 -40 -47 0
-83 -31 -32 -41 -42 0
-89 -31 -33 -41 -42 0
-94 -31 -34 -41 -42 0
-98 -31 -35 -41 -42 0
-101 -31 -36 -41 -42 0
-103 -31 -37 -41 -42 0
-89 -32 -33 -41 -43 0
-94 -32 -34 -41 -43 0
-98 -32 -35 -41 -43 0
-101 -32 -36 -41 -43 0
-103 -32 -37 -41 -43 0
-94 -33 -34 -41 -44 0
-98 -33 -35 -41 -44 0
-101 -33 -36 -41 -44 0
-103 -33 -37 -41 -44 0
-98 -34 -35 -41 -45 0
-101 -34 -36 -41 -45 0
-103 -34 -37 -41 -45 0
-101 -35 -36 -41 -46 0
-103 -35 -37 -41 -46 0
-103 -36 -37 -41 -47 0
-89 -32 -33 -42 -43 0
-94 -32 -34 -42 -43 0
-98 -32 -35 -42 -43 0
-101 -32 -36 -42 -43 0
-103 -32 -37 -42 -43 0
-94 -33 -34 -42 -44 0
-98 -33 -35 -42 -44 0
-101 -33 -36 -42 -44 0
-103 -33 -37 -42 -44 0
-98 -34 -35 -42 -45 0
-101 -34 -36 -42 -45 0
-103 -34 -37 -42 -45 0
-101 -35 -36 -42 -46 0
-103 -35 -37 -42 -46 0
-103 -36 -37 -42 -47 0
-94 -33 -34 -43 -44 0
-98 -33 -35 -43 -44 0
-101 -33 -36 -43 -44 0
-103 -33 -37 -43 -44 0
-98 -34 -35 -43 -45 0
-101 -34 -36 -43 -45 0
-103 -34 -37 -43 -45 0
-101 -35 -36 -43 -46 0
-103 -35 -37 -43 -46 0
-103 -36 -37 -43 -47 0
-98 -34 -35 -44 -45 0
-101 -34 -36 -44 -45 0
-103 -34 -37 -44 -45 0
-101 -35 -36 -44 -46 0
-103 -35 -37 -44 -46 0
-103 -36 -37 -44 -47 0
-101 -35 -36 -45 -46 0
-103 -35 -37 -45 -46 0
-103 -36 -37 -45 -47 0
-103 -36 -37 -46 -47 0
-83 -31 -32 -51 -52 0
-89 -31 -33 -51 -52 0
-94 -31 -34 -51 -52 0
-98 -31 -35 -51 -52 0
-101 -31 -36 -51 -52 0
-103 -31 -37 -51 -52 0
-89 -32 -33 -51 -53 0
-94 -32 -34 -51 -53 0
-98 -32 -35 -51 -53 0
-101 -32 -36 -51 -53 0
-103 -32 -37 -51 -53 0
-94 -33 -34 -51 -54 0
-98 -33 -35 -51 -54 0
-101 -33 -36 -51 -54 0
-103 -33 -37 -51 -54 0
-98 -34 -35 -51 -55 0
-101 -34 -36 -51 -55 0
-103 -34 -37 -51 -55 0
-101 -35 -36 -51 -56 0
-103 -35 -37 -51 -56 0
-103 -36 -37 -51 -57 0
-89 -32 -33 -52 -53 0
-94 -32 -34 -52 -53 0
-98 -32 -35 -52 -53 0
-101 -32 -36 -52 -53 0
-103 -32 -37 -52 -53 0
-94 -33 -34 -52 -54 0
-98 -33 -35 -52 -54 0
-101 -33 -36 -52 -54 0
-103 -33 -37 -52 -54 0
-98 -34 -35 -52 -55 0
-101 -34 -36 -52 -55 0
-103 -34 -37 -52 -55 0
-101 -35 -36 -52 -56 0
-103 -35 -37 -52 -56 0
-103 -36 -37 -52 -57 0
-94 -33 -34 -53 -54 0
-98 -33 -35 -53 -54 0
-101 -33 -36 -53 -54 0
-103 -33 -37 -53 -54 0
-98 -34 -35 -53 -55 0
-101 -34 -36 -53 -55 0
-103 -34 -37 -53 -55 0
-101 -35 -36 -53 -56 0
-103 -35 -37 -53 -56 0
-103 -36 -37 -53 -57 0
-98 -34 -35 -54 -55 0
-101 -34 -36 -54 -55 0
-103 -34 -37 -54 -55 0
-101 -35 -36 -54 -56 0
-103 -35 -37 -54 -56 0
-103 -36 -37 -54 -57 0
-101 -35 -36 -55 -56 0
-103 -35 -37 -55 -56 0
-103 -36 -37 -55 -57 0
-103 -36 -37 -56 -57 0
-89 -32 -33 -61 -62 0
-94 -32 -34 -61 -62 0
-98 -32 -35 -61 -62 0
-101 -32 -36 -61 -62 0
-103 -32 -37 -61 -62 0
-94 -33 -34 -61 -63 0
-98 -33 -35 -61 -63 0
-101 -33 -36 -61 -63 0
-103 -33 -37 -61 -63 0
-98 -34 -35 -61 -64 0
-101 -34 -36 -61 -64 0
-103 -34 -37 -61 -64 0
-101 -35 -36 -61 -65 0
-103 -35 -37 -61 -65 0
-103 -36 -37 -61 -66 0
-94 -33 -34 -62 -63 0
-98 -33 -35 -62 -63 0
-101 -33 -36 -62 -63 0
-103 -33 -37 -62 -63 0
-98 -34 -35 -62 -64 0
-101 -34 -36 -62 -64 0
-103 -34 -37 -62 -64 0
-101 -35 -36 -62 -65 0
-103 -35 -37 -62 -65 0
-103 -36 -37 -62 -66 0
-98 -34 -35 -63 -64 0
-101 -34 -36 -63 -64 0
-103 -34 -37 -63 -64 0
-101 -35 -36 -63 -65 0
-103 -35 -37 -63 -65 0
-103 -36 -37 -63 -66 0
-101 -35 -36 -64 -65 0
-103 -35 -37 -64 -65 0
-103 -36 -37 -64 -66 0
-103 -36 -37 -65 -66 0
-94 -33 -34 -70 -71 0
-98 -33 -35 -70 -71 0
-101 -33 -36 -70 -71 0
-103 -33 -37 -70 -71 0
-98 -34 -35 -70 -72 0
-101 -34 -36 -70 -72 0
-103 -34 -37 -70 -72 0
-101 -35 -36 -70 -73 0
-103 -35 -37 -70 -73 0
-103 -36 -37 -70 -74 0
-98 -34 -35 -71 -72 0
-101 -34 -36 -71 -72 0
-103 -34 -37 -71 -72 0
-101 -35 -36 -71 -73 0
-103 -35 -37 -71 -73 0
-103 -36 -37 -71 -74 0
-101 -35 -36 -72 -73 0
-103 -35 -37 -72 -73 0
-103 -36 -37 -72 -74 0
-103 -36 -37 -73 -74 0
-98 -34 -35 -78 -79 0
-101 -34 -36 -78 -79 0
-103 -34 -37 -78 -79 0
-101 -35 -36 -78 -80 0
-103 -35 -37 -78 -80 0
-103 -36 -37 -78 -81 0
-101 -35 -36 -79 -80 0
-103 -35 -37 -79 -80 0
-103 -36 -37 -79 -81 0
-103 -36 -37 -80 -81 0
-101 -35 -36 -85 -86 0
-103 -35 -37 -85 -86 0
-103 -36 -37 -85 -87 0
-103 -36 -37 -86 -87 0
-103 -36 -37 -91 -92 0
-83 -42 -43 -51 -52 0
-89 -42 -44 -51 -52 0
-94 -42 -45 -51 -52 0
-98 -42 -46 -51 -52 0
-101 -42 -47 -51 -52 0
-103 -42 -48 -51 -52 0
-89 -43 -44 -51 -53 0
-94 -43 -45 -51 -53 0
-98 -43 -46 -51 -53 0
-101 -43 -47 -51 -53 0
-103 -43 -48 -51 -53 0
-94 -44 -45 -51 -54 0
-98 -44 -46 -51 -54 0
-101 -44 -47 -51 -54 0
-103 -44 -48 -51 -54 0
-98 -45 -46 -51 -55 0
-101 -45 -47 -51 -55 0
-103 -45 -48 -51 -55 0
-101 -46 -47 -51 -56 0
-103 -46 -48 -51 -56 0
-103 -47 -48 -51 -57 0
-89 -43 -44 -52 -53 0
-94 -43 -45 -52 -53 0
-98 -43 -46 -52 -53 0
-101 -43 -47 -52 -53 0
-103 -43 -48 -52 -53 0
-94 -44 -45 -52 -54 0
-98 -44 -46 -52 -54 0
-101 -44 -47 -52 -54 0
-103 -44 -48 -52 -54 0
-98 -45 -46 -52 -55 0
-101 -45 -47 -52 -55 0
-103 -45 -48 -52 -55 0
-101 -46 -47 -52 -56 0
-103 -46 -48 -52 -56 0
-103 -47 -48 -52 -57 0
-94 -44 -45 -53 -54 0
-98 -44 -46 -53 -54 0
-101 -44 -47 -53 -54 0
-103 -44 -48 -53 -54 0
-98 -45 -46 -53 -55 0
-101 -45 -47 -53 -55 0
-103 -45 -48 -53 -55 0
-101 -46 -47 -53 -56 0
-103 -46 -48 -53 -56 0
-103 -47 -48 -53 -57 0
-98 -45 -46 -54 -55 0
-101 -45 -47 -54 -55 0
-103 -45 -48 -54 -55 0
-101 -46 -47 -54 -56 0
-103 -46 -48 -54 -56 0
-103 -47 -48 -54 -57 0
-101 -46 -47 -55 -56 0
-103 -46 -48 -55 -56 0
-103 -47 -48 -55 -57 0
-103 -47 -48 -56 -57 0
-89 -43 -44 -61 -62 0
-94 -43 -45 -61 -62 0
-98 -43 -46 -61 -62 0
-101 -43 -47 -61 -62 0
-103 -43 -48 -61 -62 0
-94 -44 -45 -61 -63 0
-98 -44 -46 -61 -63 0
-101 -44 -47 -61 -63 0
-103 -44 -48 -61 -63 0
-98 -45 -46 -61 -64 0
-101 -45 -47 -61 -64 0
-103 -45 -48 -61 -64 0
-101 -46 -47 -61 -65 0
-103 -46 -48 -61 -65 0
-103 -47 -48 -61 -66 0
-94 -44 -45 -62 -63 0
-98 -44 -46 -62 -63 0
-101 -44 -47 -62 -63 0
-103 -44 -48 -62 -63 0
-98 -45 -46 -62 -64 0
-101 -45 -47 -62 -64 0
-103 -45 -48 -62 -64 0
-101 -46 -47 -62 -65 0
-103 -46 -48 -62 -65 0
-103 -47 -48 -62 -66 0
-98 -45 -46 -63 -64 0
-101 -45 -47 -63 -64 0
-103 -45 -48 -63 -64 0
-101 -46 -47 -63 -65 0
-103 -46 -48 -63 -65 0
-103 -47 -48 -63 -66 0
-101 -46 -47 -64 -65 0
-103 -46 -48 -64 -65 0
-103 -47 -48 -64 -66 0
-103 -47 -48 -65 -66 0
-94 -44 -45 -70 -71 0
-98 -44 -46 -70 -71 0
-101 -44 -47 -70 -71 0
-103 -44 -48 -70 -71 0
-98 -45 -46 -70 -72 0
-101 -45 -47 -70 -72 0
-103 -45 -48 -70 -72 0
-101 -46 -47 -70 -73 0
-103 -46 -48 -70 -73 0
-103 -47 -48 -70 -74 0
-98 -45 -46 -71 -72 0
-101 -45 -47 -71 -72 0
-103 -45 -48 -71 -72 0
-101 -46 -47 -71 -73 0
-103 -46 -48 -71 -73 0
-103 -47 -48 -71 -74 0
-101 -46 -47 -72 -73 0
-103 -46 -48 -72 -73 0
-103 -47 -48 -72 -74 0
-103 -47 -48 -73 -74 0
-98 -45 -46 -78 -79 0
-101 -45 -47 -78 -79 0
-103 -45 -48 -78 -79 0
-101 -46 -47 -78 -80 0
-103 -46 -48 -78 -80 0
-103 -47 -48 -78 -81 0
-101 -46 -47 -79 -80 0
-103 -46 -48 -79 -80 0
-103 -47 -48 -79 -81 0
-103 -47 -48 -80 -81 0
-101 -46 -47 -85 -86 0
-103 -46 -48 -85 -86 0
-103 -47 -48 -85 -87 0
-103 -47 -48 -86 -87 0
-103 -47 -48 -91 -92 0
-89 -53 -54 -61 -62 0
-94 -53 -55 -61 -62 0
-98 -53 -56 -61 -62 0
-101 -53 -57 -61 -62 0
-103 -53 -58 -61 -62 0
-94 -54 -55 -61 -63 0
-98 -54 -56 -61 -63 0
-101 -54 -57 -61 -63 0
-103 -54 -58 -61 -63 0
-98 -55 -56 -61 -64 0
-101 -55 -57 -61 -64 0
-103 -55 -58 -61 -64 0
-101 -56 -57 -61 -65 0
-103 -56 -58 -61 -65 0
-103 -57 -58 -61 -66 0
-94 -54 -55 -62 -63 0
-98 -54 -56 -62 -63 0
-101 -54 -57 -62 -63 0
-103 -54 -58 -62 -63 0
-98 -55 -56 -62 -64 0
-101 -55 -57 -62 -64 0
-103 -55 -58 -62 -64 0
-101 -56 -57 -62 -65 0
-103 -56 -58 -62 -65 0
-103 -57 -58 -62 -66 0
-98 -55 -56 -63 -64 0
-101 -55 -57 -63 -64 0
-103 -55 -58 -63 -64 0
-101 -56 -57 -63 -65 0
-103 -56 -58 -63 -65 0
-103 -57 -58 -63 -66 0
-101 -56 -57 -64 -65 0
-103 -56 -58 -64 -65 0
-103 -57 -58 -64 -66 0
-103 -57 -58 -65 -66 0
-94 -54 -55 -70 -71 0
-98 -54 -56 -70 -71 0
-101 -54 -57 -70 -71 0
-103 -54 -58 -70 -71 0
-98 -55 -56 -70 -72 0
-101 -55 -57 -70 -72 0
-103 -55 -58 -70 -72 0
-101 -56 -57 -70 -73 0
-103 -56 -58 -70 -73 0
-103 -57 -58 -70 -74 0
-98 -55 -56 -71 -72 0
-101 -55 -57 -71 -72 0
-103 -55 -58 -71 -72 0
-101 -56 -57 -71 -73 0
-103 -56 -58 -71 -73 0
-103 -57 -58 -71 -74 0
-101 -56 -57 -72 -73 0
-103 -56 -58 -72 -73 0
-103 -57 -58 -72 -74 0
-103 -57 -58 -73 -74 0
-98 -55 -56 -78 -79 0
-101 -55 -57 -78 -79 0
-103 -55 -58 -78 -79 0
-101 -56 -57 -78 -80 0
-103 -56 -58 -78 -80 0
-103 -57 -58 -78 -81 0
-101 -56 -57 -79 -80 0
-103 -56 -58 -79 -80 0
-103 -57 -58 -79 -81 0
-103 -57 -58 -80 -81 0
-101 -56 -57 -85 -86 0
-103 -56 -58 -85 -86 0
-103 -57 -58 -85 -87 0
-103 -57 -58 -86 -87 0
-103 -57 -58 -91 -92 0
-94 -63 -64 -70 -71 0
-98 -63 -65 -70 -71 0
-101 -63 -66 -70 -71 0
-103 -63 -67 -70 -71 0
-98 -64 -65 -70 -72 0
-101 -64 -66 -70 -72 0
-103 -64 -67 -70 -72 0
-101 -65 -66 -70 -73 0
-103 -65 -67 -70 -73 0
-103 -66 -67 -70 -74 0
-98 -64 -65 -71 -72 0
-101 -64 -66 -71 -72 0
-103 -64 -67 -71 -72 0
-101 -65 -66 -71 -73 0
-103 -65 -67 -71 -73 0
-103 -66 -67 -71 -74 0
-101 -65 -66 -72 -73 0
-103 -65 -67 -72 -73 0
-103 -66 -67 -72 -74 0
-103 -66 -67 -73 -74 0
-98 -64 -65 -78 -79 0
-101 -64 -66 -78 -79 0
-103 -64 -67 -78 -79 0
-101 -65 -66 -78 -80 0
-103 -65 -67 -78 -80 0
-103 -66 -67 -78 -81 0
-101 -65 -66 -79 -80 0
-103 -65 -67 -79 -80 0
-103 -66 -67 -79 -81 0
-103 -66 -67 -80 -81 0
-101 -65 -66 -85 -86 0
-103 -65 -67 -85 -86 0
-103 -66 -67 -85 -87 0
-103 -66 -67 -86 -87 0
-103 -66 -67 -91 -92 0
-98 -72 -73 -78 -79 0
-101 -72 -74 -78 -79 0
-103 -72 -75 -78 -79 0
-101 -73 -74 -78 -80 0
-103 -73 -75 -78 -80 0
-103 -74 -75 -78 -81 0
-101 -73 -74 -79 -80 0
-103 -73 -75 -79 -80 0
-103 -74 -75 -79 -81 0
-103 -74 -75 -80 -81 0
-101 -73 -74 -85 -86 0
-103 -73 -75 -85 -86 0
-103 -74 -75 -85 -87 0
-103 -74 -75 -86 -87 0
-103 -74 -75 -91 -92 0
-101 -80 -81 -85 -86 0
-103 -80 -82 -85 -86 0
-103 -81 -82 -85 -87 0
-103 -81 -82 -86 -87 0
-103 -81 -82 -91 -92 0
-103 -87 -88 -91 -92 0
-60 -3 -4 -15 -16 0
-69 -3 -5 -15 -16 0
-77 -3 -6 -15 -16 0
-84 -3 -7 -15 -16 0
-90 -3 -8 -15 -16 0
-95 -3 -9 -15 -16 0
-99 -3 -10 -15 -16 0
-102 -3 -11 -15 -16 0
-104 -3 -12 -15 -16 0
-105 -3 -13 -15 -16 0
-69 -4 -5 -15 -17 0
-77 -4 -6 -15 -17 0
-84 -4 -7 -15 -17 0
-90 -4 -8 -15 -17 0
-95 -4 -9 -15 -17 0
-99 -4 -10 -15 -17 0
-102 -4 -11 -15 -17 0
-104 -4 -12 -15 -17 0
-105 -4 -13 -15 -17 0
-77 -5 -6 -15 -18 0
-84 -5 -7 -15 -18 0
-90 -5 -8 -15 -18 0
-95 -5 -9 -15 -18 0
-99 -5 -10 -15 -18 0
-102 -5 -11 -15 -18 0
-104 -5 -12 -15 -18 0
-105 -5 -13 -15 -18 0
-84 -6 -7 -15 -19 0
-90 -6 -8 -15 -19 0
-95 -6 -9 -15 -19 0
-99 -6 -10 -15 -19 0
-102 -6 -11 -15 -19 0
-104 -6 -12 -15 -19 0
-105 -6 -13 -15 -19 0
-90 -7 -8 -15 -20 0
-95 -7 -9 -15 -20 0
-99 -7 -10 -15 -20 0
-102 -7 -11 -15 -20 0
-104 -7 -12 -15 -20 0
-105 -7 -13 -15 -20 0
-95 -8 -9 -15 -21 0
-99 -8 -10 -15 -21 0
-102 -8 -11 -15 -21 0
-104 -8 -12 -15 -21 0
-105 -8 -13 -15 -21 0
-99 -9 -10 -15 -22 0
-102 -9 -11 -15 -22 0
-104 -9 -12 -15 -22 0
-105 -9 -13 -15 -22 0
-102 -10 -11 -15 -23 0
-104 -10 -12 -15 -23 0
-105 -10 -13 -15 -23 0
-104 -11 -12 -15 -24 0
-105 -11 -13 -15 -24 0
-105 -12 -13 -15 -25 0
-69 -4 -5 -16 -17 0
-77 -4 -6 -16 -17 0
-84 -4 -7 -16 -17 0
-90 -4 -8 -16 -17 0
-95 -4 -9 -16 -17 0
-99 -4 -10 -16 -17 0
-102 -4 -11 -16 -17 0
-104 -4 -12 -16 -17 0
-105 -4 -13 -16 -17 0
-77 -5 -6 -16 -18 0
-84 -5 -7 -16 -18 0
-90 -5 -8 -16 -18 0
-95 -5 -9 -16 -18 0
-99 -5 -10 -16 -18 0
-102 -5 -11 -16 -18 0
-104 -5 -12 -16 -18 0
-105 -5 -13 -16 -18 0
-84 -6 -7 -16 -19 0
-90 -6 -8 -16 -19 0
-95 -6 -9 -16 -19 0
-99 -6 -10 -16 -19 0
-102 -6 -11 -16 -19 0
-104 -6 -12 -16 -19 0
-105 -6 -13 -16 -19 0
-90 -7 -8 -16 -20 0
-95 -7 -9 -16 -20 0
-99 -7 -10 -16 -20 0
-102 -7 -11 -16 -20 0
-104 -7 -12 -16 -20 0
-105 -7 -13 -16 -20 0
-95 -8 -9 -16 -21 0
-99 -8 -10 -16 -21 0
-102 -8 -11 -16 -21 0
-104 -8 -12 -16 -21 0
-105 -8 -13 -16 -21 0
-99 -9 -10 -16 -22 0
-102 -9 -11 -16 -22 0
-104 -9 -12 -16 -22 0
-105 -9 -13 -16 -22 0
-102 -10 -11 -16 -23 0
-104 -10 -12 -16 -23 0
-105 -10 -13 -16 -23 0
-104 -11 -12 -16 -24 0
-105 -11 -13 -16 -24 0
-105 -12 -13 -16 -25 0
-77 -5 -6 -17 -18 0
-84 -5 -7 -17 -18 0
-90 -5 -8 -17 -18 0
-95 -5 -9 -17 -18 0
-99 -5 -10 -17 -18 0
-102 -5 -11 -17 -18 0
-104 -5 -12 -17 -18 0
-105 -5 -13 -17 -18 0
-84 -6 -7 -17 -19 0
-90 -6 -8 -17 -19 0
-95 -6 -9 -17 -19 0
-99 -6 -10 -17 -19 0
-102 -6 -11 -17 -19 0
-104 -6 -12 -17 -19 0
-105 -6 -13 -17 -19 0
-90 -7 -8 -17 -20 0
-95 -7 -9 -17 -20 0
-99 -7 -10 -17 -20 0
-102 -7 -11 -17 -20 0
-104 -7 -12 -17 -20 0
-105 -7 -13 -17 -20 0
-95 -8 -9 -17 -21 0
-99 -8 -10 -17 -21 0
-102 -8 -11 -17 -21 0
-104 -8 -12 -17 -21 0
-105 -8 -13 -17 -21 0
-99 -9 -10 -17 -22 0
-102 -9 -11 -17 -22 0
-104 -9 -12 -17 -22 0
-105 -9 -13 -17 -22 0
-102 -10 -11 -17 -23 0
-104 -10 -12 -17 -23 0
-105 -10 -13 -17 -23 0
-104 -11 -12 -17 -24 0
-105 -11 -13 -17 -24 0
-105 -12 -13 -17 -25 0
-84 -6 -7 -18 -19 0
-90 -6 -8 -18 -19 0
-95 -6 -9 -18 -19 0
-99 -6 -10 -18 -19 0
-102 -6 -11 -18 -19 0
-104 -6 -12 -18 -19 0
-105 -6 -13 -18 -19 0
-90 -7 -8 -18 -20 0
-95 -7 -9 -18 -20 0
-99 -7 -10 -18 -20 0
-102 -7 -11 -18 -20 0
-104 -7 -12 -18 -20 0
-105 -7 -13 -18 -20 0
-95 -8 -9 -18 -21 0
-99 -8 -10 -18 -21 0
-102 -8 -11 -18 -21 0
-104 -8 -12 -18 -21 0
-105 -8 -13 -18 -21 0
-99 -9 -10 -18 -22 0
-102 -9 -11 -18 -22 0
-104 -9 -12 -18 -22 0
-105 -9 -13 -18 -22 0
-102 -10 -11 -18 -23 0
-104 -10 -12 -18 -23 0
-105 -10 -13 -18 -23 0
-104 -11 -12 -18 -24 0
-105 -11 -13 -18 -24 0
-105 -12 -13 -18 -25 0
-90 -7 -8 -19 -20 0
-95 -7 -9 -19 -20 0
-99 -7 -10 -19 -20 0
-102 -7 -11 -19 -20 0
-104 -7 -12 -19 -20 0
-105 -7 -13 -19 -20 0
-95 -8 -9 -19 -21 0
-99 -8 -10 -19 -21 0
-102 -8 -11 -19 -21 0
-104 -8 -12 -19 -21 0
-105 -8 -13 -19 -21 0
-99 -9 -10 -19 -22 0
-102 -9 -11 -19 -22 0
-104 -9 -12 -19 -22 0
-105 -9 -13 -19 -22 0
-102 -10 -11 -19 -23 0
-104 -10 -12 -19 -23 0
-105 -10 -13 -19 -23 0
-104 -11 -12 -19 -24 0
-105 -11 -13 -19 -24 0
-105 -12 -13 -19 -25 0
-95 -8 -9 -20 -21 0
-99 -8 -10 -20 -21 0
-102 -8 -11 -20 -21 0
-104 -8 -12 -20 -21 0
-105 -8 -13 -20 -21 0
-99 -9 -10 -20 -22 0
-102 -9 -11 -20 -22 0
-104 -9 -12 -20 -22 0
-105 -9 -13 -20 -22 0
-102 -10 -11 -20 -23 0
-104 -10 -12 -20 -23 0
-105 -10 -13 -20 -23 0
-104 -11 -12 -20 -24 0
-105 -11 -13 -20 -24 0
-105 -12 -13 -20 -25 0
-99 -9 -10 -21 -22 0
-102 -9 -11 -21 -22 0
-104 -9 -12 -21 -22 0
-105 -9 -13 -21 -22 0
-102 -10 -11 -21 -23 0
-104 -10 -12 -21 -23 0
-105 -10 -13 -21 -23 0
-104 -11 -12 -21 -24 0
-105 -11 -13 -21 -24 0
-105 -12 -13 -21 -25 0
-102 -10 -11 -22 -23 0
-104 -10 -12 -22 -23 0
-105 -10 -13 -22 -23 0
-104 -11 -12 -22 -24 0
-105 -11 -13 -22 -24 0
-105 -12 -13 -22 -25 0
-104 -11 -12 -23 -24 0
-105 -11 -13 -23 -24 0
-105 -12 -13 -23 -25 0
-105 -12 -13 -24 -25 0
-69 -4 -5 -28 -29 0
-77 -4 -6 -28 -29 0
-84 -4 -7 -28 -29 0
-90 -4 -8 -28 -29 0
-95 -4 -9 -28 -29 0
-99 -4 -10 -28 -29 0
-102 -4 -11 -28 -29 0
-104 -4 -12 -28 -29 0
-105 -4 -13 -28 -29 0
-77 -5 -6 -28 -30 0
-84 -5 -7 -28 -30 0
-90 -5 -8 -28 -30 0
-95 -5 -9 -28 -30 0
-99 -5 -10 -28 -30 0
-102 -5 -11 -28 -30 0
-104 -5 -12 -28 -30 0
-105 -5 -13 -28 -30 0
-84 -6 -7 -28 -31 0
-90 -6 -8 -28 -31 0
-95 -6 -9 -28 -31 0
-99 -6 -10 -28 -31 0
-102 -6 -11 -28 -31 0
-104 -6 -12 -28 -31 0
-105 -6 -13 -28 -31 0
-90 -7 -8 -28 -32 0
-95 -7 -9 -28 -32 0
-99 -7 -10 -28 -32 0
-102 -7 -11 -28 -32 0
-104 -7 -12 -28 -32 0
-105 -7 -13 -28 -32 0
-95 -8 -9 -28 -33 0
-99 -8 -10 -28 -33 0
-102 -8 -11 -28 -33 0
-104 -8 -12 -28 -33 0
-105 -8 -13 -28 -33 0
-99 -9 -10 -28 -34 0
-102 -9 -11 -28 -34 0
-104 -9 -12 -28 -34 0
-105 -9 -13 -28 -34 0
-102 -10 -11 -28 -35 0
-104 -10 -12 -28 -35 0
-105 -10 -13 -28 -35 0
-104 -11 -12 -28 -36 0
-105 -11 -13 -28 -36 0
-105 -12 -13 -28 -37 0
-77 -5 -6 -29 -30 0
-84 -5 -7 -29 -30 0
-90 -5 -8 -29 -30 0
-95 -5 -9 -29 -30 0
-99 -5 -10 -29 -30 0
-102 -5 -11 -29 -30 0
-104 -5 -12 -29 -30 0
-105 -5 -13 -29 -30 0
-84 -6 -7 -29 -31 0
-90 -6 -8 -29 -31 0
-95 -6 -9 -29 -31 0
-99 -6 -10 -29 -31 0
-102 -6 -11 -29 -31 0
-104 -6 -12 -29 -31 0
-105 -6 -13 -29 -31 0
-90 -7 -8 -29 -32 0
-95 -7 -9 -29 -32 0
-99 -7 -10 -29 -32 0
-102 -7 -11 -29 -32 0
-104 -7 -12 -29 -32 0
-105 -7 -13 -29 -32 0
-95 -8 -9 -29 -33 0
-99 -8 -10 -29 -33 0
-102 -8 -11 -29 -33 0
-104 -8 -12 -29 -33 0
-105 -8 -13 -29 -33 0
-99 -9 -10 -29 -34 0
-102 -9 -11 -29 -34 0
-104 -9 -12 -29 -34 0
-105 -9 -13 -29 -34 0
-102 -10 -11 -29 -35 0
-104 -10 -12 -29 -35 0
-105 -10 -13 -29 -35 0
-104 -11 -12 -29 -36 0
-105 -11 -13 -29 -36 0
-105 -12 -13 -29 -37 0
-84 -6 -7 -30 -31 0
-90 -6 -8 -30 -31 0
-95 -6 -9 -30 -31 0
-99 -6 -10 -30 -31 0
-102 -6 -11 -30 -31 0
-104 -6 -12 -30 -31 0
-105 -6 -13 -30 -31 0
-90 -7 -8 -30 -32 0
-95 -7 -9 -30 -32 0
-99 -7 -10 -30 -32 0
-102 -7 -11 -30 -32 0
-104 -7 -12 -30 -32 0
-105 -7 -13 -30 -32 0
-95 -8 -9 -30 -33 0
-99 -8 -10 -30 -33 0
-102 -8 -11 -30 -33 0
-104 -8 -12 -30 -33 0
-105 -8 -13 -30 -33 0
-99 -9 -10 -30 -34 0
-102 -9 -11 -30 -34 0
-104 -9 -12 -30 -34 0
-105 -9 -13 -30 -34 0
-102 -10 -11 -30 -35 0
-104 -10 -12 -30 -35 0
-105 -10 -13 -30 -35 0
-104 -11 -12 -30 -36 0
-105 -11 -13 -30 -36 0
-105 -12 -13 -30 -37 0
-90 -7 -8 -31 -32 0
-95 -7 -9 -31 -32 0
-99 -7 -10 -31 -32 0
-102 -7 -11 -31 -32 0
-104 -7 -12 -31 -32 0
-105 -7 -13 -31 -32 0
-95 -8 -9 -31 -33 0
-99 -8 -10 -31 -33 0
-102 -8 -11 -31 -33 0
-104 -8 -12 -31 -33 0
-105 -8 -13 -31 -33 0
-99 -9 -10 -31 -34 0
-102 -9 -11 -31 -34 0
-104 -9 -12 -31 -34 0
-105 -9 -13 -31 -34 0
-102 -10 -11 -31 -35 0
-104 -10 -12 -31 -35 0
-105 -10 -13 -31 -35 0
-104 -11 -12 -31 -36 0
-105 -11 -13 -31 -36 0
-105 -12 -13 -31 -37 0
-95 -8 -9 -32 -33 0
-99 -8 -10 -32 -33 0
-102 -8 -11 -32 -33 0
-104 -8 -12 -32 -33 0
-105 -8 -13 -32 -33 0
-99 -9 -10 -32 -34 0
-102 -9 -11 -32 -34 0
-104 -9 -12 -32 -34 0
-105 -9 -13 -32 -34 0
-102 -10 -11 -32 -35 0
-104 -10 -12 -32 -35 0
-105 -10 -13 -32 -35 0
-104 -11 -12 -32 -36 0
-105 -11 -13 -32 -36 0
-105 -12 -13 -32 -37 0
-99 -9 -10 -33 -34 0
-102 -9 -11 -33 -34 0
-104 -9 -12 -33 -34 0
-105 -9 -13 -33 -34 0
-102 -10 -11 -33 -35 0
-104 -10 -12 -33 -35 0
-105 -10 -13 -33 -35 0
-104 -11 -12 -33 -36 0
-105 -11 -13 -33 -36 0
-105 -12 -13 -33 -37 0
-102 -10 -11 -34 -35 0
-104 -10 -12 -34 -35 0
-105 -10 -13 -34 -35 0
-104 -11 -12 -34 -36 0
-105 -11 -13 -34 -36 0
-105 -12 -13 -34 -37 0
-104 -11 -12 -35 -36 0
-105 -11 -13 -35 -36 0
-105 -12 -13 -35 -37 0
-105 -12 -13 -36 -37 0
-77 -5 -6 -40 -41 0
-84 -5 -7 -40 -41 0
-90 -5 -8 -40 -41 0
-95 -5 -9 -40 -41 0
-99 -5 -10 -40 -41 0
-102 -5 -11 -40 -41 0
-104 -5 -12 -40 -41 0
-105 -5 -13 -40 -41 0
-84 -6 -7 -40 -42 0
-90 -6 -8 -40 -42 0
-95 -6 -9 -40 -42 0
-99 -6 -10 -40 -42 0
-102 -6 -11 -40 -42 0
-104 -6 -12 -40 -42 0
-105 -6 -13 -40 -42 0
-90 -7 -8 -40 -43 0
-95 -7 -9 -40 -43 0
-99 -7 -10 -40 -43 0
-102 -7 -11 -40 -43 0
-104 -7 -12 -40 -43 0
-105 -7 -13 -40 -43 0
-95 -8 -9 -40 -44 0
-99 -8 -10 -40 -44 0
-102 -8 -11 -40 -44 0
-104 -8 -12 -40 -44 0
-105 -8 -13 -40 -44 0
-99 -9 -10 -40 -45 0
-102 -9 -11 -40 -45 0
-104 -9 -12 -40 -45 0
-105 -9 -13 -40 -45 0
-102 -10 -11 -40 -46 0
-104 -10 -12 -40 -46 0
-105 -10 -13 -40 -46 0
-104 -11 -12 -40 -47 0
-105 -11 -13 -40 -47 0
-105 -12 -13 -40 -48 0
-84 -6 -7 -41 -42 0
-90 -6 -8 -41 -42 0
-95 -6 -9 -41 -42 0
-99 -6 -10 -41 -42 0
-102 -6 -11 -41 -42 0
-104 -6 -12 -41 -42 0
-105 -6 -13 -41 -42 0
-90 -7 -8 -41 -43 0
-95 -7 -9 -41 -43 0
-99 -7 -10 -41 -43 0
-102 -7 -11 -41 -43 0
-104 -7 -12 -41 -43 0
-105 -7 -13 -41 -43 0
-95 -8 -9 -41 -44 0
-99 -8 -10 -41 -44 0
-102 -8 -11 -41 -44 0
-104 -8 -12 -41 -44 0
-105 -8 -13 -41 -44 0
-99 -9 -10 -41 -45 0
-102 -9 -11 -41 -45 0
-104 -9 -12 -41 -45 0
-105 -9 -13 -41 -45 0
-102 -10 -11 -41 -46 0
-104 -10 -12 -41 -46 0
-105 -10 -13 -41 -46 0
-104 -11 -12 -41 -47 0
-105 -11 -13 -41 -47 0
-105 -12 -13 -41 -48 0
-90 -7 -8 -42 -43 0
-95 -7 -9 -42 -43 0
-99 -7 -10 -42 -43 0
-102 -7 -11 -42 -43 0
-104 -7 -12 -42 -43 0
-105 -7 -13 -42 -43 0
-95 -8 -9 -42 -44 0
-99 -8 -10 -42 -44 0
-102 -8 -11 -42 -44 0
-104 -8 -12 -42 -44 0
-105 -8 -13 -42 -44 0
-99 -9 -10 -42 -45 0
-102 -9 -11 -42 -45 0
-104 -9 -12 -42 -45 0
-105 -9 -13 -42 -45 0
-102 -10 -11 -42 -46 0
-104 -10 -12 -42 -46 0
-105 -10 -13 -42 -46 0
-104 -11 -12 -42 -47 0
-105 -11 -13 -42 -47 0
-105 -12 -13 -42 -48 0
-95 -8 -9 -43 -44 0
-99 -8 -10 -43 -44 0
-102 -8 -11 -43 -44 0
-104 -8 -12 -43 -44 0
-105 -8 -13 -43 -44 0
-99 -9 -10 -43 -45 0
-102 -9 -11 -43 -45 0
-104 -9 -12 -43 -45 0
-105 -9 -13 -43 -45 0
-102 -10 -11 -43 -46 0
-104 -10 -12 -43 -46 0
-105 -10 -13 -43 -46 0
-104 -11 -12 -43 -47 0
-105 -11 -13 -43 -47 0
-105 -12 -13 -43 -48 0
-99 -9 -10 -44 -45 0
-102 -9 -11 -44 -45 0
-104 -9 -12 -44 -45 0
-105 -9 -13 -44 -45 0
-102 -10 -11 -44 -46 0
-104 -10 -12 -44 -46 0
-105 -10 -13 -44 -46 0
-104 -11 -12 -44 -47 0
-105 -11 -13 -44 -47 0
-105 -12 -13 -44 -48 0
-102 -10 -11 -45 -46 0
-104 -10 -12 -45 -46 0
-105 -10 -13 -45 -46 0
-104 -11 -12 -45 -47 0
-105 -11 -13 -45 -47 0
-105 -12 -13 -45 -48 0
-104 -11 -12 -46 -47 0
-105 -11 -13 -46 -47 0
-105 -12 -13 -46 -48 0
-105 -12 -13 -47 -48 0
-84 -6 -7 -51 -52 0
-90 -6 -8 -51 -52 0
-95 -6 -9 -51 -52 0
-99 -6 -10 -51 -52 0
-102 -6 -11 -51 -52 0
-104 -6 -12 -51 -52 0
-105 -6 -13 -51 -52 0
-90 -7 -8 -51 -53 0
-95 -7 -9 -51 -53 0
-99 -7 -10 -51 -53 0
-102 -7 -11 -51 -53 0
-104 -7 -12 -51 -53 0
-105 -7 -13 -51 -53 0
-95 -8 -9 -51 -54 0
-99 -8 -10 -51 -54 0
-102 -8 -11 -51 -54 0
-104 -8 -12 -51 -54 0
-105 -8 -13 -51 -54 0
-99 -9 -10 -51 -55 0
-102 -9 -11 -51 -55 0
-104 -9 -12 -51 -55 0
-105 -9 -13 -51 -55 0
-102 -10 -11 -51 -56 0
-104 -10 -12 -51 -56 0
-105 -10 -13 -51 -56 0
-104 -11 -12 -51 -57 0
-105 -11 -13 -51 -57 0
-105 -12 -13 -51 -58 0
-90 -7 -8 -52 -53 0
-95 -7 -9 -52 -53 0
-99 -7 -10 -52 -53 0
-102 -7 -11 -52 -53 0
-104 -7 -12 -52 -53 0
-105 -7 -13 -52 -53 0
-95 -8 -9 -52 -54 0
-99 -8 -10 -52 -54 0
-102 -8 -11 -52 -54 0
-104 -8 -12 -52 -54 0
-105 -8 -13 -52 -54 0
-99 -9 -10 -52 -55 0
-102 -9 -11 -52 -55 0
-104 -9 -12 -52 -55 0
-105 -9 -13 -52 -55 0
-102 -10 -11 -52 -56 0
-104 -10 -12 -52 -56 0
-105 -10 -13 -52 -56 0
-104 -11 -12 -52 -57 0
-105 -11 -13 -52 -57 0
-105 -12 -13 -52 -58 0
-95 -8 -9 -53 -54 0
-99 -8 -10 -53 -54 0
-102 -8 -11 -53 -54 0
-104 -8 -12 -53 -54 0
-105 -8 -13 -53 -54 0
-99 -9 -10 -53 -55 0
-102 -9 -11 -53 -55 0
-104 -9 -12 -53 -55 0
-105 -9 -13 -53 -55 0
-102 -10 -11 -53 -56 0
-104 -10 -12 -53 -56 0
-105 -10 -13 -53 -56 0
-104 -11 -12 -53 -57 0
-105 -11 -13 -53 -57 0
-105 -12 -13 -53 -58 0
-99 -9 -10 -54 -55 0
-102 -9 -11 -54 -55 0
-104 -9 -12 -54 -55 0
-105 -9 -13 -54 -55 0
-102 -10 -11 -54 -56 0
-104 -10 -12 -54 -56 0
-105 -10 -13 -54 -56 0
-104 -11 -12 -54 -57 0
-105 -11 -13 -54 -57 0
-105 -12 -13 -54 -58 0
-102 -10 -11 -55 -56 0
-104 -10 -12 -55 -56 0
-105 -10 -13 -55 -56 0
-104 -11 -12 -55 -57 0
-105 -11 -13 -55 -57 0
-105 -12 -13 -55 -58 0
-104 -11 -12 -56 -57 0
-105 -11 -13 -56 -57 0
-105 -12 -13 -56 -58 0
-105 -12 -13 -57 -58 0
-90 -7 -8 -61 -62 0
-95 -7 -9 -61 -62 0
-99 -7 -10 -61 -62 0
-102 -7 -11 -61 -62 0
-104 -7 -12 -61 -62 0
-105 -7 -13 -61 -62 0
-95 -8 -9 -61 -63 0
-99 -8 -10 -61 -63 0
-102 -8 -11 -61 -63 0
-104 -8 -12 -61 -63 0
-105 -8 -13 -61 -63 0
-99 -9 -10 -61 -64 0
-102 -9 -11 -61 -64 0
-104 -9 -12 -61 -64 0
-105 -9 -13 -61 -64 0
-102 -10 -11 -61 -65 0
-104 -10 -12 -61 -65 0
-105 -10 -13 -61 -65 0
-104 -11 -12 -61 -66 0
-105 -11 -13 -61 -66 0
-105 -12 -13 -61 -67 0
-95 -8 -9 -62 -63 0
-99 -8 -10 -62 -63 0
-102 -8 -11 -62 -63 0
-104 -8 -12 -62 -63 0
-105 -8 -13 -62 -63 0
-99 -9 -10 -62 -64 0
-102 -9 -11 -62 -64 0
-104 -9 -12 -62 -64 0
-105 -9 -13 -62 -64 0
-102 -10 -11 -62 -65 0
-104 -10 -12 -62 -65 0
-105 -10 -13 -62 -65 0
-104 -11 -12 -62 -66 0
-105 -11 -13 -62 -66 0
-105 -12 -13 -62 -67 0
-99 -9 -10 -63 -64 0
-102 -9 -11 -63 -64 0
-104 -9 -12 -63 -64 0
-105 -9 -13 -63 -64 0
-102 -10 -11 -63 -65 0
-104 -10 -12 -63 -65 0
-105 -10 -13 -63 -65 0
-104 -11 -12 -63 -66 0
-105 -11 -13 -63 -66 0
-105 -12 -13 -63 -67 0
-102 -10 -11 -64 -65 0
-104 -10 -12 -64 -65 0
-105 -10 -13 -64 -65 0
-104 -11 -12 -64 -66 0
-105 -11 -13 -64 -66 0
-105 -12 -13 -64 -67 0
-104 -11 -12 -65 -66 0
-105 -11 -13 -65 -66 0
-105 -12 -13 -65 -67 0
-105 -12 -13 -66 -67 0
-95 -8 -9 -70 -71 0
-99 -8 -10 -70 -71 0
-102 -8 -11 -70 -71 0
-104 -8 -12 -70 -71 0
-105 -8 -13 -70 -71 0
-99 -9 -10 -70 -72 0
-102 -9 -11 -70 -72 0
-104 -9 -12 -70 -72 0
-105 -9 -13 -70 -72 0
-102 -10 -11 -70 -73 0
-104 -10 -12 -70 -73 0
-105 -10 -13 -70 -73 0
-104 -11 -12 -70 -74 0
-105 -11 -13 -70 -74 0
-105 -12 -13 -70 -75 0
-99 -9 -10 -71 -72 0
-102 -9 -11 -71 -72 0
-104 -9 -12 -71 -72 0
-105 -9 -13 -71 -72 0
-102 -10 -11 -71 -73 0
-104 -10 -12 -71 -73 0
-105 -10 -13 -71 -73 0
-104 -11 -12 -71 -74 0
-105 -11 -13 -71 -74 0
-105 -12 -13 -71 -75 0
-102 -10 -11 -72 -73 0
-104 -10 -12 -72 -73 0
-105 -10 -13 -72 -73 0
-104 -11 -12 -72 -74 0
-105 -11 -13 -72 -74 0
-105 -12 -13 -72 -75 0
-104 -11 -12 -73 -74 0
-105 -11 -13 -73 -74 0
-105 -12 -13 -73 -75 0
-105 -12 -13 -74 -75 0
-99 -9 -10 -78 -79 0
-102 -9 -11 -78 -79 0
-104 -9 -12 -78 -79 0
-105 -9 -13 -78 -79 0
-102 -10 -11 -78 -80 0
-104 -10 -12 -78 -80 0
-105 -10 -13 -78 -80 0
-104 -11 -12 -78 -81 0
-105 -11 -13 -78 -81 0
-105 -12 -13 -78 -82 0
-102 -10 -11 -79 -80 0
-104 -10 -12 -79 -80 0
-105 -10 -13 -79 -80 0
-104 -11 -12 -79 -81 0
-105 -11 -13 -79 -81 0
-105 -12 -13 -79 -82 0
-104 -11 -12 -80 -81 0
-105 -11 -13 -80 -81 0
-105 -12 -13 -80 -82 0
-105 -12 -13 -81 -82 0
-102 -10 -11 -85 -86 0
-104 -10 -12 -85 -86 0
-105 -10 -13 -85 -86 0
-104 -11 -12 -85 -87 0
-105 -11 -13 -85 -87 0
-105 -12 -13 -85 -88 0
-104 -11 -12 -86 -87 0
-105 -11 -13 -86 -87 0
-105 -12 -13 -86 -88 0
-105 -12 -13 -87 -88 0
-104 -11 -12 -91 -92 0
-105 -11 -13 -91 -92 0
-105 -12 -13 -91 -93 0
-105 -12 -13 -92 -93 0
-105 -12 -13 -96 -97 0
-69 -17 -18 -28 -29 0
-77 -17 -19 -28 -29 0
-84 -17 -20 -28 -29 0
-90 -17 -21 -28 -29 0
-95 -17 -22 -28 -29 0
-99 -17 -23 -28 -29 0
-102 -17 -24 -28 -29 0
-104 -17 -25 -28 -29 0
-105 -17 -26 -28 -29 0
-77 -18 -19 -28 -30 0
-84 -18 -20 -28 -30 0
-90 -18 -21 -28 -30 0
-95 -18 -22 -28 -30 0
-99 -18 -23 -28 -30 0
-102 -18 -24 -28 -30 0
-104 -18 -25 -28 -30 0
-105 -18 -26 -28 -30 0
-84 -19 -20 -28 -31 0
-90 -19 -21 -28 -31 0
-95 -19 -22 -28 -31 0
-99 -19 -23 -28 -31 0
-102 -19 -24 -28 -31 0
-104 -19 -25 -28 -31 0
-105 -19 -26 -28 -31 0
-90 -20 -21 -28 -32 0
-95 -20 -22 -28 -32 0
-99 -20 -23 -28 -32 0
-102 -20 -24 -28 -32 0
-104 -20 -25 -28 -32 0
-105 -20 -26 -28 -32 0
-95 -21 -22 -28 -33 0
-99 -21 -23 -28 -33 0
-102 -21 -24 -28 -33 0
-104 -21 -25 -28 -33 0
-105 -21 -26 -28 -33 0
-99 -22 -23 -28 -34 0
-102 -22 -24 -28 -34 0
-104 -22 -25 -28 -34 0
-105 -22 -26 -28 -34 0
-102 -23 -24 -28 -35 0
-104 -23 -25 -28 -35 0
-105 -23 -26 -28 -35 0
-104 -24 -25 -28 -36 0
-105 -24 -26 -28 -36 0
-105 -25 -26 -28 -37 0
-77 -18 -19 -29 -30 0
-84 -18 -20 -29 -30 0
-90 -18 -21 -29 -30 0
-95 -18 -22 -29 -30 0
-99 -18 -23 -29 -30 0
-102 -18 -24 -29 -30 0
-104 -18 -25 -29 -30 0
-105 -18 -26 -29 -30 0
-84 -19 -20 -29 -31 0
-90 -19 -21 -29 -31 0
-95 -19 -22 -29 -31 0
-99 -19 -23 -29 -31 0
-102 -19 -24 -29 -31 0
-104 -19 -25 -29 -31 0
-105 -19 -26 -29 -31 0
-90 -20 -21 -29 -32 0
-95 -20 -22 -29 -32 0
-99 -20 -23 -29 -32 0
-102 -20 -24 -29 -32 0
-104 -20 -25 -29 -32 0
-105 -20 -26 -29 -32 0
-95 -21 -22 -29 -33 0
-99 -21 -23 -29 -33 0
-102 -21 -24 -29 -33 0
-104 -21 -25 -29 -33 0
-105 -21 -26 -29 -33 0
-99 -22 -23 -29 -34 0
-102 -22 -24 -29 -34 0
-104 -22 -25 -29 -34 0
-105 -22 -26 -29 -34 0
-102 -23 -24 -29 -35 0
-104 -23 -25 -29 -35 0
-105 -23 -26 -29 -35 0
-104 -24 -25 -29 -36 0
-105 -24 -26 -29 -36 0
-105 -25 -26 -29 -37 0
-84 -19 -20 -30 -31 0
-90 -19 -21 -30 -31 0
-95 -19 -22 -30 -31 0
-99 -19 -23 -30 -31 0
-102 -19 -24 -30 -31 0
-104 -19 -25 -30 -31 0
-105 -19 -26 -30 -31 0
-90 -20 -21 -30 -32 0
-95 -20 -22 -30 -32 0
-99 -20 -23 -30 -32 0
-102 -20 -24 -30 -32 0
-104 -20 -25 -30 -32 0
-105 -20 -26 -30 -32 0
-95 -21 -22 -30 -33 0
-99 -21 -23 -30 -33 0
-102 -21 -24 -30 -33 0
-104 -21 -25 -30 -33 0
-105 -21 -26 -30 -33 0
-99 -22 -23 -30 -34 0
-102 -22 -24 -30 -34 0
-104 -22 -25 -30 -34 0
-105 -22 -26 -30 -34 0
-102 -23 -24 -30 -35 0
-104 -23 -25 -30 -35 0
-105 -23 -26 -30 -35 0
-104 -24 -25 -30 -36 0
-105 -24 -26 -30 -36 0
-105 -25 -26 -30 -37 0
-90 -20 -21 -31 -32 0
-95 -20 -22 -31 -32 0
-99 -20 -23 -31 -32 0
-102 -20 -24 -31 -32 0
-104 -20 -25 -31 -32 0
-105 -20 -26 -31 -32 0
-95 -21 -22 -31 -33 0
-99 -21 -23 -31 -33 0
-102 -21 -24 -31 -33 0
-104 -21 -25 -31 -33 0
-105 -21 -26 -31 -33 0
-99 -22 -23 -31 -34 0
-102 -22 -24 -31 -34 0
-104 -22 -25 -31 -34 0
-105 -22 -26 -31 -34 0
-102 -23 -24 -31 -35 0
-104 -23 -25 -31 -35 0
-105 -23 -26 -31 -35 0
-104 -24 -25 -31 -36 0
-105 -24 -26 -31 -36 0
-105 -25 -26 -31 -37 0
-95 -21 -22 -32 -33 0
-99 -21 -23 -32 -33 0
-102 -21 -24 -32 -33 0
-104 -21 -25 -32 -33 0
-105 -21 -26 -32 -33 0
-99 -22 -23 -32 -34 0
-102 -22 -24 -32 -34 0
-104 -22 -25 -32 -34 0
-105 -22 -26 -32 -34 0
-102 -23 -24 -32 -35 0
-104 -23 -25 -32 -35 0
-105 -23 -26 -32 -35 0
-104 -24 -25 -32 -36 0
-105 -24 -26 -32 -36 0
-105 -25 -26 -32 -37 0
-99 -22 -23 -33 -34 0
-102 -22 -24 -33 -34 0
-104 -22 -25 -33 -34 0
-105 -22 -26 -33 -34 0
-102 -23 -24 -33 -35 0
-104 -23 -25 -33 -35 0
-105 -23 -26 -33 -35 0
-104 -24 -25 -33 -36 0
-105 -24 -26 -33 -36 0
-105 -25 -26 -33 -37 0
-102 -23 -24 -34 -35 0
-104 -23 -25 -34 -35 0
-105 -23 -26 -34 -35 0
-104 -24 -25 -34 -36 0
-105 -24 -26 -34 -36 0
-105 -25 -26 -34 -37 0
-104 -24 -25 -35 -36 0
-105 -24 -26 -35 -36 0
-105 -25 -26 -35 -37 0
-105 -25 -26 -36 -37 0
-77 -18 -19 -40 -41 0
-84 -18 -20 -40 -41 0
-90 -18 -21 -40 -41 0
-95 -18 -22 -40 -41 0
-99 -18 -23 -40 -41 0
-102 -18 -24 -40 -41 0
-104 -18 -25 -40 -41 0
-105 -18 -26 -40 -41 0
-84 -19 -20 -40 -42 0
-90 -19 -21 -40 -42 0
-95 -19 -22 -40 -42 0
-99 -19 -23 -40 -42 0
-102 -19 -24 -40 -42 0
-104 -19 -25 -40 -42 0
-105 -19 -26 -40 -42 0
-90 -20 -21 -40 -43 0
-95 -20 -22 -40 -43 0
-99 -20 -23 -40 -43 0
-102 -20 -24 -40 -43 0
-104 -20 -25 -40 -43 0
-105 -20 -26 -40 -43 0
-95 -21 -22 -40 -44 0
-99 -21 -23 -40 -44 0
-102 -21 -24 -40 -44 0
-104 -21 -25 -40 -44 0
-105 -21 -26 -40 -44 0
-99 -22 -23 -40 -45 0
-102 -22 -24 -40 -45 0
-104 -22 -25 -40 -45 0
-105 -22 -26 -40 -45 0
-102 -23 -24 -40 -46 0
-104 -23 -25 -40 -46 0
-105 -23 -26 -40 -46 0
-104 -24 -25 -40 -47 0
-105 -24 -26 -40 -47 0
-105 -25 -26 -40 -48 0
-84 -19 -20 -41 -42 0
-90 -19 -21 -41 -42 0
-95 -19 -22 -41 -42 0
-99 -19 -23 -41 -42 0
-102 -19 -24 -41 -42 0
-104 -19 -25 -41 -42 0
-105 -19 -26 -41 -42 0
-90 -20 -21 -41 -43 0
-95 -20 -22 -41 -43 0
-99 -20 -23 -41 -43 0
-102 -20 -24 -41 -43 0
-104 -20 -25 -41 -43 0
-105 -20 -26 -41 -43 0
-95 -21 -22 -41 -44 0
-99 -21 -23 -41 -44 0
-102 -21 -24 -41 -44 0
-104 -21 -25 -41 -44 0
-105 -21 -26 -41 -44 0
-99 -22 -23 -41 -45 0
-102 -22 -24 -41 -45 0
-104 -22 -25 -41 -45 0
-105 -22 -26 -41 -45 0
-102 -23 -24 -41 -46 0
-104 -23 -25 -41 -46 0
-105 -23 -26 -41 -46 0
-104 -24 -25 -41 -47 0
-105 -24 -26 -41 -47 0
-105 -25 -26 -41 -48 0
-90 -20 -21 -42 -43 0
-95 -20 -22 -42 -43 0
-99 -20 -23 -42 -43 0
-102 -20 -24 -42 -43 0
-104 -20 -25 -42 -43 0
-105 -20 -26 -42 -43 0
-95 -21 -22 -42 -44 0
-99 -21 -23 -42 -44 0
-102 -21 -24 -42 -44 0
-104 -21 -25 -42 -44 0
-105 -21 -26 -42 -44 0
-99 -22 -23 -42 -45 0
-102 -22 -24 -42 -45 0
-104 -22 -25 -42 -45 0
-105 -22 -26 -42 -45 0
-102 -23 -24 -42 -46 0
-104 -23 -25 -42 -46 0
-105 -23 -26 -42 -46 0
-104 -24 -25 -42 -47 0
-105 -24 -26 -42 -47 0
-105 -25 -26 -42 -48 0
-95 -21 -22 -43 -44 0
-99 -21 -23 -43 -44 0
-102 -21 -24 -43 -44 0
-104 -21 -25 -43 -44 0
-105 -21 -26 -43 -44 0
-99 -22 -23 -43 -45 0
-102 -22 -24 -43 -45 0
-104 -22 -25 -43 -45 0
-105 -22 -26 -43 -45 0
-102 -23 -24 -43 -46 0
-104 -23 -25 -43 -46 0
-105 -23 -26 -43 -46 0
-104 -24 -25 -43 -47 0
-105 -24 -26 -43 -47 0
-105 -25 -26 -43 -48 0
-99 -22 -23 -44 -45 0
-102 -22 -24 -44 -45 0
-104 -22 -25 -44 -45 0
-105 -22 -26 -44 -45 0
-102 -23 -24 -44 -46 0
-104 -23 -25 -44 -46 0
-105 -23 -26 -44 -46 0
-104 -24 -25 -44 -47 0
-105 -24 -26 -44 -47 0
-105 -25 -26 -44 -48 0
-102 -23 -24 -45 -46 0
-104 -23 -25 -45 -46 0
-105 -23 -26 -45 -46 0
-104 -24 -25 -45 -47 0
-105 -24 -26 -45 -47 0
-105 -25 -26 -45 -48 0
-104 -24 -25 -46 -47 0
-105 -24 -26 -46 -47 0
-105 -25 -26 -46 -48 0
-105 -25 -26 -47 -48 0
-84 -19 -20 -51 -52 0
-90 -19 -21 -51 -52 0
-95 -19 -22 -51 -52 0
-99 -19 -23 -51 -52 0
-102 -19 -24 -51 -52 0
-104 -19 -25 -51 -52 0
-105 -19 -26 -51 -52 0
-90 -20 -21 -51 -53 0
-95 -20 -22 -51 -53 0
-99 -20 -23 -51 -53 0
-102 -20 -24 -51 -53 0
-104 -20 -25 -51 -53 0
-105 -20 -26 -51 -53 0
-95 -21 -22 -51 -54 0
-99 -21 -23 -51 -54 0
-102 -21 -24 -51 -54 0
-104 -21 -25 -51 -54 0
-105 -21 -26 -51 -54 0
-99 -22 -23 -51 -55 0
-102 -22 -24 -51 -55 0
-104 -22 -25 -51 -55 0
-105 -22 -26 -51 -55 0
-102 -23 -24 -51 -56 0
-104 -23 -25 -51 -56 0
-105 -23 -26 -51 -56 0
-104 -24 -25 -51 -57 0
-105 -24 -26 -51 -57 0
-105 -25 -26 -51 -58 0
-90 -20 -21 -52 -53 0
-95 -20 -22 -52 -53 0
-99 -20 -23 -52 -53 0
-102 -20 -24 -52 -53 0
-104 -20 -25 -52 -53 0
-105 -20 -26 -52 -53 0
-95 -21 -22 -52 -54 0
-99 -21 -23 -52 -54 0
-102 -21 -24 -52 -54 0
-104 -21 -25 -52 -54 0
-105 -21 -26 -52 -54 0
-99 -22 -23 -52 -55 0
-102 -22 -24 -52 -55 0
-104 -22 -25 -52 -55 0
-105 -22 -26 -52 -55 0
-102 -23 -24 -52 -56 0
-104 -23 -25 -52 -56 0
-105 -23 -26 -52 -56 0
-104 -24 -25 -52 -57 0
-105 -24 -26 -52 -57 0
-105 -25 -26 -52 -58 0
-95 -21 -22 -53 -54 0
-99 -21 -23 -53 -54 0
-102 -21 -24 -53 -54 0
-104 -21 -25 -53 -54 0
-105 -21 -26 -53 -54 0
-99 -22 -23 -53 -55 0
-102 -22 -24 -53 -55 0
-104 -22 -25 -53 -55 0
-105 -22 -26 -53 -55 0
-102 -23 -24 -53 -56 0
-104 -23 -25 -53 -56 0
-105 -23 -26 -53 -56 0
-104 -24 -25 -53 -57 0
-105 -24 -26 -53 -57 0
-105 -25 -26 -53 -58 0
-99 -22 -23 -54 -55 0
-102 -22 -24 -54 -55 0
-104 -22 -25 -54 -55 0
-105 -22 -26 -54 -55 0
-102 -23 -24 -54 -56 0
-104 -23 -25 -54 -56 0
-105 -23 -26 -54 -56 0
-104 -24 -25 -54 -57 0
-105 -24 -26 -54 -57 0
-105 -25 -26 -54 -58 0
-102 -23 -24 -55 -56 0
-104 -23 -25 -55 -56 0
-105 -23 -26 -55 -56 0
-104 -24 -25 -55 -57 0
-105 -24 -26 -55 -57 0
-105 -25 -26 -55 -58 0
-104 -24 -25 -56 -57 0
-105 -24 -26 -56 -57 0
-105 -25 -26 -56 -58 0
-105 -25 -26 -57 -58 0
-90 -20 -21 -61 -62 0
-95 -20 -22 -61 -62 0
-99 -20 -23 -61 -62 0
-102 -20 -24 -61 -62 0
-104 -20 -25 -61 -62 0
-105 -20 -26 -61 -62 0
-95 -21 -22 -61 -63 0
-99 -21 -23 -61 -63 0
-102 -21 -24 -61 -63 0
-104 -21 -25 -61 -63 0
-105 -21 -26 -61 -63 0
-99 -22 -23 -61 -64 0
-102 -22 -24 -61 -64 0
-104 -22 -25 -61 -64 0
-105 -22 -26 -61 -64 0
-102 -23 -24 -61 -65 0
-104 -23 -25 -61 -65 0
-105 -23 -26 -61 -65 0
-104 -24 -25 -61 -66 0
-105 -24 -26 -61 -66 0
-105 -25 -26 -61 -67 0
-95 -21 -22 -62 -63 0
-99 -21 -23 -62 -63 0
-102 -21 -24 -62 -63 0
-104 -21 -25 -62 -63 0
-105 -21 -26 -62 -63 0
-99 -22 -23 -62 -64 0
-102 -22 -24 -62 -64 0
-104 -22 -25 -62 -64 0
-105 -22 -26 -62 -64 0
-102 -23 -24 -62 -65 0
-104 -23 -25 -62 -65 0
-105 -23 -26 -62 -65 0
-104 -24 -25 -62 -66 0
-105 -24 -26 -62 -66 0
-105 -25 -26 -62 -67 0
-99 -22 -23 -63 -64 0
-102 -22 -24 -63 -64 0
-104 -22 -25 -63 -64 0
-105 -22 -26 -63 -64 0
-102 -23 -24 -63 -65 0
-104 -23 -25 -63 -65 0
-105 -23 -26 -63 -65 0
-104 -24 -25 -63 -66 0
-105 -24 -26 -63 -66 0
-105 -25 -26 -63 -67 0
-102 -23 -24 -64 -65 0
-104 -23 -25 -64 -65 0
-105 -23 -26 -64 -65 0
-104 -24 -25 -64 -66 0
-105 -24 -26 -64 -66 0
-105 -25 -26 -64 -67 0
-104 -24 -25 -65 -66 0
-105 -24 -26 -65 -66 0
-105 -25 -26 -65 -67 0
-105 -25 -26 -66 -67 0
-95 -21 -22 -70 -71 0
-99 -21 -23 -70 -71 0
-102 -21 -24 -70 -71 0
-104 -21 -25 -70 -71 0
-105 -21 -26 -70 -71 0
-99 -22 -23 -70 -72 0
-102 -22 -24 -70 -72 0
-104 -22 -25 -70 -72 0
-105 -22 -26 -70 -72 0
-102 -23 -24 -70 -73 0
-104 -23 -25 -70 -73 0
-105 -23 -26 -70 -73 0
-104 -24 -25 -70 -74 0
-105 -24 -26 -70 -74 0
-105 -25 -26 -70 -75 0
-99 -22 -23 -71 -72 0
-102 -22 -24 -71 -72 0
-104 -22 -25 -71 -72 0
-105 -22 -26 -71 -72 0
-102 -23 -24 -71 -73 0
-104 -23 -25 -71 -73 0
-105 -23 -26 -71 -73 0
-104 -24 -25 -71 -74 0
-105 -24 -26 -71 -74 0
-105 -25 -26 -71 -75 0
-102 -23 -24 -72 -73 0
-104 -23 -25 -72 -73 0
-105 -23 -26 -72 -73 0
-104 -24 -25 -72 -74 0
-105 -24 -26 -72 -74 0
-105 -25 -26 -72 -75 0
-104 -24 -25 -73 -74 0
-105 -24 -26 -73 -74 0
-105 -25 -26 -73 -75 0
-105 -25 -26 -74 -75 0
-99 -22 -23 -78 -79 0
-102 -22 -24 -78 -79 0
-104 -22 -25 -78 -79 0
-105 -22 -26 -78 -79 0
-102 -23 -24 -78 -80 0
-104 -23 -25 -78 -80 0
-105 -23 -26 -78 -80 0
-104 -24 -25 -78 -81 0
-105 -24 -26 -78 -81 0
-105 -25 -26 -78 -82 0
-102 -23 -24 -79 -80 0
-104 -23 -25 -79 -80 0
-105 -23 -26 -79 -80 0
-104 -24 -25 -79 -81 0
-105 -24 -26 -79 -81 0
-105 -25 -26 -79 -82 0
-104 -24 -25 -80 -81 0
-105 -24 -26 -80 -81 0
-105 -25 -26 -80 -82 0
-105 -25 -26 -81 -82 0
-102 -23 -24 -85 -86 0
-104 -23 -25 -85 -86 0
-105 -23 -26 -85 -86 0
-104 -24 -25 -85 -87 0
-105 -24 -26 -85 -87 0
-105 -25 -26 -85 -88 0
-104 -24 -25 -86 -87 0
-105 -24 -26 -86 -87 0
-105 -25 -26 -86 -88 0
-105 -25 -26 -87 -88 0
-104 -24 -25 -91 -92 0
-105 -24 -26 -91 -92 0
-105 -25 -26 -91 -93 0
-105 -25 -26 -92 -93 0
-105 -25 -26 -96 -97 0
-77 -30 -31 -40 -41 0
-84 -30 -32 -40 -41 0
-90 -30 -33 -40 -41 0
-95 -30 -34 -40 -41 0
-99 -30 -35 -40 -41 0
-102 -30 -36 -40 -41 0
-104 -30 -37 -40 -41 0
-105 -30 -38 -40 -41 0
-84 -31 -32 -40 -42 0
-90 -31 -33 -40 -42 0
-95 -31 -34 -40 -42 0
-99 -31 -35 -40 -42 0
-102 -31 -36 -40 -42 0
-104 -31 -37 -40 -42 0
-105 -31 -38 -40 -42 0
-90 -32 -33 -40 -43 0
-95 -32 -34 -40 -43 0
-99 -32 -35 -40 -43 0
-102 -32 -36 -40 -43 0
-104 -32 -37 -40 -43 0
-105 -32 -38 -40 -43 0
-95 -33 -34 -40 -44 0
-99 -33 -35 -40 -44 0
-102 -33 -36 -40 -44 0
-104 -33 -37 -40 -44 0
-105 -33 -38 -40 -44 0
-99 -34 -35 -40 -45 0
-102 -34 -36 -40 -45 0
-104 -34 -37 -40 -45 0
-105 -34 -38 -40 -45 0
-102 -35 -36 -40 -46 0
-104 -35 -37 -40 -46 0
-105 -35 -38 -40 -46 0
-104 -36 -37 -40 -47 0
-105 -36 -38 -40 -47 0
-105 -37 -38 -40 -48 0
-84 -31 -32 -41 -42 0
-90 -31 -33 -41 -42 0
-95 -31 -34 -41 -42 0
-99 -31 -35 -41 -42 0
-102 -31 -36 -41 -42 0
-104 -31 -37 -41 -42 0
-105 -31 -38 -41 -42 0
-90 -32 -33 -41 -43 0
-95 -32 -34 -41 -43 0
-99 -32 -35 -41 -43 0
-102 -32 -36 -41 -43 0
-104 -32 -37 -41 -43 0
-105 -32 -38 -41 -43 0
-95 -33 -34 -41 -44 0
-99 -33 -35 -41 -44 0
-102 -33 -36 -41 -44 0
-104 -33 -37 -41 -44 0
-105 -33 -38 -41 -44 0
-99 -34 -35 -41 -45 0
-102 -34 -36 -41 -45 0
-104 -34 -37 -41 -45 0
-105 -34 -38 -41 -45 0
-102 -35 -36 -41 -46 0
-104 -35 -37 -41 -46 0
-105 -35 -38 -41 -46 0
-104 -36 -37 -41 -47 0
-105 -36 -38 -41 -47 0
-105 -37 -38 -41 -48 0
-90 -32 -33 -42 -43 0
-95 -32 -34 -42 -43 0
-99 -32 -35 -42 -43 0
-102 -32 -36 -42 -43 0
-104 -32 -37 -42 -43 0
-105 -32 -38 -42 -43 0
-95 -33 -34 -42 -44 0
-99 -33 -35 -42 -44 0
-102 -33 -36 -42 -44 0
-104 -33 -37 -42 -44 0
-105 -33 -38 -42 -44 0
-99 -34 -35 -42 -45 0
-102 -34 -36 -42 -45 0
-104 -34 -37 -42 -45 0
-105 -34 -38 -42 -45 0
-102 -35 -36 -42 -46 0
-104 -35 -37 -42 -46 0
-105 -35 -38 -42 -46 0
-104 -36 -37 -42 -47 0
-105 -36 -38 -42 -47 0
-105 -37 -38 -42 -48 0
-95 -33 -34 -43 -44 0
-99 -33 -35 -43 -44 0
-102 -33 -36 -43 -44 0
-104 -33 -37 -43 -44 0
-105 -33 -38 -43 -44 0
-99 -34 -35 -43 -45 0
-102 -34 -36 -43 -45 0
-104 -34 -37 -43 -45 0
-105 -34 -38 -43 -45 0
-102 -35 -36 -43 -46 0
-104 -35 -37 -43 -46 0
-105 -35 -38 -43 -46 0
-104 -36 -37 -43 -47 0
-105 -36 -38 -43 -47 0
-105 -37 -38 -43 -48 0
-99 -34 -35 -44 -45 0
-102 -34 -36 -44 -45 0
-104 -34 -37 -44 -45 0
-105 -34 -38 -44 -45 0
-102 -35 -36 -44 -46 0
-104 -35 -37 -44 -46 0
-105 -35 -38 -44 -46 0
-104 -36 -37 -44 -47 0
-105 -36 -38 -44 -47 0
-105 -37 -38 -44 -48 0
-102 -35 -36 -45 -46 0
-104 -35 -37 -45 -46 0
-105 -35 -38 -45 -46 0
-104 -36 -37 -45 -47 0
-105 -36 -38 -45 -47 0
-105 -37 -38 -45 -48 0
-104 -36 -37 -46 -47 0
-105 -36 -38 -46 -47 0
-105 -37 -38 -46 -48 0
-105 -37 -38 -47 -48 0
-84 -31 -32 -51 -52 0
-90 -31 -33 -51 -52 0
-95 -31 -34 -51 -52 0
-99 -31 -35 -51 -52 0
-102 -31 -36 -51 -52 0
-104 -31 -37 -51 -52 0
-105 -31 -38 -51 -52 0
-90 -32 -33 -51 -53 0
-95 -32 -34 -51 -53 0
-99 -32 -35 -51 -53 0
-102 -32 -36 -51 -53 0
-104 -32 -37 -51 -53 0
-105 -32 -38 -51 -53 0
-95 -33 -34 -51 -54 0
-99 -33 -35 -51 -54 0
-102 -33 -36 -51 -54 0
-104 -33 -37 -51 -54 0
-105 -33 -38 -51 -54 0
-99 -34 -35 -51 -55 0
-102 -34 -36 -51 -55 0
-104 -34 -37 -51 -55 0
-105 -34 -38 -51 -55 0
-102 -35 -36 -51 -56 0
-104 -35 -37 -51 -56 0
-105 -35 -38 -51 -56 0
-104 -36 -37 -51 -57 0
-105 -36 -38 -51 -57 0
-105 -37 -38 -51 -58 0
-90 -32 -33 -52 -53 0
-95 -32 -34 -52 -53 0
-99 -32 -35 -52 -53 0
-102 -32 -36 -52 -53 0
-104 -32 -37 -52 -53 0
-105 -32 -38 -52 -53 0
-95 -33 -34 -52 -54 0
-99 -33 -35 -52 -54 0
-102 -33 -36 -52 -54 0
-104 -33 -37 -52 -54 0
-105 -33 -38 -52 -54 0
-99 -34 -35 -52 -55 0
-102 -34 -36 -52 -55 0
-104 -34 -37 -52 -55 0
-105 -34 -38 -52 -55 0
-102 -35 -36 -52 -56 0
-104 -35 -37 -52 -56 0
-105 -35 -38 -52 -56 0
-104 -36 -37 -52 -57 0
-105 -36 -38 -52 -57 0
-105 -37 -38 -52 -58 0
-95 -33 -34 -53 -54 0
-99 -33 -35 -53 -54 0
-102 -33 -36 -53 -54 0
-104 -33 -37 -53 -54 0
-105 -33 -38 -53 -54 0
-99 -34 -35 -53 -55 0
-102 -34 -36 -53 -55 0
-104 -34 -37 -53 -55 0
-105 -34 -38 -53 -55 0
-102 -35 -36 -53 -56 0
-104 -35 -37 -53 -56 0
-105 -35 -38 -53 -56 0
-104 -36 -37 -53 -57 0
-105 -36 -38 -53 -57 0
-105 -37 -38 -53 -58 0
-99 -34 -35 -54 -55 0
-102 -34 -36 -54 -55 0
-104 -34 -37 -54 -55 0
-105 -34 -38 -54 -55 0
-102 -35 -36 -54 -56 0
-104 -35 -37 -54 -56 0
-105 -35 -38 -54 -56 0
-104 -36 -37 -54 -57 0
-105 -36 -38 -54 -57 0
-105 -37 -38 -54 -58 0
-102 -35 -36 -55 -56 0
-104 -35 -37 -55 -56 0
-105 -35 -38 -55 -56 0
-104 -36 -37 -55 -57 0
-105 -36 -38 -55 -57 0
-105 -37 -38 -55 -58 0
-104 -36 -37 -56 -57 0
-105 -36 -38 -56 -57 0
-105 -37 -38 -56 -58 0
-105 -37 -38 -57 -58 0
-90 -32 -33 -61 -62 0
-95 -32 -34 -61 -62 0
-99 -32 -35 -61 -62 0
-102 -32 -36 -61 -62 0
-104 -32 -37 -61 -62 0
-105 -32 -38 -61 -62 0
-95 -33 -34 -61 -63 0
-99 -33 -35 -61 -63 0
-102 -33 -36 -61 -63 0
-104 -33 -37 -61 -63 0
-105 -33 -38 -61 -63 0
-99 -34 -35 -61 -64 0
-102 -34 -36 -61 -64 0
-104 -34 -37 -61 -64 0
-105 -34 -38 -61 -64 0
-102 -35 -36 -61 -65 0
-104 -35 -37 -61 -65 0
-105 -35 -38 -61 -65 0
-104 -36 -37 -61 -66 0
-105 -36 -38 -61 -66 0
-105 -37 -38 -61 -67 0
-95 -33 -34 -62 -63 0
-99 -33 -35 -62 -63 0
-102 -33 -36 -62 -63 0
-104 -33 -37 -62 -63 0
-105 -33 -38 -62 -63 0
-99 -34 -35 -62 -64 0
-102 -34 -36 -62 -64 0
-104 -34 -37 -62 -64 0
-105 -34 -38 -62 -64 0
-102 -35 -36 -62 -65 0
-104 -35 -37 -62 -65 0
-105 -35 -38 -62 -65 0
-104 -36 -37 -62 -66 0
-105 -36 -38 -62 -66 0
-105 -37 -38 -62 -67 0
-99 -34 -35 -63 -64 0
-102 -34 -36 -63 -64 0
-104 -34 -37 -63 -64 0
-105 -34 -38 -63 -64 0
-102 -35 -36 -63 -65 0
-104 -35 -37 -63 -65 0
-105 -35 -38 -63 -65 0
-104 -36 -37 -63 -66 0
-105 -36 -38 -63 -66 0
-105 -37 -38 -63 -67 0
-102 -35 -36 -64 -65 0
-104 -35 -37 -64 -65 0
-105 -35 -38 -64 -65 0
-104 -36 -37 -64 -66 0
-105 -36 -38 -64 -66 0
-105 -37 -38 -64 -67 0
-104 -36 -37 -65 -66 0
-105 -36 -38 -65 -66 0
-105 -37 -38 -65 -67 0
-105 -37 -38 -66 -67 0
-95 -33 -34 -70 -71 0
-99 -33 -35 -70 -71 0
-102 -33 -36 -70 -71 0
-104 -33 -37 -70 -71 0
-105 -33 -38 -70 -71 0
-99 -34 -35 -70 -72 0
-102 -34 -36 -70 -72 0
-104 -34 -37 -70 -72 0
-105 -34 -38 -70 -72 0
-102 -35 -36 -70 -73 0
-104 -35 -37 -70 -73 0
-105 -35 -38 -70 -73 0
-104 -36 -37 -70 -74 0
-105 -36 -38 -70 -74 0
-105 -37 -38 -70 -75 0
-99 -34 -35 -71 -72 0
-102 -34 -36 -71 -72 0
-104 -34 -37 -71 -72 0
-105 -34 -38 -71 -72 0
-102 -35 -36 -71 -73 0
-104 -35 -37 -71 -73 0
-105 -35 -38 -71 -73 0
-104 -36 -37 -71 -74 0
-105 -36 -38 -71 -74 0
-105 -37 -38 -71 -75 0
-102 -35 -36 -72 -73 0
-104 -35 -37 -72 -73 0
-105 -35 -38 -72 -73 0
-104 -36 -37 -72 -74 0
-105 -36 -38 -72 -74 0
-105 -37 -38 -72 -75 0
-104 -36 -37 -73 -74 0
-105 -36 -38 -73 -74 0
-105 -37 -38 -73 -75 0
-105 -37 -38 -74 -75 0
-99 -34 -35 -78 -79 0
-102 -34 -36 -78 -79 0
-104 -34 -37 -78 -79 0
-105 -34 -38 -78 -79 0
-102 -35 -36 -78 -80 0
-104 -35 -37 -78 -80 0
-105 -35 -38 -78 -80 0
-104 -36 -37 -78 -81 0
-105 -36 -38 -78 -81 0
-105 -37 -38 -78 -82 0
-102 -35 -36 -79 -80 0
-104 -35 -37 -79 -80 0
-105 -35 -38 -79 -80 0
-104 -36 -37 -79 -81 0
-105 -36 -38 -79 -81 0
-105 -37 -38 -79 -82 0
-104 -36 -37 -80 -81 0
-105 -36 -38 -80 -81 0
-105 -37 -38 -80 -82 0
-105 -37 -38 -81 -82 0
-102 -35 -36 -85 -86 0
-104 -35 -37 -85 -86 0
-105 -35 -38 -85 -86 0
-104 -36 -37 -85 -87 0
-105 -36 -38 -85 -87 0
-105 -37 -38 -85 -88 0
-104 -36 -37 -86 -87 0
-105 -36 -38 -86 -87 0
-105 -37 -38 -86 -88 0
-105 -37 -38 -87 -88 0
-104 -36 -37 -91 -92 0
-105 -36 -38 -91 -92 0
-105 -37 -38 -91 -93 0
-105 -37 -38 -92 -93 0
-105 -37 -38 -96 -97 0
-84 -42 -43 -51 -52 0
-90 -42 -44 -51 -52 0
-95 -42 -45 -51 -52 0
-99 -42 -46 -51 -52 0
-102 -42 -47 -51 -52 0
-104 -42 -48 -51 -52 0
-105 -42 -49 -51 -52 0
-90 -43 -44 -51 -53 0
-95 -43 -45 -51 -53 0
-99 -43 -46 -51 -53 0
-102 -43 -47 -51 -53 0
-104 -43 -48 -51 -53 0
-105 -43 -49 -51 -53 0
-95 -44 -45 -51 -54 0
-99 -44 -46 -51 -54 0
-102 -44 -47 -51 -54 0
-104 -44 -48 -51 -54 0
-105 -44 -49 -51 -54 0
-99 -45 -46 -51 -55 0
-102 -45 -47 -51 -55 0
-104 -45 -48 -51 -55 0
-105 -45 -49 -51 -55 0
-102 -46 -47 -51 -56 0
-104 -46 -48 -51 -56 0
-105 -46 -49 -51 -56 0
-104 -47 -48 -51 -57 0
-105 -47 -49 -51 -57 0
-105 -48 -49 -51 -58 0
-90 -43 -44 -52 -53 0
-95 -43 -45 -52 -53 0
-99 -43 -46 -52 -53 0
-102 -43 -47 -52 -53 0
-104 -43 -48 -52 -53 0
-105 -43 -49 -52 -53 0
-95 -44 -45 -52 -54 0
-99 -44 -46 -52 -54 0
-102 -44 -47 -52 -54 0
-104 -44 -48 -52 -54 0
-105 -44 -49 -52 -54 0
-99 -45 -46 -52 -55 0
-102 -45 -47 -52 -55 0
-104 -45 -48 -52 -55 0
-105 -45 -49 -52 -55 0
-102 -46 -47 -52 -56 0
-104 -46 -48 -52 -56 0
-105 -46 -49 -52 -56 0
-104 -47 -48 -52 -57 0
-105 -47 -49 -52 -57 0
-105 -48 -49 -52 -58 0
-95 -44 -45 -53 -54 0
-99 -44 -46 -53 -54 0
-102 -44 -47 -53 -54 0
-104 -44 -48 -53 -54 0
-105 -44 -49 -53 -54 0
-99 -45 -46 -53 -55 0
-102 -45 -47 -53 -55 0
-104 -45 -48 -53 -55 0
-105 -45 -49 -53 -55 0
-102 -46 -47 -53 -56 0
-104 -46 -48 -53 -56 0
-105 -46 -49 -53 -56 0
-104 -47 -48 -53 -57 0
-105 -47 -49 -53 -57 0
-105 -48 -49 -53 -58 0
-99 -45 -46 -54 -55 0
-102 -45 -47 -54 -55 0
-104 -45 -48 -54 -55 0
-105 -45 -49 -54 -55 0
-102 -46 -47 -54 -56 0
-104 -46 -48 -54 -56 0
-105 -46 -49 -54 -56 0
-104 -47 -48 -54 -57 0
-105 -47 -49 -54 -57 0
-105 -48 -49 -54 -58 0
-102 -46 -47 -55 -56 0
-104 -46 -48 -55 -56 0
-105 -46 -49 -55 -56 0
-104 -47 -48 -55 -57 0
-105 -47 -49 -55 -57 0
-105 -48 -49 -55 -58 0
-104 -47 -48 -56 -57 0
-105 -47 -49 -56 -57 0
-105 -48 -49 -56 -58 0
-105 -48 -49 -57 -58 0
-90 -43 -44 -61 -62 0
-95 -43 -45 -61 -62 0
-99 -43 -46 -61 -62 0
-102 -43 -47 -61 -62 0
-104 -43 -48 -61 -62 0
-105 -43 -49 -61 -62 0
-95 -44 -45 -61 -63 0
-99 -44 -46 -61 -63 0
-102 -44 -47 -61 -63 0
-104 -44 -48 -61 -63 0
-105 -44 -49 -61 -63 0
-99 -45 -46 -61 -64 0
-102 -45 -47 -61 -64 0
-104 -45 -48 -61 -64 0
-105 -45 -49 -61 -64 0
-102 -46 -47 -61 -65 0
-104 -46 -48 -61 -65 0
-105 -46 -49 -61 -65 0
-104 -47 -48 -61 -66 0
-105 -47 -49 -61 -66 0
-105 -48 -49 -61 -67 0
-95 -44 -45 -62 -63 0
-99 -44 -46 -62 -63 0
-102 -44 -47 -62 -63 0
-104 -44 -48 -62 -63 0
-105 -44 -49 -62 -63 0
-99 -45 -46 -62 -64 0
-102 -45 -47 -62 -64 0
-104 -45 -48 -62 -64 0
-105 -45 -49 -62 -64 0
-102 -46 -47 -62 -65 0
-104 -46 -48 -62 -65 0
-105 -46 -49 -62 -65 0
-104 -47 -48 -62 -66 0
-105 -47 -49 -62 -66 0
-105 -48 -49 -62 -67 0
-99 -45 -46 -63 -64 0
-102 -45 -47 -63 -64 0
-104 -45 -48 -63 -64 0
-105 -45 -49 -63 -64 0
-102 -46 -47 -63 -65 0
-104 -46 -48 -63 -65 0
-105 -46 -49 -63 -65 0
-104 -47 -48 -63 -66 0
-105 -47 -49 -63 -66 0
-105 -48 -49 -63 -67 0
-102 -46 -47 -64 -65 0
-104 -46 -48 -64 -65 0
-105 -46 -49 -64 -65 0
-104 -47 -48 -64 -66 0
-105 -47 -49 -64 -66 0
-105 -48 -49 -64 -67 0
-104 -47 -48 -65 -66 0
-105 -47 -49 -65 -66 0
-105 -48 -49 -65 -67 0
-105 -48 -49 -66 -67 0
-95 -44 -45 -70 -71 0
-99 -44 -46 -70 -71 0
-102 -44 -47 -70 -71 0
-104 -44 -48 -70 -71 0
-105 -44 -49 -70 -71 0
-99 -45 -46 -70 -72 0
-102 -45 -47 -70 -72 0
-104 -45 -48 -70 -72 0
-105 -45 -49 -70 -72 0
-102 -46 -47 -70 -73 0
-104 -46 -48 -70 -73 0
-105 -46 -49 -70 -73 0
-104 -47 -48 -70 -74 0
-105 -47 -49 -70 -74 0
-105 -48 -49 -70 -75 0
-99 -45 -46 -71 -72 0
-102 -45 -47 -71 -72 0
-104 -45 -48 -71 -72 0
-105 -45 -49 -71 -72 0
-102 -46 -47 -71 -73 0
-104 -46 -48 -71 -73 0
-105 -46 -49 -71 -73 0
-104 -47 -48 -71 -74 0
-105 -47 -49 -71 -74 0
-105 -48 -49 -71 -75 0
-102 -46 -47 -72 -73 0
-104 -46 -48 -72 -73 0
-105 -46 -49 -72 -73 0
-104 -47 -48 -72 -74 0
-105 -47 -49 -72 -74 0
-105 -48 -49 -72 -75 0
-104 -47 -48 -73 -74 0
-105 -47 -49 -73 -74 0
-105 -48 -49 -73 -75 0
-105 -48 -49 -74 -75 0
-99 -45 -46 -78 -79 0
-102 -45 -47 -78 -79 0
-104 -45 -48 -78 -79 0
-105 -45 -49 -78 -79 0
-102 -46 -47 -78 -80 0
-104 -46 -48 -78 -80 0
-105 -46 -49 -78 -80 0
-104 -47 -48 -78 -81 0
-105 -47 -49 -78 -81 0
-105 -48 -49 -78 -82 0
-102 -46 -47 -79 -80 0
-104 -46 -48 -79 -80 0
-105 -46 -49 -79 -80 0
-104 -47 -48 -79 -81 0
-105 -47 -49 -79 -81 0
-105 -48 -49 -79 -82 0
-104 -47 -48 -80 -81 0
-105 -47 -49 -80 -81 0
-105 -48 -49 -80 -82 0
-105 -48 -49 -81 -82 0
-102 -46 -47 -85 -86 0
-104 -46 -48 -85 -86 0
-105 -46 -49 -85 -86 0
-104 -47 -48 -85 -87 0
-105 -47 -49 -85 -87 0
-105 -48 -49 -85 -88 0
-104 -47 -48 -86 -87 0
-105 -47 -49 -86 -87 0
-105 -48 -49 -86 -88 0
-105 -48 -49 -87 -88 0
-104 -47 -48 -91 -92 0
-105 -47 -49 -91 -92 0
-105 -48 -49 -91 -93 0
-105 -48 -49 -92 -93 0
-105 -48 -49 -96 -97 0
-90 -53 -54 -61 -62 0
-95 -53 -55 -61 -62 0
-99 -53 -56 -61 -62 0
-102 -53 -57 -61 -62 0
-104 -53 -58 -61 -62 0
-105 -53 -59 -61 -62 0
-95 -54 -55 -61 -63 0
-99 -54 -56 -61 -63 0
-102 -54 -57 -61 -63 0
-104 -54 -58 -61 -63 0
-105 -54 -59 -61 -63 0
-99 -55 -56 -61 -64 0
-102 -55 -57 -61 -64 0
-104 -55 -58 -61 -64 0
-105 -55 -59 -61 -64 0
-102 -56 -57 -61 -65 0
-104 -56 -58 -61 -65 0
-105 -56 -59 -61 -65 0
-104 -57 -58 -61 -66 0
-105 -57 -59 -61 -66 0
-105 -58 -59 -61 -67 0
-95 -54 -55 -62 -63 0
-99 -54 -56 -62 -63 0
-102 -54 -57 -62 -63 0
-104 -54 -58 -62 -63 0
-105 -54 -59 -62 -63 0
-99 -55 -56 -62 -64 0
-102 -55 -57 -62 -64 0
-104 -55 -58 -62 -64 0
-105 -55 -59 -62 -64 0
-102 -56 -57 -62 -65 0
-104 -56 -58 -62 -65 0
-105 -56 -59 -62 -65 0
-104 -57 -58 -62 -66 0
-105 -57 -59 -62 -66 0
-105 -58 -59 -62 -67 0
-99 -55 -56 -63 -64 0
-102 -55 -57 -63 -64 0
-104 -55 -58 -63 -64 0
-105 -55 -59 -63 -64 0
-102 -56 -57 -63 -65 0
-104 -56 -58 -63 -65 0
-105 -56 -59 -63 -65 0
-104 -57 -58 -63 -66 0
-105 -57 -59 -63 -66 0
-105 -58 -59 -63 -67 0
-102 -56 -57 -64 -65 0
-104 -56 -58 -64 -65 0
-105 -56 -59 -64 -65 0
-104 -57 -58 -64 -66 0
-105 -57 -59 -64 -66 0
-105 -58 -59 -64 -67 0
-104 -57 -58 -65 -66 0
-105 -57 -59 -65 -66 0
-105 -58 -59 -65 -67 0
-105 -58 -59 -66 -67 0
-95 -54 -55 -70 -71 0
-99 -54 -56 -70 -71 0
-102 -54 -57 -70 -71 0
-104 -54 -58 -70 -71 0
-105 -54 -59 -70 -71 0
-99 -55 -56 -70 -72 0
-102 -55 -57 -70 -72 0
-104 -55 -58 -70 -72 0
-105 -55 -59 -70 -72 0
-102 -56 -57 -70 -73 0
-104 -56 -58 -70 -73 0
-105 -56 -59 -70 -73 0
-104 -57 -58 -70 -74 0
-105 -57 -59 -70 -74 0
-105 -58 -59 -70 -75 0
-99 -55 -56 -71 -72 0
-102 -55 -57 -71 -72 0
-104 -55 -58 -71 -72 0
-105 -55 -59 -71 -72 0
-102 -56 -57 -71 -73 0
-104 -56 -58 -71 -73 0
-105 -56 -59 -71 -73 0
-104 -57 -58 -71 -74 0
-105 -57 -59 -71 -74 0
-105 -58 -59 -71 -75 0
-102 -56 -57 -72 -73 0
-104 -56 -58 -72 -73 0
-105 -56 -59 -72 -73 0
-104 -57 -58 -72 -74 0
-105 -57 -59 -72 -74 0
-105 -58 -59 -72 -75 0
-104 -57 -58 -73 -74 0
-105 -57 -59 -73 -74 0
-105 -58 -59 -73 -75 0
-105 -58 -59 -74 -75 0
-99 -55 -56 -78 -79 0
-102 -55 -57 -78 -79 0
-104 -55 -58 -78 -79 0
-105 -55 -59 -78 -79 0
-102 -56 -57 -78 -80 0
-104 -56 -58 -78 -80 0
-105 -56 -59 -78 -80 0
-104 -57 -58 -78 -81 0
-105 -57 -59 -78 -81 0
-105 -58 -59 -78 -82 0
-102 -56 -57 -79 -80 0
-104 -56 -58 -79 -80 0
-105 -56 -59 -79 -80 0
-104 -57 -58 -79 -81 0
-105 -57 -59 -79 -81 0
-105 -58 -59 -79 -82 0
-104 -57 -58 -80 -81 0
-105 -57 -59 -80 -81 0
-105 -58 -59 -80 -82 0
-105 -58 -59 -81 -82 0
-102 -56 -57 -85 -86 0
-104 -56 -58 -85 -86 0
-105 -56 -59 -85 -86 0
-104 -57 -58 -85 -87 0
-105 -57 -59 -85 -87 0
-105 -58 -59 -85 -88 0
-104 -57 -58 -86 -87 0
-105 -57 -59 -86 -87 0
-105 -58 -59 -86 -88 0
-105 -58 -59 -87 -88 0
-104 -57 -58 -91 -92 0
-105 -57 -59 -91 -92 0
-105 -58 -59 -91 -93 0
-105 -58 -59 -92 -93 0
-105 -58 -59 -96 -97 0
-95 -63 -64 -70 -71 0
-99 -63 -65 -70 -71 0
-102 -63 -66 -70 -71 0
-104 -63 -67 -70 -71 0
-105 -63 -68 -70 -71 0
-99 -64 -65 -70 -72 0
-102 -64 -66 -70 -72 0
-104 -64 -67 -70 -72 0
-105 -64 -68 -70 -72 0
-102 -65 -66 -70 -73 0
-104 -65 -67 -70 -73 0
-105 -65 -68 -70 -73 0
-104 -66 -67 -70 -74 0
-105 -66 -68 -70 -74 0
-105 -67 -68 -70 -75 0
-99 -64 -65 -71 -72 0
-102 -64 -66 -71 -72 0
-104 -64 -67 -71 -72 0
-105 -64 -68 -71 -72 0
-102 -65 -66 -71 -73 0
-104 -65 -67 -71 -73 0
-105 -65 -68 -71 -73 0
-104 -66 -67 -71 -74 0
-105 -66 -68 -71 -74 0
-105 -67 -68 -71 -75 0
-102 -65 -66 -72 -73 0
-104 -65 -67 -72 -73 0
-105 -65 -68 -72 -73 0
-104 -66 -67 -72 -74 0
-105 -66 -68 -72 -74 0
-105 -67 -68 -72 -75 0
-104 -66 -67 -73 -74 0
-105 -66 -68 -73 -74 0
-105 -67 -68 -73 -75 0
-105 -67 -68 -74 -75 0
-99 -64 -65 -78 -79 0
-102 -64 -66 -78 -79 0
-104 -64 -67 -78 -79 0
-105 -64 -68 -78 -79 0
-102 -65 -66 -78 -80 0
-104 -65 -67 -78 -80 0
-105 -65 -68 -78 -80 0
-104 -66 -67 -78 -81 0
-105 -66 -68 -78 -81 0
-105 -67 -68 -78 -82 0
-102 -65 -66 -79 -80 0
-104 -65 -67 -79 -80 0
-105 -65 -68 -79 -80 0
-104 -66 -67 -79 -81 0
-105 -66 -68 -79 -81 0
-105 -67 -68 -79 -82 0
-104 -66 -67 -80 -81 0
-105 -66 -68 -80 -81 0
-105 -67 -68 -80 -82 0
-105 -67 -68 -81 -82 0
-102 -65 -66 -85 -86 0
-104 -65 -67 -85 -86 0
-105 -65 -68 -85 -86 0
-104 -66 -67 -85 -87 0
-105 -66 -68 -85 -87 0
-105 -67 -68 -85 -88 0
-104 -66 -67 -86 -87 0
-105 -66 -68 -86 -87 0
-105 -67 -68 -86 -88 0
-105 -67 -68 -87 -88 0
-104 -66 -67 -91 -92 0
-105 -66 -68 -91 -92 0
-105 -67 -68 -91 -93 0
-105 -67 -68 -92 -93 0
-105 -67 -68 -96 -97 0
-99 -72 -73 -78 -79 0
-102 -72 -74 -78 -79 0
-104 -72 -75 -78 -79 0
-105 -72 -76 -78 -79 0
-102 -73 -74 -78 -80 0
-104 -73 -75 -78 -80 0
-105 -73 -76 -78 -80 0
-104 -74 -75 -78 -81 0
-105 -74 -76 -78 -81 0
-105 -75 -76 -78 -82 0
-102 -73 -74 -79 -80 0
-104 -73 -75 -79 -80 0
-105 -73 -76 -79 -80 0
-104 -74 -75 -79 -81 0
-105 -74 -76 -79 -81 0
-105 -75 -76 -79 -82 0
-104 -74 -75 -80 -81 0
-105 -74 -76 -80 -81 0
-105 -75 -76 -80 -82 0
-105 -75 -76 -81 -82 0
-102 -73 -74 -85 -86 0
-104 -73 -75 -85 -86 0
-105 -73 -76 -85 -86 0
-104 -74 -75 -85 -87 0
-105 -74 -76 -85 -87 0
-105 -75 -76 -85 -88 0
-104 -74 -75 -86 -87 0
-105 -74 -76 -86 -87 0
-105 -75 -76 -86 -88 0
-105 -75 -76 -87 -88 0
-104 -74 -75 -91 -92 0
-105 -74 -76 -91 -92 0
-105 -75 -76 -91 -93 0
-105 -75 -76 -92 -93 0
-105 -75 -76 -96 -97 0
-102 -80 -81 -85 -86 0
-104 -80 -82 -85 -86 0
-105 -80 -83 -85 -86 0
-104 -81 -82 -85 -87 0
-105 -81 -83 -85 -87 0
-105 -82 -83 -85 -88 0
-104 -81 -82 -86 -87 0
-105 -81 -83 -86 -87 0
-105 -82 -83 -86 -88 0
-105 -82 -83 -87 -88 0
-104 -81 -82 -91 -92 0
-105 -81 -83 -91 -92 0
-105 -82 -83 -91 -93 0
-105 -82 -83 -92 -93 0
-105 -82 -83 -96 -97 0
-104 -87 -88 -91 -92 0
-105 -87 -89 -91 -92 0
-105 -88 -89 -91 -93 0
-105 -88 -89 -92 -93 0
-105 -88 -89 -96 -97 0
-105 -93 -94 -96 -97 0
