p cnf 196 39859
92 93 94 106 107 119 0
92 93 95 106 108 120 0
92 93 96 106 109 121 0
92 93 97 106 110 122 0
92 93 98 106 111 123 0
92 93 99 106 112 124 0
92 93 100 106 113 125 0
92 93 101 106 114 126 0
92 93 102 106 115 127 0
92 93 103 106 116 128 0
92 93 104 106 117 129 0
92 93 105 106 118 130 0
92 94 95 107 108 131 0
92 94 96 107 109 132 0
92 94 97 107 110 133 0
92 94 98 107 111 134 0
92 94 99 107 112 135 0
92 94 100 107 113 136 0
92 94 101 107 114 137 0
92 94 102 107 115 138 0
92 94 103 107 116 139 0
92 94 104 107 117 140 0
92 94 105 107 118 141 0
92 95 96 108 109 142 0
92 95 97 108 110 143 0
92 95 98 108 111 144 0
92 95 99 108 112 145 0
92 95 100 108 113 146 0
92 95 101 108 114 147 0
92 95 102 108 115 148 0
92 95 103 108 116 149 0
92 95 104 108 117 150 0
92 95 105 108 118 151 0
92 96 97 109 110 152 0
92 96 98 109 111 153 0
92 96 99 109 112 154 0
92 96 100 109 113 155 0
92 96 101 109 114 156 0
92 96 102 109 115 157 0
92 96 103 109 116 158 0
92 96 104 109 117 159 0
92 96 105 109 118 160 0
92 97 98 110 111 161 0
92 97 99 110 112 162 0
92 97 100 110 113 163 0
92 97 101 110 114 164 0
92 97 102 110 115 165 0
92 97 103 110 116 166 0
92 97 104 110 117 167 0
92 97 105 110 118 168 0
92 98 99 111 112 169 0
92 98 100 111 113 170 0
92 98 101 111 114 171 0
92 98 102 111 115 172 0
92 98 103 111 116 173 0
92 98 104 111 117 174 0
92 98 105 111 118 175 0
92 99 100 112 113 176 0
92 99 101 112 114 177 0
92 99 102 112 115 178 0
92 99 103 112 116 179 0
92 99 104 112 117 180 0
92 99 105 112 118 181 0
92 100 101 113 114 182 0
92 100 102 113 115 183 0
92 100 103 113 116 184 0
92 100 104 113 117 185 0
92 100 105 113 118 186 0
92 101 102 114 115 187 0
92 101 103 114 116 188 0
92 101 104 114 117 189 0
92 101 105 114 118 190 0
92 102 103 115 116 191 0
92 102 104 115 117 192 0
92 102 105 115 118 193 0
92 103 104 116 117 194 0
92 103 105 116 118 195 0
92 104 105 117 118 196 0
93 94 95 119 120 131 0
93 94 96 119 121 132 0
93 94 97 119 122 133 0
93 94 98 119 123 134 0
93 94 99 119 124 135 0
93 94 100 119 125 136 0
93 94 101 119 126 137 0
93 94 102 119 127 138 0
93 94 103 119 128 139 0
93 94 104 119 129 140 0
93 94 105 119 130 141 0
93 95 96 120 121 142 0
93 95 97 120 122 143 0
93 95 98 120 123 144 0
93 95 99 120 124 145 0
93 95 100 120 125 146 0
93 95 101 120 126 147 0
93 95 102 120 127 148 0
93 95 103 120 128 149 0
93 95 104 120 129 150 0
93 95 105 120 130 151 0
93 96 97 121 122 152 0
93 96 98 121 123 153 0
93 96 99 121 124 154 0
93 96 100 121 125 155 0
93 96 101 121 126 156 0
93 96 102 121 127 157 0
93 96 103 121 128 158 0
93 96 104 121 129 159 0
93 96 105 121 130 160 0
93 97 98 122 123 161 0
93 97 99 122 124 162 0
93 97 100 122 125 163 0
93 97 101 122 126 164 0
93 97 102 122 127 165 0
93 97 103 122 128 166 0
93 97 104 122 129 167 0
93 97 105 122 130 168 0
93 98 99 123 124 169 0
93 98 100 123 125 170 0
93 98 101 123 126 171 0
93 98 102 123 127 172 0
93 98 103 123 128 173 0
93 98 104 123 129 174 0
93 98 105 123 130 175 0
93 99 100 124 125 176 0
93 99 101 124 126 177 0
93 99 102 124 127 178 0
93 99 103 124 128 179 0
93 99 104 124 129 180 0
93 99 105 124 130 181 0
93 100 101 125 126 182 0
93 100 102 125 127 183 0
93 100 103 125 128 184 0
93 100 104 125 129 185 0
93 100 105 125 130 186 0
93 101 102 126 127 187 0
93 101 103 126 128 188 0
93 101 104 126 129 189 0
93 101 105 126 130 190 0
93 102 103 127 128 191 0
93 102 104 127 129 192 0
93 102 105 127 130 193 0
93 103 104 128 129 194 0
93 103 105 128 130 195 0
93 104 105 129 130 196 0
94 95 96 131 132 142 0
94 95 97 131 133 143 0
94 95 98 131 134 144 0
94 95 99 131 135 145 0
94 95 100 131 136 146 0
94 95 101 131 137 147 0
94 95 102 131 138 148 0
94 95 103 131 139 149 0
94 95 104 131 140 150 0
94 95 105 131 141 151 0
94 96 97 132 133 152 0
94 96 98 132 134 153 0
94 96 99 132 135 154 0
94 96 100 132 136 155 0
94 96 101 132 137 156 0
94 96 102 132 138 157 0
94 96 103 132 139 158 0
94 96 104 132 140 159 0
94 96 105 132 141 160 0
94 97 98 133 134 161 0
94 97 99 133 135 162 0
94 97 100 133 136 163 0
94 97 101 133 137 164 0
94 97 102 133 138 165 0
94 97 103 133 139 166 0
94 97 104 133 140 167 0
94 97 105 133 141 168 0
94 98 99 134 135 169 0
94 98 100 134 136 170 0
94 98 101 134 137 171 0
94 98 102 134 138 172 0
94 98 103 134 139 173 0
94 98 104 134 140 174 0
94 98 105 134 141 175 0
94 99 100 135 136 176 0
94 99 101 135 137 177 0
94 99 102 135 138 178 0
94 99 103 135 139 179 0
94 99 104 135 140 180 0
94 99 105 135 141 181 0
94 100 101 136 137 182 0
94 100 102 136 138 183 0
94 100 103 136 139 184 0
94 100 104 136 140 185 0
94 100 105 136 141 186 0
94 101 102 137 138 187 0
94 101 103 137 139 188 0
94 101 104 137 140 189 0
94 101 105 137 141 190 0
94 102 103 138 139 191 0
94 102 104 138 140 192 0
94 102 105 138 141 193 0
94 103 104 139 140 194 0
94 103 105 139 141 195 0
94 104 105 140 141 196 0
95 96 97 142 143 152 0
95 96 98 142 144 153 0
95 96 99 142 145 154 0
95 96 100 142 146 155 0
95 96 101 142 147 156 0
95 96 102 142 148 157 0
95 96 103 142 149 158 0
95 96 104 142 150 159 0
95 96 105 142 151 160 0
95 97 98 143 144 161 0
95 97 99 143 145 162 0
95 97 100 143 146 163 0
95 97 101 143 147 164 0
95 97 102 143 148 165 0
95 97 103 143 149 166 0
95 97 104 143 150 167 0
95 97 105 143 151 168 0
95 98 99 144 145 169 0
95 98 100 144 146 170 0
95 98 101 144 147 171 0
95 98 102 144 148 172 0
95 98 103 144 149 173 0
95 98 104 144 150 174 0
95 98 105 144 151 175 0
95 99 100 145 146 176 0
95 99 101 145 147 177 0
95 99 102 145 148 178 0
95 99 103 145 149 179 0
95 99 104 145 150 180 0
95 99 105 145 151 181 0
95 100 101 146 147 182 0
95 100 102 146 148 183 0
95 100 103 146 149 184 0
95 100 104 146 150 185 0
95 100 105 146 151 186 0
95 101 102 147 148 187 0
95 101 103 147 149 188 0
95 101 104 147 150 189 0
95 101 105 147 151 190 0
95 102 103 148 149 191 0
95 102 104 148 150 192 0
95 102 105 148 151 193 0
95 103 104 149 150 194 0
95 103 105 149 151 195 0
95 104 105 150 151 196 0
96 97 98 152 153 161 0
96 97 99 152 154 162 0
96 97 100 152 155 163 0
96 97 101 152 156 164 0
96 97 102 152 157 165 0
96 97 103 152 158 166 0
96 97 104 152 159 167 0
96 97 105 152 160 168 0
96 98 99 153 154 169 0
96 98 100 153 155 170 0
96 98 101 153 156 171 0
96 98 102 153 157 172 0
96 98 103 153 158 173 0
96 98 104 153 159 174 0
96 98 105 153 160 175 0
96 99 100 154 155 176 0
96 99 101 154 156 177 0
96 99 102 154 157 178 0
96 99 103 154 158 179 0
96 99 104 154 159 180 0
96 99 105 154 160 181 0
96 100 101 155 156 182 0
96 100 102 155 157 183 0
96 100 103 155 158 184 0
96 100 104 155 159 185 0
96 100 105 155 160 186 0
96 101 102 156 157 187 0
96 101 103 156 158 188 0
96 101 104 156 159 189 0
96 101 105 156 160 190 0
96 102 103 157 158 191 0
96 102 104 157 159 192 0
96 102 105 157 160 193 0
96 103 104 158 159 194 0
96 103 105 158 160 195 0
96 104 105 159 160 196 0
97 98 99 161 162 169 0
97 98 100 161 163 170 0
97 98 101 161 164 171 0
97 98 102 161 165 172 0
97 98 103 161 166 173 0
97 98 104 161 167 174 0
97 98 105 161 168 175 0
97 99 100 162 163 176 0
97 99 101 162 164 177 0
97 99 102 162 165 178 0
97 99 103 162 166 179 0
97 99 104 162 167 180 0
97 99 105 162 168 181 0
97 100 101 163 164 182 0
97 100 102 163 165 183 0
97 100 103 163 166 184 0
97 100 104 163 167 185 0
97 100 105 163 168 186 0
97 101 102 164 165 187 0
97 101 103 164 166 188 0
97 101 104 164 167 189 0
97 101 105 164 168 190 0
97 102 103 165 166 191 0
97 102 104 165 167 192 0
97 102 105 165 168 193 0
97 103 104 166 167 194 0
97 103 105 166 168 195 0
97 104 105 167 168 196 0
98 99 100 169 170 176 0
98 99 101 169 171 177 0
98 99 102 169 172 178 0
98 99 103 169 173 179 0
98 99 104 169 174 180 0
98 99 105 169 175 181 0
98 100 101 170 171 182 0
98 100 102 170 172 183 0
98 100 103 170 173 184 0
98 100 104 170 174 185 0
98 100 105 170 175 186 0
98 101 102 171 172 187 0
98 101 103 171 173 188 0
98 101 104 171 174 189 0
98 101 105 171 175 190 0
98 102 103 172 173 191 0
98 102 104 172 174 192 0
98 102 105 172 175 193 0
98 103 104 173 174 194 0
98 103 105 173 175 195 0
98 104 105 174 175 196 0
99 100 101 176 177 182 0
99 100 102 176 178 183 0
99 100 103 176 179 184 0
99 100 104 176 180 185 0
99 100 105 176 181 186 0
99 101 102 177 178 187 0
99 101 103 177 179 188 0
99 101 104 177 180 189 0
99 101 105 177 181 190 0
99 102 103 178 179 191 0
99 102 104 178 180 192 0
99 102 105 178 181 193 0
99 103 104 179 180 194 0
99 103 105 179 181 195 0
99 104 105 180 181 196 0
100 101 102 182 183 187 0
100 101 103 182 184 188 0
100 101 104 182 185 189 0
100 101 105 182 186 190 0
100 102 103 183 184 191 0
100 102 104 183 185 192 0
100 102 105 183 186 193 0
100 103 104 184 185 194 0
100 103 105 184 186 195 0
100 104 105 185 186 196 0
101 102 103 187 188 191 0
101 102 104 187 189 192 0
101 102 105 187 190 193 0
101 103 104 188 189 194 0
101 103 105 188 190 195 0
101 104 105 189 190 196 0
102 103 104 191 192 194 0
102 103 105 191 193 195 0
102 104 105 192 193 196 0
103 104 105 194 195 196 0
106 107 108 119 120 131 0
106 107 109 119 121 132 0
106 107 110 119 122 133 0
106 107 111 119 123 134 0
106 107 112 119 124 135 0
106 107 113 119 125 136 0
106 107 114 119 126 137 0
106 107 115 119 127 138 0
106 107 116 119 128 139 0
106 107 117 119 129 140 0
106 107 118 119 130 141 0
106 107 92 119 93 94 0
106 108 109 120 121 142 0
106 108 110 120 122 143 0
106 108 111 120 123 144 0
106 108 112 120 124 145 0
106 108 113 120 125 146 0
106 108 114 120 126 147 0
106 108 115 120 127 148 0
106 108 116 120 128 149 0
106 108 117 120 129 150 0
106 108 118 120 130 151 0
106 108 92 120 93 95 0
106 109 110 121 122 152 0
106 109 111 121 123 153 0
106 109 112 121 124 154 0
106 109 113 121 125 155 0
106 109 114 121 126 156 0
106 109 115 121 127 157 0
106 109 116 121 128 158 0
106 109 117 121 129 159 0
106 109 118 121 130 160 0
106 109 92 121 93 96 0
106 110 111 122 123 161 0
106 110 112 122 124 162 0
106 110 113 122 125 163 0
106 110 114 122 126 164 0
106 110 115 122 127 165 0
106 110 116 122 128 166 0
106 110 117 122 129 167 0
106 110 118 122 130 168 0
106 110 92 122 93 97 0
106 111 112 123 124 169 0
106 111 113 123 125 170 0
106 111 114 123 126 171 0
106 111 115 123 127 172 0
106 111 116 123 128 173 0
106 111 117 123 129 174 0
106 111 118 123 130 175 0
106 111 92 123 93 98 0
106 112 113 124 125 176 0
106 112 114 124 126 177 0
106 112 115 124 127 178 0
106 112 116 124 128 179 0
106 112 117 124 129 180 0
106 112 118 124 130 181 0
106 112 92 124 93 99 0
106 113 114 125 126 182 0
106 113 115 125 127 183 0
106 113 116 125 128 184 0
106 113 117 125 129 185 0
106 113 118 125 130 186 0
106 113 92 125 93 100 0
106 114 115 126 127 187 0
106 114 116 126 128 188 0
106 114 117 126 129 189 0
106 114 118 126 130 190 0
106 114 92 126 93 101 0
106 115 116 127 128 191 0
106 115 117 127 129 192 0
106 115 118 127 130 193 0
106 115 92 127 93 102 0
106 116 117 128 129 194 0
106 116 118 128 130 195 0
106 116 92 128 93 103 0
106 117 118 129 130 196 0
106 117 92 129 93 104 0
106 118 92 130 93 105 0
107 108 109 131 132 142 0
107 108 110 131 133 143 0
107 108 111 131 134 144 0
107 108 112 131 135 145 0
107 108 113 131 136 146 0
107 108 114 131 137 147 0
107 108 115 131 138 148 0
107 108 116 131 139 149 0
107 108 117 131 140 150 0
107 108 118 131 141 151 0
107 108 92 131 94 95 0
107 109 110 132 133 152 0
107 109 111 132 134 153 0
107 109 112 132 135 154 0
107 109 113 132 136 155 0
107 109 114 132 137 156 0
107 109 115 132 138 157 0
107 109 116 132 139 158 0
107 109 117 132 140 159 0
107 109 118 132 141 160 0
107 109 92 132 94 96 0
107 110 111 133 134 161 0
107 110 112 133 135 162 0
107 110 113 133 136 163 0
107 110 114 133 137 164 0
107 110 115 133 138 165 0
107 110 116 133 139 166 0
107 110 117 133 140 167 0
107 110 118 133 141 168 0
107 110 92 133 94 97 0
107 111 112 134 135 169 0
107 111 113 134 136 170 0
107 111 114 134 137 171 0
107 111 115 134 138 172 0
107 111 116 134 139 173 0
107 111 117 134 140 174 0
107 111 118 134 141 175 0
107 111 92 134 94 98 0
107 112 113 135 136 176 0
107 112 114 135 137 177 0
107 112 115 135 138 178 0
107 112 116 135 139 179 0
107 112 117 135 140 180 0
107 112 118 135 141 181 0
107 112 92 135 94 99 0
107 113 114 136 137 182 0
107 113 115 136 138 183 0
107 113 116 136 139 184 0
107 113 117 136 140 185 0
107 113 118 136 141 186 0
107 113 92 136 94 100 0
107 114 115 137 138 187 0
107 114 116 137 139 188 0
107 114 117 137 140 189 0
107 114 118 137 141 190 0
107 114 92 137 94 101 0
107 115 116 138 139 191 0
107 115 117 138 140 192 0
107 115 118 138 141 193 0
107 115 92 138 94 102 0
107 116 117 139 140 194 0
107 116 118 139 141 195 0
107 116 92 139 94 103 0
107 117 118 140 141 196 0
107 117 92 140 94 104 0
107 118 92 141 94 105 0
108 109 110 142 143 152 0
108 109 111 142 144 153 0
108 109 112 142 145 154 0
108 109 113 142 146 155 0
108 109 114 142 147 156 0
108 109 115 142 148 157 0
108 109 116 142 149 158 0
108 109 117 142 150 159 0
108 109 118 142 151 160 0
108 109 92 142 95 96 0
108 110 111 143 144 161 0
108 110 112 143 145 162 0
108 110 113 143 146 163 0
108 110 114 143 147 164 0
108 110 115 143 148 165 0
108 110 116 143 149 166 0
108 110 117 143 150 167 0
108 110 118 143 151 168 0
108 110 92 143 95 97 0
108 111 112 144 145 169 0
108 111 113 144 146 170 0
108 111 114 144 147 171 0
108 111 115 144 148 172 0
108 111 116 144 149 173 0
108 111 117 144 150 174 0
108 111 118 144 151 175 0
108 111 92 144 95 98 0
108 112 113 145 146 176 0
108 112 114 145 147 177 0
108 112 115 145 148 178 0
108 112 116 145 149 179 0
108 112 117 145 150 180 0
108 112 118 145 151 181 0
108 112 92 145 95 99 0
108 113 114 146 147 182 0
108 113 115 146 148 183 0
108 113 116 146 149 184 0
108 113 117 146 150 185 0
108 113 118 146 151 186 0
108 113 92 146 95 100 0
108 114 115 147 148 187 0
108 114 116 147 149 188 0
108 114 117 147 150 189 0
108 114 118 147 151 190 0
108 114 92 147 95 101 0
108 115 116 148 149 191 0
108 115 117 148 150 192 0
108 115 118 148 151 193 0
108 115 92 148 95 102 0
108 116 117 149 150 194 0
108 116 118 149 151 195 0
108 116 92 149 95 103 0
108 117 118 150 151 196 0
108 117 92 150 95 104 0
108 118 92 151 95 105 0
109 110 111 152 153 161 0
109 110 112 152 154 162 0
109 110 113 152 155 163 0
109 110 114 152 156 164 0
109 110 115 152 157 165 0
109 110 116 152 158 166 0
109 110 117 152 159 167 0
109 110 118 152 160 168 0
109 110 92 152 96 97 0
109 111 112 153 154 169 0
109 111 113 153 155 170 0
109 111 114 153 156 171 0
109 111 115 153 157 172 0
109 111 116 153 158 173 0
109 111 117 153 159 174 0
109 111 118 153 160 175 0
109 111 92 153 96 98 0
109 112 113 154 155 176 0
109 112 114 154 156 177 0
109 112 115 154 157 178 0
109 112 116 154 158 179 0
109 112 117 154 159 180 0
109 112 118 154 160 181 0
109 112 92 154 96 99 0
109 113 114 155 156 182 0
109 113 115 155 157 183 0
109 113 116 155 158 184 0
109 113 117 155 159 185 0
109 113 118 155 160 186 0
109 113 92 155 96 100 0
109 114 115 156 157 187 0
109 114 116 156 158 188 0
109 114 117 156 159 189 0
109 114 118 156 160 190 0
109 114 92 156 96 101 0
109 115 116 157 158 191 0
109 115 117 157 159 192 0
109 115 118 157 160 193 0
109 115 92 157 96 102 0
109 116 117 158 159 194 0
109 116 118 158 160 195 0
109 116 92 158 96 103 0
109 117 118 159 160 196 0
109 117 92 159 96 104 0
109 118 92 160 96 105 0
110 111 112 161 162 169 0
110 111 113 161 163 170 0
110 111 114 161 164 171 0
110 111 115 161 165 172 0
110 111 116 161 166 173 0
110 111 117 161 167 174 0
110 111 118 161 168 175 0
110 111 92 161 97 98 0
110 112 113 162 163 176 0
110 112 114 162 164 177 0
110 112 115 162 165 178 0
110 112 116 162 166 179 0
110 112 117 162 167 180 0
110 112 118 162 168 181 0
110 112 92 162 97 99 0
110 113 114 163 164 182 0
110 113 115 163 165 183 0
110 113 116 163 166 184 0
110 113 117 163 167 185 0
110 113 118 163 168 186 0
110 113 92 163 97 100 0
110 114 115 164 165 187 0
110 114 116 164 166 188 0
110 114 117 164 167 189 0
110 114 118 164 168 190 0
110 114 92 164 97 101 0
110 115 116 165 166 191 0
110 115 117 165 167 192 0
110 115 118 165 168 193 0
110 115 92 165 97 102 0
110 116 117 166 167 194 0
110 116 118 166 168 195 0
110 116 92 166 97 103 0
110 117 118 167 168 196 0
110 117 92 167 97 104 0
110 118 92 168 97 105 0
111 112 113 169 170 176 0
111 112 114 169 171 177 0
111 112 115 169 172 178 0
111 112 116 169 173 179 0
111 112 117 169 174 180 0
111 112 118 169 175 181 0
111 112 92 169 98 99 0
111 113 114 170 171 182 0
111 113 115 170 172 183 0
111 113 116 170 173 184 0
111 113 117 170 174 185 0
111 113 118 170 175 186 0
111 113 92 170 98 100 0
111 114 115 171 172 187 0
111 114 116 171 173 188 0
111 114 117 171 174 189 0
111 114 118 171 175 190 0
111 114 92 171 98 101 0
111 115 116 172 173 191 0
111 115 117 172 174 192 0
111 115 118 172 175 193 0
111 115 92 172 98 102 0
111 116 117 173 174 194 0
111 116 118 173 175 195 0
111 116 92 173 98 103 0
111 117 118 174 175 196 0
111 117 92 174 98 104 0
111 118 92 175 98 105 0
112 113 114 176 177 182 0
112 113 115 176 178 183 0
112 113 116 176 179 184 0
112 113 117 176 180 185 0
112 113 118 176 181 186 0
112 113 92 176 99 100 0
112 114 115 177 178 187 0
112 114 116 177 179 188 0
112 114 117 177 180 189 0
112 114 118 177 181 190 0
112 114 92 177 99 101 0
112 115 116 178 179 191 0
112 115 117 178 180 192 0
112 115 118 178 181 193 0
112 115 92 178 99 102 0
112 116 117 179 180 194 0
112 116 118 179 181 195 0
112 116 92 179 99 103 0
112 117 118 180 181 196 0
112 117 92 180 99 104 0
112 118 92 181 99 105 0
113 114 115 182 183 187 0
113 114 116 182 184 188 0
113 114 117 182 185 189 0
113 114 118 182 186 190 0
113 114 92 182 100 101 0
113 115 116 183 184 191 0
113 115 117 183 185 192 0
113 115 118 183 186 193 0
113 115 92 183 100 102 0
113 116 117 184 185 194 0
113 116 118 184 186 195 0
113 116 92 184 100 103 0
113 117 118 185 186 196 0
113 117 92 185 100 104 0
113 118 92 186 100 105 0
114 115 116 187 188 191 0
114 115 117 187 189 192 0
114 115 118 187 190 193 0
114 115 92 187 101 102 0
114 116 117 188 189 194 0
114 116 118 188 190 195 0
114 116 92 188 101 103 0
114 117 118 189 190 196 0
114 117 92 189 101 104 0
114 118 92 190 101 105 0
115 116 117 191 192 194 0
115 116 118 191 193 195 0
115 116 92 191 102 103 0
115 117 118 192 193 196 0
115 117 92 192 102 104 0
115 118 92 193 102 105 0
116 117 118 194 195 196 0
116 117 92 194 103 104 0
116 118 92 195 103 105 0
117 118 92 196 104 105 0
119 120 121 131 132 142 0
119 120 122 131 133 143 0
119 120 123 131 134 144 0
119 120 124 131 135 145 0
119 120 125 131 136 146 0
119 120 126 131 137 147 0
119 120 127 131 138 148 0
119 120 128 131 139 149 0
119 120 129 131 140 150 0
119 120 130 131 141 151 0
119 120 93 131 94 95 0
119 120 106 131 107 108 0
119 121 122 132 133 152 0
119 121 123 132 134 153 0
119 121 124 132 135 154 0
119 121 125 132 136 155 0
119 121 126 132 137 156 0
119 121 127 132 138 157 0
119 121 128 132 139 158 0
119 121 129 132 140 159 0
119 121 130 132 141 160 0
119 121 93 132 94 96 0
119 121 106 132 107 109 0
119 122 123 133 134 161 0
119 122 124 133 135 162 0
119 122 125 133 136 163 0
119 122 126 133 137 164 0
119 122 127 133 138 165 0
119 122 128 133 139 166 0
119 122 129 133 140 167 0
119 122 130 133 141 168 0
119 122 93 133 94 97 0
119 122 106 133 107 110 0
119 123 124 134 135 169 0
119 123 125 134 136 170 0
119 123 126 134 137 171 0
119 123 127 134 138 172 0
119 123 128 134 139 173 0
119 123 129 134 140 174 0
119 123 130 134 141 175 0
119 123 93 134 94 98 0
119 123 106 134 107 111 0
119 124 125 135 136 176 0
119 124 126 135 137 177 0
119 124 127 135 138 178 0
119 124 128 135 139 179 0
119 124 129 135 140 180 0
119 124 130 135 141 181 0
119 124 93 135 94 99 0
119 124 106 135 107 112 0
119 125 126 136 137 182 0
119 125 127 136 138 183 0
119 125 128 136 139 184 0
119 125 129 136 140 185 0
119 125 130 136 141 186 0
119 125 93 136 94 100 0
119 125 106 136 107 113 0
119 126 127 137 138 187 0
119 126 128 137 139 188 0
119 126 129 137 140 189 0
119 126 130 137 141 190 0
119 126 93 137 94 101 0
119 126 106 137 107 114 0
119 127 128 138 139 191 0
119 127 129 138 140 192 0
119 127 130 138 141 193 0
119 127 93 138 94 102 0
119 127 106 138 107 115 0
119 128 129 139 140 194 0
119 128 130 139 141 195 0
119 128 93 139 94 103 0
119 128 106 139 107 116 0
119 129 130 140 141 196 0
119 129 93 140 94 104 0
119 129 106 140 107 117 0
119 130 93 141 94 105 0
119 130 106 141 107 118 0
119 93 106 94 107 92 0
120 121 122 142 143 152 0
120 121 123 142 144 153 0
120 121 124 142 145 154 0
120 121 125 142 146 155 0
120 121 126 142 147 156 0
120 121 127 142 148 157 0
120 121 128 142 149 158 0
120 121 129 142 150 159 0
120 121 130 142 151 160 0
120 121 93 142 95 96 0
120 121 106 142 108 109 0
120 122 123 143 144 161 0
120 122 124 143 145 162 0
120 122 125 143 146 163 0
120 122 126 143 147 164 0
120 122 127 143 148 165 0
120 122 128 143 149 166 0
120 122 129 143 150 167 0
120 122 130 143 151 168 0
120 122 93 143 95 97 0
120 122 106 143 108 110 0
120 123 124 144 145 169 0
120 123 125 144 146 170 0
120 123 126 144 147 171 0
120 123 127 144 148 172 0
120 123 128 144 149 173 0
120 123 129 144 150 174 0
120 123 130 144 151 175 0
120 123 93 144 95 98 0
120 123 106 144 108 111 0
120 124 125 145 146 176 0
120 124 126 145 147 177 0
120 124 127 145 148 178 0
120 124 128 145 149 179 0
120 124 129 145 150 180 0
120 124 130 145 151 181 0
120 124 93 145 95 99 0
120 124 106 145 108 112 0
120 125 126 146 147 182 0
120 125 127 146 148 183 0
120 125 128 146 149 184 0
120 125 129 146 150 185 0
120 125 130 146 151 186 0
120 125 93 146 95 100 0
120 125 106 146 108 113 0
120 126 127 147 148 187 0
120 126 128 147 149 188 0
120 126 129 147 150 189 0
120 126 130 147 151 190 0
120 126 93 147 95 101 0
120 126 106 147 108 114 0
120 127 128 148 149 191 0
120 127 129 148 150 192 0
120 127 130 148 151 193 0
120 127 93 148 95 102 0
120 127 106 148 108 115 0
120 128 129 149 150 194 0
120 128 130 149 151 195 0
120 128 93 149 95 103 0
120 128 106 149 108 116 0
120 129 130 150 151 196 0
120 129 93 150 95 104 0
120 129 106 150 108 117 0
120 130 93 151 95 105 0
120 130 106 151 108 118 0
120 93 106 95 108 92 0
121 122 123 152 153 161 0
121 122 124 152 154 162 0
121 122 125 152 155 163 0
121 122 126 152 156 164 0
121 122 127 152 157 165 0
121 122 128 152 158 166 0
121 122 129 152 159 167 0
121 122 130 152 160 168 0
121 122 93 152 96 97 0
121 122 106 152 109 110 0
121 123 124 153 154 169 0
121 123 125 153 155 170 0
121 123 126 153 156 171 0
121 123 127 153 157 172 0
121 123 128 153 158 173 0
121 123 129 153 159 174 0
121 123 130 153 160 175 0
121 123 93 153 96 98 0
121 123 106 153 109 111 0
121 124 125 154 155 176 0
121 124 126 154 156 177 0
121 124 127 154 157 178 0
121 124 128 154 158 179 0
121 124 129 154 159 180 0
121 124 130 154 160 181 0
121 124 93 154 96 99 0
121 124 106 154 109 112 0
121 125 126 155 156 182 0
121 125 127 155 157 183 0
121 125 128 155 158 184 0
121 125 129 155 159 185 0
121 125 130 155 160 186 0
121 125 93 155 96 100 0
121 125 106 155 109 113 0
121 126 127 156 157 187 0
121 126 128 156 158 188 0
121 126 129 156 159 189 0
121 126 130 156 160 190 0
121 126 93 156 96 101 0
121 126 106 156 109 114 0
121 127 128 157 158 191 0
121 127 129 157 159 192 0
121 127 130 157 160 193 0
121 127 93 157 96 102 0
121 127 106 157 109 115 0
121 128 129 158 159 194 0
121 128 130 158 160 195 0
121 128 93 158 96 103 0
121 128 106 158 109 116 0
121 129 130 159 160 196 0
121 129 93 159 96 104 0
121 129 106 159 109 117 0
121 130 93 160 96 105 0
121 130 106 160 109 118 0
121 93 106 96 109 92 0
122 123 124 161 162 169 0
122 123 125 161 163 170 0
122 123 126 161 164 171 0
122 123 127 161 165 172 0
122 123 128 161 166 173 0
122 123 129 161 167 174 0
122 123 130 161 168 175 0
122 123 93 161 97 98 0
122 123 106 161 110 111 0
122 124 125 162 163 176 0
122 124 126 162 164 177 0
122 124 127 162 165 178 0
122 124 128 162 166 179 0
122 124 129 162 167 180 0
122 124 130 162 168 181 0
122 124 93 162 97 99 0
122 124 106 162 110 112 0
122 125 126 163 164 182 0
122 125 127 163 165 183 0
122 125 128 163 166 184 0
122 125 129 163 167 185 0
122 125 130 163 168 186 0
122 125 93 163 97 100 0
122 125 106 163 110 113 0
122 126 127 164 165 187 0
122 126 128 164 166 188 0
122 126 129 164 167 189 0
122 126 130 164 168 190 0
122 126 93 164 97 101 0
122 126 106 164 110 114 0
122 127 128 165 166 191 0
122 127 129 165 167 192 0
122 127 130 165 168 193 0
122 127 93 165 97 102 0
122 127 106 165 110 115 0
122 128 129 166 167 194 0
122 128 130 166 168 195 0
122 128 93 166 97 103 0
122 128 106 166 110 116 0
122 129 130 167 168 196 0
122 129 93 167 97 104 0
122 129 106 167 110 117 0
122 130 93 168 97 105 0
122 130 106 168 110 118 0
122 93 106 97 110 92 0
123 124 125 169 170 176 0
123 124 126 169 171 177 0
123 124 127 169 172 178 0
123 124 128 169 173 179 0
123 124 129 169 174 180 0
123 124 130 169 175 181 0
123 124 93 169 98 99 0
123 124 106 169 111 112 0
123 125 126 170 171 182 0
123 125 127 170 172 183 0
123 125 128 170 173 184 0
123 125 129 170 174 185 0
123 125 130 170 175 186 0
123 125 93 170 98 100 0
123 125 106 170 111 113 0
123 126 127 171 172 187 0
123 126 128 171 173 188 0
123 126 129 171 174 189 0
123 126 130 171 175 190 0
123 126 93 171 98 101 0
123 126 106 171 111 114 0
123 127 128 172 173 191 0
123 127 129 172 174 192 0
123 127 130 172 175 193 0
123 127 93 172 98 102 0
123 127 106 172 111 115 0
123 128 129 173 174 194 0
123 128 130 173 175 195 0
123 128 93 173 98 103 0
123 128 106 173 111 116 0
123 129 130 174 175 196 0
123 129 93 174 98 104 0
123 129 106 174 111 117 0
123 130 93 175 98 105 0
123 130 106 175 111 118 0
123 93 106 98 111 92 0
124 125 126 176 177 182 0
124 125 127 176 178 183 0
124 125 128 176 179 184 0
124 125 129 176 180 185 0
124 125 130 176 181 186 0
124 125 93 176 99 100 0
124 125 106 176 112 113 0
124 126 127 177 178 187 0
124 126 128 177 179 188 0
124 126 129 177 180 189 0
124 126 130 177 181 190 0
124 126 93 177 99 101 0
124 126 106 177 112 114 0
124 127 128 178 179 191 0
124 127 129 178 180 192 0
124 127 130 178 181 193 0
124 127 93 178 99 102 0
124 127 106 178 112 115 0
124 128 129 179 180 194 0
124 128 130 179 181 195 0
124 128 93 179 99 103 0
124 128 106 179 112 116 0
124 129 130 180 181 196 0
124 129 93 180 99 104 0
124 129 106 180 112 117 0
124 130 93 181 99 105 0
124 130 106 181 112 118 0
124 93 106 99 112 92 0
125 126 127 182 183 187 0
125 126 128 182 184 188 0
125 126 129 182 185 189 0
125 126 130 182 186 190 0
125 126 93 182 100 101 0
125 126 106 182 113 114 0
125 127 128 183 184 191 0
125 127 129 183 185 192 0
125 127 130 183 186 193 0
125 127 93 183 100 102 0
125 127 106 183 113 115 0
125 128 129 184 185 194 0
125 128 130 184 186 195 0
125 128 93 184 100 103 0
125 128 106 184 113 116 0
125 129 130 185 186 196 0
125 129 93 185 100 104 0
125 129 106 185 113 117 0
125 130 93 186 100 105 0
125 130 106 186 113 118 0
125 93 106 100 113 92 0
126 127 128 187 188 191 0
126 127 129 187 189 192 0
126 127 130 187 190 193 0
126 127 93 187 101 102 0
126 127 106 187 114 115 0
126 128 129 188 189 194 0
126 128 130 188 190 195 0
126 128 93 188 101 103 0
126 128 106 188 114 116 0
126 129 130 189 190 196 0
126 129 93 189 101 104 0
126 129 106 189 114 117 0
126 130 93 190 101 105 0
126 130 106 190 114 118 0
126 93 106 101 114 92 0
127 128 129 191 192 194 0
127 128 130 191 193 195 0
127 128 93 191 102 103 0
127 128 106 191 115 116 0
127 129 130 192 193 196 0
127 129 93 192 102 104 0
127 129 106 192 115 117 0
127 130 93 193 102 105 0
127 130 106 193 115 118 0
127 93 106 102 115 92 0
128 129 130 194 195 196 0
128 129 93 194 103 104 0
128 129 106 194 116 117 0
128 130 93 195 103 105 0
128 130 106 195 116 118 0
128 93 106 103 116 92 0
129 130 93 196 104 105 0
129 130 106 196 117 118 0
129 93 106 104 117 92 0
130 93 106 105 118 92 0
131 132 133 142 143 152 0
131 132 134 142 144 153 0
131 132 135 142 145 154 0
131 132 136 142 146 155 0
131 132 137 142 147 156 0
131 132 138 142 148 157 0
131 132 139 142 149 158 0
131 132 140 142 150 159 0
131 132 141 142 151 160 0
131 132 94 142 95 96 0
131 132 107 142 108 109 0
131 132 119 142 120 121 0
131 133 134 143 144 161 0
131 133 135 143 145 162 0
131 133 136 143 146 163 0
131 133 137 143 147 164 0
131 133 138 143 148 165 0
131 133 139 143 149 166 0
131 133 140 143 150 167 0
131 133 141 143 151 168 0
131 133 94 143 95 97 0
131 133 107 143 108 110 0
131 133 119 143 120 122 0
131 134 135 144 145 169 0
131 134 136 144 146 170 0
131 134 137 144 147 171 0
131 134 138 144 148 172 0
131 134 139 144 149 173 0
131 134 140 144 150 174 0
131 134 141 144 151 175 0
131 134 94 144 95 98 0
131 134 107 144 108 111 0
131 134 119 144 120 123 0
131 135 136 145 146 176 0
131 135 137 145 147 177 0
131 135 138 145 148 178 0
131 135 139 145 149 179 0
131 135 140 145 150 180 0
131 135 141 145 151 181 0
131 135 94 145 95 99 0
131 135 107 145 108 112 0
131 135 119 145 120 124 0
131 136 137 146 147 182 0
131 136 138 146 148 183 0
131 136 139 146 149 184 0
131 136 140 146 150 185 0
131 136 141 146 151 186 0
131 136 94 146 95 100 0
131 136 107 146 108 113 0
131 136 119 146 120 125 0
131 137 138 147 148 187 0
131 137 139 147 149 188 0
131 137 140 147 150 189 0
131 137 141 147 151 190 0
131 137 94 147 95 101 0
131 137 107 147 108 114 0
131 137 119 147 120 126 0
131 138 139 148 149 191 0
131 138 140 148 150 192 0
131 138 141 148 151 193 0
131 138 94 148 95 102 0
131 138 107 148 108 115 0
131 138 119 148 120 127 0
131 139 140 149 150 194 0
131 139 141 149 151 195 0
131 139 94 149 95 103 0
131 139 107 149 108 116 0
131 139 119 149 120 128 0
131 140 141 150 151 196 0
131 140 94 150 95 104 0
131 140 107 150 108 117 0
131 140 119 150 120 129 0
131 141 94 151 95 105 0
131 141 107 151 108 118 0
131 141 119 151 120 130 0
131 94 107 95 108 92 0
131 94 119 95 120 93 0
131 107 119 108 120 106 0
132 133 134 152 153 161 0
132 133 135 152 154 162 0
132 133 136 152 155 163 0
132 133 137 152 156 164 0
132 133 138 152 157 165 0
132 133 139 152 158 166 0
132 133 140 152 159 167 0
132 133 141 152 160 168 0
132 133 94 152 96 97 0
132 133 107 152 109 110 0
132 133 119 152 121 122 0
132 134 135 153 154 169 0
132 134 136 153 155 170 0
132 134 137 153 156 171 0
132 134 138 153 157 172 0
132 134 139 153 158 173 0
132 134 140 153 159 174 0
132 134 141 153 160 175 0
132 134 94 153 96 98 0
132 134 107 153 109 111 0
132 134 119 153 121 123 0
132 135 136 154 155 176 0
132 135 137 154 156 177 0
132 135 138 154 157 178 0
132 135 139 154 158 179 0
132 135 140 154 159 180 0
132 135 141 154 160 181 0
132 135 94 154 96 99 0
132 135 107 154 109 112 0
132 135 119 154 121 124 0
132 136 137 155 156 182 0
132 136 138 155 157 183 0
132 136 139 155 158 184 0
132 136 140 155 159 185 0
132 136 141 155 160 186 0
132 136 94 155 96 100 0
132 136 107 155 109 113 0
132 136 119 155 121 125 0
132 137 138 156 157 187 0
132 137 139 156 158 188 0
132 137 140 156 159 189 0
132 137 141 156 160 190 0
132 137 94 156 96 101 0
132 137 107 156 109 114 0
132 137 119 156 121 126 0
132 138 139 157 158 191 0
132 138 140 157 159 192 0
132 138 141 157 160 193 0
132 138 94 157 96 102 0
132 138 107 157 109 115 0
132 138 119 157 121 127 0
132 139 140 158 159 194 0
132 139 141 158 160 195 0
132 139 94 158 96 103 0
132 139 107 158 109 116 0
132 139 119 158 121 128 0
132 140 141 159 160 196 0
132 140 94 159 96 104 0
132 140 107 159 109 117 0
132 140 119 159 121 129 0
132 141 94 160 96 105 0
132 141 107 160 109 118 0
132 141 119 160 121 130 0
132 94 107 96 109 92 0
132 94 119 96 121 93 0
132 107 119 109 121 106 0
133 134 135 161 162 169 0
133 134 136 161 163 170 0
133 134 137 161 164 171 0
133 134 138 161 165 172 0
133 134 139 161 166 173 0
133 134 140 161 167 174 0
133 134 141 161 168 175 0
133 134 94 161 97 98 0
133 134 107 161 110 111 0
133 134 119 161 122 123 0
133 135 136 162 163 176 0
133 135 137 162 164 177 0
133 135 138 162 165 178 0
133 135 139 162 166 179 0
133 135 140 162 167 180 0
133 135 141 162 168 181 0
133 135 94 162 97 99 0
133 135 107 162 110 112 0
133 135 119 162 122 124 0
133 136 137 163 164 182 0
133 136 138 163 165 183 0
133 136 139 163 166 184 0
133 136 140 163 167 185 0
133 136 141 163 168 186 0
133 136 94 163 97 100 0
133 136 107 163 110 113 0
133 136 119 163 122 125 0
133 137 138 164 165 187 0
133 137 139 164 166 188 0
133 137 140 164 167 189 0
133 137 141 164 168 190 0
133 137 94 164 97 101 0
133 137 107 164 110 114 0
133 137 119 164 122 126 0
133 138 139 165 166 191 0
133 138 140 165 167 192 0
133 138 141 165 168 193 0
133 138 94 165 97 102 0
133 138 107 165 110 115 0
133 138 119 165 122 127 0
133 139 140 166 167 194 0
133 139 141 166 168 195 0
133 139 94 166 97 103 0
133 139 107 166 110 116 0
133 139 119 166 122 128 0
133 140 141 167 168 196 0
133 140 94 167 97 104 0
133 140 107 167 110 117 0
133 140 119 167 122 129 0
133 141 94 168 97 105 0
133 141 107 168 110 118 0
133 141 119 168 122 130 0
133 94 107 97 110 92 0
133 94 119 97 122 93 0
133 107 119 110 122 106 0
134 135 136 169 170 176 0
134 135 137 169 171 177 0
134 135 138 169 172 178 0
134 135 139 169 173 179 0
134 135 140 169 174 180 0
134 135 141 169 175 181 0
134 135 94 169 98 99 0
134 135 107 169 111 112 0
134 135 119 169 123 124 0
134 136 137 170 171 182 0
134 136 138 170 172 183 0
134 136 139 170 173 184 0
134 136 140 170 174 185 0
134 136 141 170 175 186 0
134 136 94 170 98 100 0
134 136 107 170 111 113 0
134 136 119 170 123 125 0
134 137 138 171 172 187 0
134 137 139 171 173 188 0
134 137 140 171 174 189 0
134 137 141 171 175 190 0
134 137 94 171 98 101 0
134 137 107 171 111 114 0
134 137 119 171 123 126 0
134 138 139 172 173 191 0
134 138 140 172 174 192 0
134 138 141 172 175 193 0
134 138 94 172 98 102 0
134 138 107 172 111 115 0
134 138 119 172 123 127 0
134 139 140 173 174 194 0
134 139 141 173 175 195 0
134 139 94 173 98 103 0
134 139 107 173 111 116 0
134 139 119 173 123 128 0
134 140 141 174 175 196 0
134 140 94 174 98 104 0
134 140 107 174 111 117 0
134 140 119 174 123 129 0
134 141 94 175 98 105 0
134 141 107 175 111 118 0
134 141 119 175 123 130 0
134 94 107 98 111 92 0
134 94 119 98 123 93 0
134 107 119 111 123 106 0
135 136 137 176 177 182 0
135 136 138 176 178 183 0
135 136 139 176 179 184 0
135 136 140 176 180 185 0
135 136 141 176 181 186 0
135 136 94 176 99 100 0
135 136 107 176 112 113 0
135 136 119 176 124 125 0
135 137 138 177 178 187 0
135 137 139 177 179 188 0
135 137 140 177 180 189 0
135 137 141 177 181 190 0
135 137 94 177 99 101 0
135 137 107 177 112 114 0
135 137 119 177 124 126 0
135 138 139 178 179 191 0
135 138 140 178 180 192 0
135 138 141 178 181 193 0
135 138 94 178 99 102 0
135 138 107 178 112 115 0
135 138 119 178 124 127 0
135 139 140 179 180 194 0
135 139 141 179 181 195 0
135 139 94 179 99 103 0
135 139 107 179 112 116 0
135 139 119 179 124 128 0
135 140 141 180 181 196 0
135 140 94 180 99 104 0
135 140 107 180 112 117 0
135 140 119 180 124 129 0
135 141 94 181 99 105 0
135 141 107 181 112 118 0
135 141 119 181 124 130 0
135 94 107 99 112 92 0
135 94 119 99 124 93 0
135 107 119 112 124 106 0
136 137 138 182 183 187 0
136 137 139 182 184 188 0
136 137 140 182 185 189 0
136 137 141 182 186 190 0
136 137 94 182 100 101 0
136 137 107 182 113 114 0
136 137 119 182 125 126 0
136 138 139 183 184 191 0
136 138 140 183 185 192 0
136 138 141 183 186 193 0
136 138 94 183 100 102 0
136 138 107 183 113 115 0
136 138 119 183 125 127 0
136 139 140 184 185 194 0
136 139 141 184 186 195 0
136 139 94 184 100 103 0
136 139 107 184 113 116 0
136 139 119 184 125 128 0
136 140 141 185 186 196 0
136 140 94 185 100 104 0
136 140 107 185 113 117 0
136 140 119 185 125 129 0
136 141 94 186 100 105 0
136 141 107 186 113 118 0
136 141 119 186 125 130 0
136 94 107 100 113 92 0
136 94 119 100 125 93 0
136 107 119 113 125 106 0
137 138 139 187 188 191 0
137 138 140 187 189 192 0
137 138 141 187 190 193 0
137 138 94 187 101 102 0
137 138 107 187 114 115 0
137 138 119 187 126 127 0
137 139 140 188 189 194 0
137 139 141 188 190 195 0
137 139 94 188 101 103 0
137 139 107 188 114 116 0
137 139 119 188 126 128 0
137 140 141 189 190 196 0
137 140 94 189 101 104 0
137 140 107 189 114 117 0
137 140 119 189 126 129 0
137 141 94 190 101 105 0
137 141 107 190 114 118 0
137 141 119 190 126 130 0
137 94 107 101 114 92 0
137 94 119 101 126 93 0
137 107 119 114 126 106 0
138 139 140 191 192 194 0
138 139 141 191 193 195 0
138 139 94 191 102 103 0
138 139 107 191 115 116 0
138 139 119 191 127 128 0
138 140 141 192 193 196 0
138 140 94 192 102 104 0
138 140 107 192 115 117 0
138 140 119 192 127 129 0
138 141 94 193 102 105 0
138 141 107 193 115 118 0
138 141 119 193 127 130 0
138 94 107 102 115 92 0
138 94 119 102 127 93 0
138 107 119 115 127 106 0
139 140 141 194 195 196 0
139 140 94 194 103 104 0
139 140 107 194 116 117 0
139 140 119 194 128 129 0
139 141 94 195 103 105 0
139 141 107 195 116 118 0
139 141 119 195 128 130 0
139 94 107 103 116 92 0
139 94 119 103 128 93 0
139 107 119 116 128 106 0
140 141 94 196 104 105 0
140 141 107 196 117 118 0
140 141 119 196 129 130 0
140 94 107 104 117 92 0
140 94 119 104 129 93 0
140 107 119 117 129 106 0
141 94 107 105 118 92 0
141 94 119 105 130 93 0
141 107 119 118 130 106 0
94 107 119 92 93 106 0
142 143 144 152 153 161 0
142 143 145 152 154 162 0
142 143 146 152 155 163 0
142 143 147 152 156 164 0
142 143 148 152 157 165 0
142 143 149 152 158 166 0
142 143 150 152 159 167 0
142 143 151 152 160 168 0
142 143 95 152 96 97 0
142 143 108 152 109 110 0
142 143 120 152 121 122 0
142 143 131 152 132 133 0
142 144 145 153 154 169 0
142 144 146 153 155 170 0
142 144 147 153 156 171 0
142 144 148 153 157 172 0
142 144 149 153 158 173 0
142 144 150 153 159 174 0
142 144 151 153 160 175 0
142 144 95 153 96 98 0
142 144 108 153 109 111 0
142 144 120 153 121 123 0
142 144 131 153 132 134 0
142 145 146 154 155 176 0
142 145 147 154 156 177 0
142 145 148 154 157 178 0
142 145 149 154 158 179 0
142 145 150 154 159 180 0
142 145 151 154 160 181 0
142 145 95 154 96 99 0
142 145 108 154 109 112 0
142 145 120 154 121 124 0
142 145 131 154 132 135 0
142 146 147 155 156 182 0
142 146 148 155 157 183 0
142 146 149 155 158 184 0
142 146 150 155 159 185 0
142 146 151 155 160 186 0
142 146 95 155 96 100 0
142 146 108 155 109 113 0
142 146 120 155 121 125 0
142 146 131 155 132 136 0
142 147 148 156 157 187 0
142 147 149 156 158 188 0
142 147 150 156 159 189 0
142 147 151 156 160 190 0
142 147 95 156 96 101 0
142 147 108 156 109 114 0
142 147 120 156 121 126 0
142 147 131 156 132 137 0
142 148 149 157 158 191 0
142 148 150 157 159 192 0
142 148 151 157 160 193 0
142 148 95 157 96 102 0
142 148 108 157 109 115 0
142 148 120 157 121 127 0
142 148 131 157 132 138 0
142 149 150 158 159 194 0
142 149 151 158 160 195 0
142 149 95 158 96 103 0
142 149 108 158 109 116 0
142 149 120 158 121 128 0
142 149 131 158 132 139 0
142 150 151 159 160 196 0
142 150 95 159 96 104 0
142 150 108 159 109 117 0
142 150 120 159 121 129 0
142 150 131 159 132 140 0
142 151 95 160 96 105 0
142 151 108 160 109 118 0
142 151 120 160 121 130 0
142 151 131 160 132 141 0
142 95 108 96 109 92 0
142 95 120 96 121 93 0
142 95 131 96 132 94 0
142 108 120 109 121 106 0
142 108 131 109 132 107 0
142 120 131 121 132 119 0
143 144 145 161 162 169 0
143 144 146 161 163 170 0
143 144 147 161 164 171 0
143 144 148 161 165 172 0
143 144 149 161 166 173 0
143 144 150 161 167 174 0
143 144 151 161 168 175 0
143 144 95 161 97 98 0
143 144 108 161 110 111 0
143 144 120 161 122 123 0
143 144 131 161 133 134 0
143 145 146 162 163 176 0
143 145 147 162 164 177 0
143 145 148 162 165 178 0
143 145 149 162 166 179 0
143 145 150 162 167 180 0
143 145 151 162 168 181 0
143 145 95 162 97 99 0
143 145 108 162 110 112 0
143 145 120 162 122 124 0
143 145 131 162 133 135 0
143 146 147 163 164 182 0
143 146 148 163 165 183 0
143 146 149 163 166 184 0
143 146 150 163 167 185 0
143 146 151 163 168 186 0
143 146 95 163 97 100 0
143 146 108 163 110 113 0
143 146 120 163 122 125 0
143 146 131 163 133 136 0
143 147 148 164 165 187 0
143 147 149 164 166 188 0
143 147 150 164 167 189 0
143 147 151 164 168 190 0
143 147 95 164 97 101 0
143 147 108 164 110 114 0
143 147 120 164 122 126 0
143 147 131 164 133 137 0
143 148 149 165 166 191 0
143 148 150 165 167 192 0
143 148 151 165 168 193 0
143 148 95 165 97 102 0
143 148 108 165 110 115 0
143 148 120 165 122 127 0
143 148 131 165 133 138 0
143 149 150 166 167 194 0
143 149 151 166 168 195 0
143 149 95 166 97 103 0
143 149 108 166 110 116 0
143 149 120 166 122 128 0
143 149 131 166 133 139 0
143 150 151 167 168 196 0
143 150 95 167 97 104 0
143 150 108 167 110 117 0
143 150 120 167 122 129 0
143 150 131 167 133 140 0
143 151 95 168 97 105 0
143 151 108 168 110 118 0
143 151 120 168 122 130 0
143 151 131 168 133 141 0
143 95 108 97 110 92 0
143 95 120 97 122 93 0
143 95 131 97 133 94 0
143 108 120 110 122 106 0
143 108 131 110 133 107 0
143 120 131 122 133 119 0
144 145 146 169 170 176 0
144 145 147 169 171 177 0
144 145 148 169 172 178 0
144 145 149 169 173 179 0
144 145 150 169 174 180 0
144 145 151 169 175 181 0
144 145 95 169 98 99 0
144 145 108 169 111 112 0
144 145 120 169 123 124 0
144 145 131 169 134 135 0
144 146 147 170 171 182 0
144 146 148 170 172 183 0
144 146 149 170 173 184 0
144 146 150 170 174 185 0
144 146 151 170 175 186 0
144 146 95 170 98 100 0
144 146 108 170 111 113 0
144 146 120 170 123 125 0
144 146 131 170 134 136 0
144 147 148 171 172 187 0
144 147 149 171 173 188 0
144 147 150 171 174 189 0
144 147 151 171 175 190 0
144 147 95 171 98 101 0
144 147 108 171 111 114 0
144 147 120 171 123 126 0
144 147 131 171 134 137 0
144 148 149 172 173 191 0
144 148 150 172 174 192 0
144 148 151 172 175 193 0
144 148 95 172 98 102 0
144 148 108 172 111 115 0
144 148 120 172 123 127 0
144 148 131 172 134 138 0
144 149 150 173 174 194 0
144 149 151 173 175 195 0
144 149 95 173 98 103 0
144 149 108 173 111 116 0
144 149 120 173 123 128 0
144 149 131 173 134 139 0
144 150 151 174 175 196 0
144 150 95 174 98 104 0
144 150 108 174 111 117 0
144 150 120 174 123 129 0
144 150 131 174 134 140 0
144 151 95 175 98 105 0
144 151 108 175 111 118 0
144 151 120 175 123 130 0
144 151 131 175 134 141 0
144 95 108 98 111 92 0
144 95 120 98 123 93 0
144 95 131 98 134 94 0
144 108 120 111 123 106 0
144 108 131 111 134 107 0
144 120 131 123 134 119 0
145 146 147 176 177 182 0
145 146 148 176 178 183 0
145 146 149 176 179 184 0
145 146 150 176 180 185 0
145 146 151 176 181 186 0
145 146 95 176 99 100 0
145 146 108 176 112 113 0
145 146 120 176 124 125 0
145 146 131 176 135 136 0
145 147 148 177 178 187 0
145 147 149 177 179 188 0
145 147 150 177 180 189 0
145 147 151 177 181 190 0
145 147 95 177 99 101 0
145 147 108 177 112 114 0
145 147 120 177 124 126 0
145 147 131 177 135 137 0
145 148 149 178 179 191 0
145 148 150 178 180 192 0
145 148 151 178 181 193 0
145 148 95 178 99 102 0
145 148 108 178 112 115 0
145 148 120 178 124 127 0
145 148 131 178 135 138 0
145 149 150 179 180 194 0
145 149 151 179 181 195 0
145 149 95 179 99 103 0
145 149 108 179 112 116 0
145 149 120 179 124 128 0
145 149 131 179 135 139 0
145 150 151 180 181 196 0
145 150 95 180 99 104 0
145 150 108 180 112 117 0
145 150 120 180 124 129 0
145 150 131 180 135 140 0
145 151 95 181 99 105 0
145 151 108 181 112 118 0
145 151 120 181 124 130 0
145 151 131 181 135 141 0
145 95 108 99 112 92 0
145 95 120 99 124 93 0
145 95 131 99 135 94 0
145 108 120 112 124 106 0
145 108 131 112 135 107 0
145 120 131 124 135 119 0
146 147 148 182 183 187 0
146 147 149 182 184 188 0
146 147 150 182 185 189 0
146 147 151 182 186 190 0
146 147 95 182 100 101 0
146 147 108 182 113 114 0
146 147 120 182 125 126 0
146 147 131 182 136 137 0
146 148 149 183 184 191 0
146 148 150 183 185 192 0
146 148 151 183 186 193 0
146 148 95 183 100 102 0
146 148 108 183 113 115 0
146 148 120 183 125 127 0
146 148 131 183 136 138 0
146 149 150 184 185 194 0
146 149 151 184 186 195 0
146 149 95 184 100 103 0
146 149 108 184 113 116 0
146 149 120 184 125 128 0
146 149 131 184 136 139 0
146 150 151 185 186 196 0
146 150 95 185 100 104 0
146 150 108 185 113 117 0
146 150 120 185 125 129 0
146 150 131 185 136 140 0
146 151 95 186 100 105 0
146 151 108 186 113 118 0
146 151 120 186 125 130 0
146 151 131 186 136 141 0
146 95 108 100 113 92 0
146 95 120 100 125 93 0
146 95 131 100 136 94 0
146 108 120 113 125 106 0
146 108 131 113 136 107 0
146 120 131 125 136 119 0
147 148 149 187 188 191 0
147 148 150 187 189 192 0
147 148 151 187 190 193 0
147 148 95 187 101 102 0
147 148 108 187 114 115 0
147 148 120 187 126 127 0
147 148 131 187 137 138 0
147 149 150 188 189 194 0
147 149 151 188 190 195 0
147 149 95 188 101 103 0
147 149 108 188 114 116 0
147 149 120 188 126 128 0
147 149 131 188 137 139 0
147 150 151 189 190 196 0
147 150 95 189 101 104 0
147 150 108 189 114 117 0
147 150 120 189 126 129 0
147 150 131 189 137 140 0
147 151 95 190 101 105 0
147 151 108 190 114 118 0
147 151 120 190 126 130 0
147 151 131 190 137 141 0
147 95 108 101 114 92 0
147 95 120 101 126 93 0
147 95 131 101 137 94 0
147 108 120 114 126 106 0
147 108 131 114 137 107 0
147 120 131 126 137 119 0
148 149 150 191 192 194 0
148 149 151 191 193 195 0
148 149 95 191 102 103 0
148 149 108 191 115 116 0
148 149 120 191 127 128 0
148 149 131 191 138 139 0
148 150 151 192 193 196 0
148 150 95 192 102 104 0
148 150 108 192 115 117 0
148 150 120 192 127 129 0
148 150 131 192 138 140 0
148 151 95 193 102 105 0
148 151 108 193 115 118 0
148 151 120 193 127 130 0
148 151 131 193 138 141 0
148 95 108 102 115 92 0
148 95 120 102 127 93 0
148 95 131 102 138 94 0
148 108 120 115 127 106 0
148 108 131 115 138 107 0
148 120 131 127 138 119 0
149 150 151 194 195 196 0
149 150 95 194 103 104 0
149 150 108 194 116 117 0
149 150 120 194 128 129 0
149 150 131 194 139 140 0
149 151 95 195 103 105 0
149 151 108 195 116 118 0
149 151 120 195 128 130 0
149 151 131 195 139 141 0
149 95 108 103 116 92 0
149 95 120 103 128 93 0
149 95 131 103 139 94 0
149 108 120 116 128 106 0
149 108 131 116 139 107 0
149 120 131 128 139 119 0
150 151 95 196 104 105 0
150 151 108 196 117 118 0
150 151 120 196 129 130 0
150 151 131 196 140 141 0
150 95 108 104 117 92 0
150 95 120 104 129 93 0
150 95 131 104 140 94 0
150 108 120 117 129 106 0
150 108 131 117 140 107 0
150 120 131 129 140 119 0
151 95 108 105 118 92 0
151 95 120 105 130 93 0
151 95 131 105 141 94 0
151 108 120 118 130 106 0
151 108 131 118 141 107 0
151 120 131 130 141 119 0
95 108 120 92 93 106 0
95 108 131 92 94 107 0
95 120 131 93 94 119 0
108 120 131 106 107 119 0
152 153 154 161 162 169 0
152 153 155 161 163 170 0
152 153 156 161 164 171 0
152 153 157 161 165 172 0
152 153 158 161 166 173 0
152 153 159 161 167 174 0
152 153 160 161 168 175 0
152 153 96 161 97 98 0
152 153 109 161 110 111 0
152 153 121 161 122 123 0
152 153 132 161 133 134 0
152 153 142 161 143 144 0
152 154 155 162 163 176 0
152 154 156 162 164 177 0
152 154 157 162 165 178 0
152 154 158 162 166 179 0
152 154 159 162 167 180 0
152 154 160 162 168 181 0
152 154 96 162 97 99 0
152 154 109 162 110 112 0
152 154 121 162 122 124 0
152 154 132 162 133 135 0
152 154 142 162 143 145 0
152 155 156 163 164 182 0
152 155 157 163 165 183 0
152 155 158 163 166 184 0
152 155 159 163 167 185 0
152 155 160 163 168 186 0
152 155 96 163 97 100 0
152 155 109 163 110 113 0
152 155 121 163 122 125 0
152 155 132 163 133 136 0
152 155 142 163 143 146 0
152 156 157 164 165 187 0
152 156 158 164 166 188 0
152 156 159 164 167 189 0
152 156 160 164 168 190 0
152 156 96 164 97 101 0
152 156 109 164 110 114 0
152 156 121 164 122 126 0
152 156 132 164 133 137 0
152 156 142 164 143 147 0
152 157 158 165 166 191 0
152 157 159 165 167 192 0
152 157 160 165 168 193 0
152 157 96 165 97 102 0
152 157 109 165 110 115 0
152 157 121 165 122 127 0
152 157 132 165 133 138 0
152 157 142 165 143 148 0
152 158 159 166 167 194 0
152 158 160 166 168 195 0
152 158 96 166 97 103 0
152 158 109 166 110 116 0
152 158 121 166 122 128 0
152 158 132 166 133 139 0
152 158 142 166 143 149 0
152 159 160 167 168 196 0
152 159 96 167 97 104 0
152 159 109 167 110 117 0
152 159 121 167 122 129 0
152 159 132 167 133 140 0
152 159 142 167 143 150 0
152 160 96 168 97 105 0
152 160 109 168 110 118 0
152 160 121 168 122 130 0
152 160 132 168 133 141 0
152 160 142 168 143 151 0
152 96 109 97 110 92 0
152 96 121 97 122 93 0
152 96 132 97 133 94 0
152 96 142 97 143 95 0
152 109 121 110 122 106 0
152 109 132 110 133 107 0
152 109 142 110 143 108 0
152 121 132 122 133 119 0
152 121 142 122 143 120 0
152 132 142 133 143 131 0
153 154 155 169 170 176 0
153 154 156 169 171 177 0
153 154 157 169 172 178 0
153 154 158 169 173 179 0
153 154 159 169 174 180 0
153 154 160 169 175 181 0
153 154 96 169 98 99 0
153 154 109 169 111 112 0
153 154 121 169 123 124 0
153 154 132 169 134 135 0
153 154 142 169 144 145 0
153 155 156 170 171 182 0
153 155 157 170 172 183 0
153 155 158 170 173 184 0
153 155 159 170 174 185 0
153 155 160 170 175 186 0
153 155 96 170 98 100 0
153 155 109 170 111 113 0
153 155 121 170 123 125 0
153 155 132 170 134 136 0
153 155 142 170 144 146 0
153 156 157 171 172 187 0
153 156 158 171 173 188 0
153 156 159 171 174 189 0
153 156 160 171 175 190 0
153 156 96 171 98 101 0
153 156 109 171 111 114 0
153 156 121 171 123 126 0
153 156 132 171 134 137 0
153 156 142 171 144 147 0
153 157 158 172 173 191 0
153 157 159 172 174 192 0
153 157 160 172 175 193 0
153 157 96 172 98 102 0
153 157 109 172 111 115 0
153 157 121 172 123 127 0
153 157 132 172 134 138 0
153 157 142 172 144 148 0
153 158 159 173 174 194 0
153 158 160 173 175 195 0
153 158 96 173 98 103 0
153 158 109 173 111 116 0
153 158 121 173 123 128 0
153 158 132 173 134 139 0
153 158 142 173 144 149 0
153 159 160 174 175 196 0
153 159 96 174 98 104 0
153 159 109 174 111 117 0
153 159 121 174 123 129 0
153 159 132 174 134 140 0
153 159 142 174 144 150 0
153 160 96 175 98 105 0
153 160 109 175 111 118 0
153 160 121 175 123 130 0
153 160 132 175 134 141 0
153 160 142 175 144 151 0
153 96 109 98 111 92 0
153 96 121 98 123 93 0
153 96 132 98 134 94 0
153 96 142 98 144 95 0
153 109 121 111 123 106 0
153 109 132 111 134 107 0
153 109 142 111 144 108 0
153 121 132 123 134 119 0
153 121 142 123 144 120 0
153 132 142 134 144 131 0
154 155 156 176 177 182 0
154 155 157 176 178 183 0
154 155 158 176 179 184 0
154 155 159 176 180 185 0
154 155 160 176 181 186 0
154 155 96 176 99 100 0
154 155 109 176 112 113 0
154 155 121 176 124 125 0
154 155 132 176 135 136 0
154 155 142 176 145 146 0
154 156 157 177 178 187 0
154 156 158 177 179 188 0
154 156 159 177 180 189 0
154 156 160 177 181 190 0
154 156 96 177 99 101 0
154 156 109 177 112 114 0
154 156 121 177 124 126 0
154 156 132 177 135 137 0
154 156 142 177 145 147 0
154 157 158 178 179 191 0
154 157 159 178 180 192 0
154 157 160 178 181 193 0
154 157 96 178 99 102 0
154 157 109 178 112 115 0
154 157 121 178 124 127 0
154 157 132 178 135 138 0
154 157 142 178 145 148 0
154 158 159 179 180 194 0
154 158 160 179 181 195 0
154 158 96 179 99 103 0
154 158 109 179 112 116 0
154 158 121 179 124 128 0
154 158 132 179 135 139 0
154 158 142 179 145 149 0
154 159 160 180 181 196 0
154 159 96 180 99 104 0
154 159 109 180 112 117 0
154 159 121 180 124 129 0
154 159 132 180 135 140 0
154 159 142 180 145 150 0
154 160 96 181 99 105 0
154 160 109 181 112 118 0
154 160 121 181 124 130 0
154 160 132 181 135 141 0
154 160 142 181 145 151 0
154 96 109 99 112 92 0
154 96 121 99 124 93 0
154 96 132 99 135 94 0
154 96 142 99 145 95 0
154 109 121 112 124 106 0
154 109 132 112 135 107 0
154 109 142 112 145 108 0
154 121 132 124 135 119 0
154 121 142 124 145 120 0
154 132 142 135 145 131 0
155 156 157 182 183 187 0
155 156 158 182 184 188 0
155 156 159 182 185 189 0
155 156 160 182 186 190 0
155 156 96 182 100 101 0
155 156 109 182 113 114 0
155 156 121 182 125 126 0
155 156 132 182 136 137 0
155 156 142 182 146 147 0
155 157 158 183 184 191 0
155 157 159 183 185 192 0
155 157 160 183 186 193 0
155 157 96 183 100 102 0
155 157 109 183 113 115 0
155 157 121 183 125 127 0
155 157 132 183 136 138 0
155 157 142 183 146 148 0
155 158 159 184 185 194 0
155 158 160 184 186 195 0
155 158 96 184 100 103 0
155 158 109 184 113 116 0
155 158 121 184 125 128 0
155 158 132 184 136 139 0
155 158 142 184 146 149 0
155 159 160 185 186 196 0
155 159 96 185 100 104 0
155 159 109 185 113 117 0
155 159 121 185 125 129 0
155 159 132 185 136 140 0
155 159 142 185 146 150 0
155 160 96 186 100 105 0
155 160 109 186 113 118 0
155 160 121 186 125 130 0
155 160 132 186 136 141 0
155 160 142 186 146 151 0
155 96 109 100 113 92 0
155 96 121 100 125 93 0
155 96 132 100 136 94 0
155 96 142 100 146 95 0
155 109 121 113 125 106 0
155 109 132 113 136 107 0
155 109 142 113 146 108 0
155 121 132 125 136 119 0
155 121 142 125 146 120 0
155 132 142 136 146 131 0
156 157 158 187 188 191 0
156 157 159 187 189 192 0
156 157 160 187 190 193 0
156 157 96 187 101 102 0
156 157 109 187 114 115 0
156 157 121 187 126 127 0
156 157 132 187 137 138 0
156 157 142 187 147 148 0
156 158 159 188 189 194 0
156 158 160 188 190 195 0
156 158 96 188 101 103 0
156 158 109 188 114 116 0
156 158 121 188 126 128 0
156 158 132 188 137 139 0
156 158 142 188 147 149 0
156 159 160 189 190 196 0
156 159 96 189 101 104 0
156 159 109 189 114 117 0
156 159 121 189 126 129 0
156 159 132 189 137 140 0
156 159 142 189 147 150 0
156 160 96 190 101 105 0
156 160 109 190 114 118 0
156 160 121 190 126 130 0
156 160 132 190 137 141 0
156 160 142 190 147 151 0
156 96 109 101 114 92 0
156 96 121 101 126 93 0
156 96 132 101 137 94 0
156 96 142 101 147 95 0
156 109 121 114 126 106 0
156 109 132 114 137 107 0
156 109 142 114 147 108 0
156 121 132 126 137 119 0
156 121 142 126 147 120 0
156 132 142 137 147 131 0
157 158 159 191 192 194 0
157 158 160 191 193 195 0
157 158 96 191 102 103 0
157 158 109 191 115 116 0
157 158 121 191 127 128 0
157 158 132 191 138 139 0
157 158 142 191 148 149 0
157 159 160 192 193 196 0
157 159 96 192 102 104 0
157 159 109 192 115 117 0
157 159 121 192 127 129 0
157 159 132 192 138 140 0
157 159 142 192 148 150 0
157 160 96 193 102 105 0
157 160 109 193 115 118 0
157 160 121 193 127 130 0
157 160 132 193 138 141 0
157 160 142 193 148 151 0
157 96 109 102 115 92 0
157 96 121 102 127 93 0
157 96 132 102 138 94 0
157 96 142 102 148 95 0
157 109 121 115 127 106 0
157 109 132 115 138 107 0
157 109 142 115 148 108 0
157 121 132 127 138 119 0
157 121 142 127 148 120 0
157 132 142 138 148 131 0
158 159 160 194 195 196 0
158 159 96 194 103 104 0
158 159 109 194 116 117 0
158 159 121 194 128 129 0
158 159 132 194 139 140 0
158 159 142 194 149 150 0
158 160 96 195 103 105 0
158 160 109 195 116 118 0
158 160 121 195 128 130 0
158 160 132 195 139 141 0
158 160 142 195 149 151 0
158 96 109 103 116 92 0
158 96 121 103 128 93 0
158 96 132 103 139 94 0
158 96 142 103 149 95 0
158 109 121 116 128 106 0
158 109 132 116 139 107 0
158 109 142 116 149 108 0
158 121 132 128 139 119 0
158 121 142 128 149 120 0
158 132 142 139 149 131 0
159 160 96 196 104 105 0
159 160 109 196 117 118 0
159 160 121 196 129 130 0
159 160 132 196 140 141 0
159 160 142 196 150 151 0
159 96 109 104 117 92 0
159 96 121 104 129 93 0
159 96 132 104 140 94 0
159 96 142 104 150 95 0
159 109 121 117 129 106 0
159 109 132 117 140 107 0
159 109 142 117 150 108 0
159 121 132 129 140 119 0
159 121 142 129 150 120 0
159 132 142 140 150 131 0
160 96 109 105 118 92 0
160 96 121 105 130 93 0
160 96 132 105 141 94 0
160 96 142 105 151 95 0
160 109 121 118 130 106 0
160 109 132 118 141 107 0
160 109 142 118 151 108 0
160 121 132 130 141 119 0
160 121 142 130 151 120 0
160 132 142 141 151 131 0
96 109 121 92 93 106 0
96 109 132 92 94 107 0
96 109 142 92 95 108 0
96 121 132 93 94 119 0
96 121 142 93 95 120 0
96 132 142 94 95 131 0
109 121 132 106 107 119 0
109 121 142 106 108 120 0
109 132 142 107 108 131 0
121 132 142 119 120 131 0
161 162 163 169 170 176 0
161 162 164 169 171 177 0
161 162 165 169 172 178 0
161 162 166 169 173 179 0
161 162 167 169 174 180 0
161 162 168 169 175 181 0
161 162 97 169 98 99 0
161 162 110 169 111 112 0
161 162 122 169 123 124 0
161 162 133 169 134 135 0
161 162 143 169 144 145 0
161 162 152 169 153 154 0
161 163 164 170 171 182 0
161 163 165 170 172 183 0
161 163 166 170 173 184 0
161 163 167 170 174 185 0
161 163 168 170 175 186 0
161 163 97 170 98 100 0
161 163 110 170 111 113 0
161 163 122 170 123 125 0
161 163 133 170 134 136 0
161 163 143 170 144 146 0
161 163 152 170 153 155 0
161 164 165 171 172 187 0
161 164 166 171 173 188 0
161 164 167 171 174 189 0
161 164 168 171 175 190 0
161 164 97 171 98 101 0
161 164 110 171 111 114 0
161 164 122 171 123 126 0
161 164 133 171 134 137 0
161 164 143 171 144 147 0
161 164 152 171 153 156 0
161 165 166 172 173 191 0
161 165 167 172 174 192 0
161 165 168 172 175 193 0
161 165 97 172 98 102 0
161 165 110 172 111 115 0
161 165 122 172 123 127 0
161 165 133 172 134 138 0
161 165 143 172 144 148 0
161 165 152 172 153 157 0
161 166 167 173 174 194 0
161 166 168 173 175 195 0
161 166 97 173 98 103 0
161 166 110 173 111 116 0
161 166 122 173 123 128 0
161 166 133 173 134 139 0
161 166 143 173 144 149 0
161 166 152 173 153 158 0
161 167 168 174 175 196 0
161 167 97 174 98 104 0
161 167 110 174 111 117 0
161 167 122 174 123 129 0
161 167 133 174 134 140 0
161 167 143 174 144 150 0
161 167 152 174 153 159 0
161 168 97 175 98 105 0
161 168 110 175 111 118 0
161 168 122 175 123 130 0
161 168 133 175 134 141 0
161 168 143 175 144 151 0
161 168 152 175 153 160 0
161 97 110 98 111 92 0
161 97 122 98 123 93 0
161 97 133 98 134 94 0
161 97 143 98 144 95 0
161 97 152 98 153 96 0
161 110 122 111 123 106 0
161 110 133 111 134 107 0
161 110 143 111 144 108 0
161 110 152 111 153 109 0
161 122 133 123 134 119 0
161 122 143 123 144 120 0
161 122 152 123 153 121 0
161 133 143 134 144 131 0
161 133 152 134 153 132 0
161 143 152 144 153 142 0
162 163 164 176 177 182 0
162 163 165 176 178 183 0
162 163 166 176 179 184 0
162 163 167 176 180 185 0
162 163 168 176 181 186 0
162 163 97 176 99 100 0
162 163 110 176 112 113 0
162 163 122 176 124 125 0
162 163 133 176 135 136 0
162 163 143 176 145 146 0
162 163 152 176 154 155 0
162 164 165 177 178 187 0
162 164 166 177 179 188 0
162 164 167 177 180 189 0
162 164 168 177 181 190 0
162 164 97 177 99 101 0
162 164 110 177 112 114 0
162 164 122 177 124 126 0
162 164 133 177 135 137 0
162 164 143 177 145 147 0
162 164 152 177 154 156 0
162 165 166 178 179 191 0
162 165 167 178 180 192 0
162 165 168 178 181 193 0
162 165 97 178 99 102 0
162 165 110 178 112 115 0
162 165 122 178 124 127 0
162 165 133 178 135 138 0
162 165 143 178 145 148 0
162 165 152 178 154 157 0
162 166 167 179 180 194 0
162 166 168 179 181 195 0
162 166 97 179 99 103 0
162 166 110 179 112 116 0
162 166 122 179 124 128 0
162 166 133 179 135 139 0
162 166 143 179 145 149 0
162 166 152 179 154 158 0
162 167 168 180 181 196 0
162 167 97 180 99 104 0
162 167 110 180 112 117 0
162 167 122 180 124 129 0
162 167 133 180 135 140 0
162 167 143 180 145 150 0
162 167 152 180 154 159 0
162 168 97 181 99 105 0
162 168 110 181 112 118 0
162 168 122 181 124 130 0
162 168 133 181 135 141 0
162 168 143 181 145 151 0
162 168 152 181 154 160 0
162 97 110 99 112 92 0
162 97 122 99 124 93 0
162 97 133 99 135 94 0
162 97 143 99 145 95 0
162 97 152 99 154 96 0
162 110 122 112 124 106 0
162 110 133 112 135 107 0
162 110 143 112 145 108 0
162 110 152 112 154 109 0
162 122 133 124 135 119 0
162 122 143 124 145 120 0
162 122 152 124 154 121 0
162 133 143 135 145 131 0
162 133 152 135 154 132 0
162 143 152 145 154 142 0
163 164 165 182 183 187 0
163 164 166 182 184 188 0
163 164 167 182 185 189 0
163 164 168 182 186 190 0
163 164 97 182 100 101 0
163 164 110 182 113 114 0
163 164 122 182 125 126 0
163 164 133 182 136 137 0
163 164 143 182 146 147 0
163 164 152 182 155 156 0
163 165 166 183 184 191 0
163 165 167 183 185 192 0
163 165 168 183 186 193 0
163 165 97 183 100 102 0
163 165 110 183 113 115 0
163 165 122 183 125 127 0
163 165 133 183 136 138 0
163 165 143 183 146 148 0
163 165 152 183 155 157 0
163 166 167 184 185 194 0
163 166 168 184 186 195 0
163 166 97 184 100 103 0
163 166 110 184 113 116 0
163 166 122 184 125 128 0
163 166 133 184 136 139 0
163 166 143 184 146 149 0
163 166 152 184 155 158 0
163 167 168 185 186 196 0
163 167 97 185 100 104 0
163 167 110 185 113 117 0
163 167 122 185 125 129 0
163 167 133 185 136 140 0
163 167 143 185 146 150 0
163 167 152 185 155 159 0
163 168 97 186 100 105 0
163 168 110 186 113 118 0
163 168 122 186 125 130 0
163 168 133 186 136 141 0
163 168 143 186 146 151 0
163 168 152 186 155 160 0
163 97 110 100 113 92 0
163 97 122 100 125 93 0
163 97 133 100 136 94 0
163 97 143 100 146 95 0
163 97 152 100 155 96 0
163 110 122 113 125 106 0
163 110 133 113 136 107 0
163 110 143 113 146 108 0
163 110 152 113 155 109 0
163 122 133 125 136 119 0
163 122 143 125 146 120 0
163 122 152 125 155 121 0
163 133 143 136 146 131 0
163 133 152 136 155 132 0
163 143 152 146 155 142 0
164 165 166 187 188 191 0
164 165 167 187 189 192 0
164 165 168 187 190 193 0
164 165 97 187 101 102 0
164 165 110 187 114 115 0
164 165 122 187 126 127 0
164 165 133 187 137 138 0
164 165 143 187 147 148 0
164 165 152 187 156 157 0
164 166 167 188 189 194 0
164 166 168 188 190 195 0
164 166 97 188 101 103 0
164 166 110 188 114 116 0
164 166 122 188 126 128 0
164 166 133 188 137 139 0
164 166 143 188 147 149 0
164 166 152 188 156 158 0
164 167 168 189 190 196 0
164 167 97 189 101 104 0
164 167 110 189 114 117 0
164 167 122 189 126 129 0
164 167 133 189 137 140 0
164 167 143 189 147 150 0
164 167 152 189 156 159 0
164 168 97 190 101 105 0
164 168 110 190 114 118 0
164 168 122 190 126 130 0
164 168 133 190 137 141 0
164 168 143 190 147 151 0
164 168 152 190 156 160 0
164 97 110 101 114 92 0
164 97 122 101 126 93 0
164 97 133 101 137 94 0
164 97 143 101 147 95 0
164 97 152 101 156 96 0
164 110 122 114 126 106 0
164 110 133 114 137 107 0
164 110 143 114 147 108 0
164 110 152 114 156 109 0
164 122 133 126 137 119 0
164 122 143 126 147 120 0
164 122 152 126 156 121 0
164 133 143 137 147 131 0
164 133 152 137 156 132 0
164 143 152 147 156 142 0
165 166 167 191 192 194 0
165 166 168 191 193 195 0
165 166 97 191 102 103 0
165 166 110 191 115 116 0
165 166 122 191 127 128 0
165 166 133 191 138 139 0
165 166 143 191 148 149 0
165 166 152 191 157 158 0
165 167 168 192 193 196 0
165 167 97 192 102 104 0
165 167 110 192 115 117 0
165 167 122 192 127 129 0
165 167 133 192 138 140 0
165 167 143 192 148 150 0
165 167 152 192 157 159 0
165 168 97 193 102 105 0
165 168 110 193 115 118 0
165 168 122 193 127 130 0
165 168 133 193 138 141 0
165 168 143 193 148 151 0
165 168 152 193 157 160 0
165 97 110 102 115 92 0
165 97 122 102 127 93 0
165 97 133 102 138 94 0
165 97 143 102 148 95 0
165 97 152 102 157 96 0
165 110 122 115 127 106 0
165 110 133 115 138 107 0
165 110 143 115 148 108 0
165 110 152 115 157 109 0
165 122 133 127 138 119 0
165 122 143 127 148 120 0
165 122 152 127 157 121 0
165 133 143 138 148 131 0
165 133 152 138 157 132 0
165 143 152 148 157 142 0
166 167 168 194 195 196 0
166 167 97 194 103 104 0
166 167 110 194 116 117 0
166 167 122 194 128 129 0
166 167 133 194 139 140 0
166 167 143 194 149 150 0
166 167 152 194 158 159 0
166 168 97 195 103 105 0
166 168 110 195 116 118 0
166 168 122 195 128 130 0
166 168 133 195 139 141 0
166 168 143 195 149 151 0
166 168 152 195 158 160 0
166 97 110 103 116 92 0
166 97 122 103 128 93 0
166 97 133 103 139 94 0
166 97 143 103 149 95 0
166 97 152 103 158 96 0
166 110 122 116 128 106 0
166 110 133 116 139 107 0
166 110 143 116 149 108 0
166 110 152 116 158 109 0
166 122 133 128 139 119 0
166 122 143 128 149 120 0
166 122 152 128 158 121 0
166 133 143 139 149 131 0
166 133 152 139 158 132 0
166 143 152 149 158 142 0
167 168 97 196 104 105 0
167 168 110 196 117 118 0
167 168 122 196 129 130 0
167 168 133 196 140 141 0
167 168 143 196 150 151 0
167 168 152 196 159 160 0
167 97 110 104 117 92 0
167 97 122 104 129 93 0
167 97 133 104 140 94 0
167 97 143 104 150 95 0
167 97 152 104 159 96 0
167 110 122 117 129 106 0
167 110 133 117 140 107 0
167 110 143 117 150 108 0
167 110 152 117 159 109 0
167 122 133 129 140 119 0
167 122 143 129 150 120 0
167 122 152 129 159 121 0
167 133 143 140 150 131 0
167 133 152 140 159 132 0
167 143 152 150 159 142 0
168 97 110 105 118 92 0
168 97 122 105 130 93 0
168 97 133 105 141 94 0
168 97 143 105 151 95 0
168 97 152 105 160 96 0
168 110 122 118 130 106 0
168 110 133 118 141 107 0
168 110 143 118 151 108 0
168 110 152 118 160 109 0
168 122 133 130 141 119 0
168 122 143 130 151 120 0
168 122 152 130 160 121 0
168 133 143 141 151 131 0
168 133 152 141 160 132 0
168 143 152 151 160 142 0
97 110 122 92 93 106 0
97 110 133 92 94 107 0
97 110 143 92 95 108 0
97 110 152 92 96 109 0
97 122 133 93 94 119 0
97 122 143 93 95 120 0
97 122 152 93 96 121 0
97 133 143 94 95 131 0
97 133 152 94 96 132 0
97 143 152 95 96 142 0
110 122 133 106 107 119 0
110 122 143 106 108 120 0
110 122 152 106 109 121 0
110 133 143 107 108 131 0
110 133 152 107 109 132 0
110 143 152 108 109 142 0
122 133 143 119 120 131 0
122 133 152 119 121 132 0
122 143 152 120 121 142 0
133 143 152 131 132 142 0
169 170 171 176 177 182 0
169 170 172 176 178 183 0
169 170 173 176 179 184 0
169 170 174 176 180 185 0
169 170 175 176 181 186 0
169 170 98 176 99 100 0
169 170 111 176 112 113 0
169 170 123 176 124 125 0
169 170 134 176 135 136 0
169 170 144 176 145 146 0
169 170 153 176 154 155 0
169 170 161 176 162 163 0
169 171 172 177 178 187 0
169 171 173 177 179 188 0
169 171 174 177 180 189 0
169 171 175 177 181 190 0
169 171 98 177 99 101 0
169 171 111 177 112 114 0
169 171 123 177 124 126 0
169 171 134 177 135 137 0
169 171 144 177 145 147 0
169 171 153 177 154 156 0
169 171 161 177 162 164 0
169 172 173 178 179 191 0
169 172 174 178 180 192 0
169 172 175 178 181 193 0
169 172 98 178 99 102 0
169 172 111 178 112 115 0
169 172 123 178 124 127 0
169 172 134 178 135 138 0
169 172 144 178 145 148 0
169 172 153 178 154 157 0
169 172 161 178 162 165 0
169 173 174 179 180 194 0
169 173 175 179 181 195 0
169 173 98 179 99 103 0
169 173 111 179 112 116 0
169 173 123 179 124 128 0
169 173 134 179 135 139 0
169 173 144 179 145 149 0
169 173 153 179 154 158 0
169 173 161 179 162 166 0
169 174 175 180 181 196 0
169 174 98 180 99 104 0
169 174 111 180 112 117 0
169 174 123 180 124 129 0
169 174 134 180 135 140 0
169 174 144 180 145 150 0
169 174 153 180 154 159 0
169 174 161 180 162 167 0
169 175 98 181 99 105 0
169 175 111 181 112 118 0
169 175 123 181 124 130 0
169 175 134 181 135 141 0
169 175 144 181 145 151 0
169 175 153 181 154 160 0
169 175 161 181 162 168 0
169 98 111 99 112 92 0
169 98 123 99 124 93 0
169 98 134 99 135 94 0
169 98 144 99 145 95 0
169 98 153 99 154 96 0
169 98 161 99 162 97 0
169 111 123 112 124 106 0
169 111 134 112 135 107 0
169 111 144 112 145 108 0
169 111 153 112 154 109 0
169 111 161 112 162 110 0
169 123 134 124 135 119 0
169 123 144 124 145 120 0
169 123 153 124 154 121 0
169 123 161 124 162 122 0
169 134 144 135 145 131 0
169 134 153 135 154 132 0
169 134 161 135 162 133 0
169 144 153 145 154 142 0
169 144 161 145 162 143 0
169 153 161 154 162 152 0
170 171 172 182 183 187 0
170 171 173 182 184 188 0
170 171 174 182 185 189 0
170 171 175 182 186 190 0
170 171 98 182 100 101 0
170 171 111 182 113 114 0
170 171 123 182 125 126 0
170 171 134 182 136 137 0
170 171 144 182 146 147 0
170 171 153 182 155 156 0
170 171 161 182 163 164 0
170 172 173 183 184 191 0
170 172 174 183 185 192 0
170 172 175 183 186 193 0
170 172 98 183 100 102 0
170 172 111 183 113 115 0
170 172 123 183 125 127 0
170 172 134 183 136 138 0
170 172 144 183 146 148 0
170 172 153 183 155 157 0
170 172 161 183 163 165 0
170 173 174 184 185 194 0
170 173 175 184 186 195 0
170 173 98 184 100 103 0
170 173 111 184 113 116 0
170 173 123 184 125 128 0
170 173 134 184 136 139 0
170 173 144 184 146 149 0
170 173 153 184 155 158 0
170 173 161 184 163 166 0
170 174 175 185 186 196 0
170 174 98 185 100 104 0
170 174 111 185 113 117 0
170 174 123 185 125 129 0
170 174 134 185 136 140 0
170 174 144 185 146 150 0
170 174 153 185 155 159 0
170 174 161 185 163 167 0
170 175 98 186 100 105 0
170 175 111 186 113 118 0
170 175 123 186 125 130 0
170 175 134 186 136 141 0
170 175 144 186 146 151 0
170 175 153 186 155 160 0
170 175 161 186 163 168 0
170 98 111 100 113 92 0
170 98 123 100 125 93 0
170 98 134 100 136 94 0
170 98 144 100 146 95 0
170 98 153 100 155 96 0
170 98 161 100 163 97 0
170 111 123 113 125 106 0
170 111 134 113 136 107 0
170 111 144 113 146 108 0
170 111 153 113 155 109 0
170 111 161 113 163 110 0
170 123 134 125 136 119 0
170 123 144 125 146 120 0
170 123 153 125 155 121 0
170 123 161 125 163 122 0
170 134 144 136 146 131 0
170 134 153 136 155 132 0
170 134 161 136 163 133 0
170 144 153 146 155 142 0
170 144 161 146 163 143 0
170 153 161 155 163 152 0
171 172 173 187 188 191 0
171 172 174 187 189 192 0
171 172 175 187 190 193 0
171 172 98 187 101 102 0
171 172 111 187 114 115 0
171 172 123 187 126 127 0
171 172 134 187 137 138 0
171 172 144 187 147 148 0
171 172 153 187 156 157 0
171 172 161 187 164 165 0
171 173 174 188 189 194 0
171 173 175 188 190 195 0
171 173 98 188 101 103 0
171 173 111 188 114 116 0
171 173 123 188 126 128 0
171 173 134 188 137 139 0
171 173 144 188 147 149 0
171 173 153 188 156 158 0
171 173 161 188 164 166 0
171 174 175 189 190 196 0
171 174 98 189 101 104 0
171 174 111 189 114 117 0
171 174 123 189 126 129 0
171 174 134 189 137 140 0
171 174 144 189 147 150 0
171 174 153 189 156 159 0
171 174 161 189 164 167 0
171 175 98 190 101 105 0
171 175 111 190 114 118 0
171 175 123 190 126 130 0
171 175 134 190 137 141 0
171 175 144 190 147 151 0
171 175 153 190 156 160 0
171 175 161 190 164 168 0
171 98 111 101 114 92 0
171 98 123 101 126 93 0
171 98 134 101 137 94 0
171 98 144 101 147 95 0
171 98 153 101 156 96 0
171 98 161 101 164 97 0
171 111 123 114 126 106 0
171 111 134 114 137 107 0
171 111 144 114 147 108 0
171 111 153 114 156 109 0
171 111 161 114 164 110 0
171 123 134 126 137 119 0
171 123 144 126 147 120 0
171 123 153 126 156 121 0
171 123 161 126 164 122 0
171 134 144 137 147 131 0
171 134 153 137 156 132 0
171 134 161 137 164 133 0
171 144 153 147 156 142 0
171 144 161 147 164 143 0
171 153 161 156 164 152 0
172 173 174 191 192 194 0
172 173 175 191 193 195 0
172 173 98 191 102 103 0
172 173 111 191 115 116 0
172 173 123 191 127 128 0
172 173 134 191 138 139 0
172 173 144 191 148 149 0
172 173 153 191 157 158 0
172 173 161 191 165 166 0
172 174 175 192 193 196 0
172 174 98 192 102 104 0
172 174 111 192 115 117 0
172 174 123 192 127 129 0
172 174 134 192 138 140 0
172 174 144 192 148 150 0
172 174 153 192 157 159 0
172 174 161 192 165 167 0
172 175 98 193 102 105 0
172 175 111 193 115 118 0
172 175 123 193 127 130 0
172 175 134 193 138 141 0
172 175 144 193 148 151 0
172 175 153 193 157 160 0
172 175 161 193 165 168 0
172 98 111 102 115 92 0
172 98 123 102 127 93 0
172 98 134 102 138 94 0
172 98 144 102 148 95 0
172 98 153 102 157 96 0
172 98 161 102 165 97 0
172 111 123 115 127 106 0
172 111 134 115 138 107 0
172 111 144 115 148 108 0
172 111 153 115 157 109 0
172 111 161 115 165 110 0
172 123 134 127 138 119 0
172 123 144 127 148 120 0
172 123 153 127 157 121 0
172 123 161 127 165 122 0
172 134 144 138 148 131 0
172 134 153 138 157 132 0
172 134 161 138 165 133 0
172 144 153 148 157 142 0
172 144 161 148 165 143 0
172 153 161 157 165 152 0
173 174 175 194 195 196 0
173 174 98 194 103 104 0
173 174 111 194 116 117 0
173 174 123 194 128 129 0
173 174 134 194 139 140 0
173 174 144 194 149 150 0
173 174 153 194 158 159 0
173 174 161 194 166 167 0
173 175 98 195 103 105 0
173 175 111 195 116 118 0
173 175 123 195 128 130 0
173 175 134 195 139 141 0
173 175 144 195 149 151 0
173 175 153 195 158 160 0
173 175 161 195 166 168 0
173 98 111 103 116 92 0
173 98 123 103 128 93 0
173 98 134 103 139 94 0
173 98 144 103 149 95 0
173 98 153 103 158 96 0
173 98 161 103 166 97 0
173 111 123 116 128 106 0
173 111 134 116 139 107 0
173 111 144 116 149 108 0
173 111 153 116 158 109 0
173 111 161 116 166 110 0
173 123 134 128 139 119 0
173 123 144 128 149 120 0
173 123 153 128 158 121 0
173 123 161 128 166 122 0
173 134 144 139 149 131 0
173 134 153 139 158 132 0
173 134 161 139 166 133 0
173 144 153 149 158 142 0
173 144 161 149 166 143 0
173 153 161 158 166 152 0
174 175 98 196 104 105 0
174 175 111 196 117 118 0
174 175 123 196 129 130 0
174 175 134 196 140 141 0
174 175 144 196 150 151 0
174 175 153 196 159 160 0
174 175 161 196 167 168 0
174 98 111 104 117 92 0
174 98 123 104 129 93 0
174 98 134 104 140 94 0
174 98 144 104 150 95 0
174 98 153 104 159 96 0
174 98 161 104 167 97 0
174 111 123 117 129 106 0
174 111 134 117 140 107 0
174 111 144 117 150 108 0
174 111 153 117 159 109 0
174 111 161 117 167 110 0
174 123 134 129 140 119 0
174 123 144 129 150 120 0
174 123 153 129 159 121 0
174 123 161 129 167 122 0
174 134 144 140 150 131 0
174 134 153 140 159 132 0
174 134 161 140 167 133 0
174 144 153 150 159 142 0
174 144 161 150 167 143 0
174 153 161 159 167 152 0
175 98 111 105 118 92 0
175 98 123 105 130 93 0
175 98 134 105 141 94 0
175 98 144 105 151 95 0
175 98 153 105 160 96 0
175 98 161 105 168 97 0
175 111 123 118 130 106 0
175 111 134 118 141 107 0
175 111 144 118 151 108 0
175 111 153 118 160 109 0
175 111 161 118 168 110 0
175 123 134 130 141 119 0
175 123 144 130 151 120 0
175 123 153 130 160 121 0
175 123 161 130 168 122 0
175 134 144 141 151 131 0
175 134 153 141 160 132 0
175 134 161 141 168 133 0
175 144 153 151 160 142 0
175 144 161 151 168 143 0
175 153 161 160 168 152 0
98 111 123 92 93 106 0
98 111 134 92 94 107 0
98 111 144 92 95 108 0
98 111 153 92 96 109 0
98 111 161 92 97 110 0
98 123 134 93 94 119 0
98 123 144 93 95 120 0
98 123 153 93 96 121 0
98 123 161 93 97 122 0
98 134 144 94 95 131 0
98 134 153 94 96 132 0
98 134 161 94 97 133 0
98 144 153 95 96 142 0
98 144 161 95 97 143 0
98 153 161 96 97 152 0
111 123 134 106 107 119 0
111 123 144 106 108 120 0
111 123 153 106 109 121 0
111 123 161 106 110 122 0
111 134 144 107 108 131 0
111 134 153 107 109 132 0
111 134 161 107 110 133 0
111 144 153 108 109 142 0
111 144 161 108 110 143 0
111 153 161 109 110 152 0
123 134 144 119 120 131 0
123 134 153 119 121 132 0
123 134 161 119 122 133 0
123 144 153 120 121 142 0
123 144 161 120 122 143 0
123 153 161 121 122 152 0
134 144 153 131 132 142 0
134 144 161 131 133 143 0
134 153 161 132 133 152 0
144 153 161 142 143 152 0
176 177 178 182 183 187 0
176 177 179 182 184 188 0
176 177 180 182 185 189 0
176 177 181 182 186 190 0
176 177 99 182 100 101 0
176 177 112 182 113 114 0
176 177 124 182 125 126 0
176 177 135 182 136 137 0
176 177 145 182 146 147 0
176 177 154 182 155 156 0
176 177 162 182 163 164 0
176 177 169 182 170 171 0
176 178 179 183 184 191 0
176 178 180 183 185 192 0
176 178 181 183 186 193 0
176 178 99 183 100 102 0
176 178 112 183 113 115 0
176 178 124 183 125 127 0
176 178 135 183 136 138 0
176 178 145 183 146 148 0
176 178 154 183 155 157 0
176 178 162 183 163 165 0
176 178 169 183 170 172 0
176 179 180 184 185 194 0
176 179 181 184 186 195 0
176 179 99 184 100 103 0
176 179 112 184 113 116 0
176 179 124 184 125 128 0
176 179 135 184 136 139 0
176 179 145 184 146 149 0
176 179 154 184 155 158 0
176 179 162 184 163 166 0
176 179 169 184 170 173 0
176 180 181 185 186 196 0
176 180 99 185 100 104 0
176 180 112 185 113 117 0
176 180 124 185 125 129 0
176 180 135 185 136 140 0
176 180 145 185 146 150 0
176 180 154 185 155 159 0
176 180 162 185 163 167 0
176 180 169 185 170 174 0
176 181 99 186 100 105 0
176 181 112 186 113 118 0
176 181 124 186 125 130 0
176 181 135 186 136 141 0
176 181 145 186 146 151 0
176 181 154 186 155 160 0
176 181 162 186 163 168 0
176 181 169 186 170 175 0
176 99 112 100 113 92 0
176 99 124 100 125 93 0
176 99 135 100 136 94 0
176 99 145 100 146 95 0
176 99 154 100 155 96 0
176 99 162 100 163 97 0
176 99 169 100 170 98 0
176 112 124 113 125 106 0
176 112 135 113 136 107 0
176 112 145 113 146 108 0
176 112 154 113 155 109 0
176 112 162 113 163 110 0
176 112 169 113 170 111 0
176 124 135 125 136 119 0
176 124 145 125 146 120 0
176 124 154 125 155 121 0
176 124 162 125 163 122 0
176 124 169 125 170 123 0
176 135 145 136 146 131 0
176 135 154 136 155 132 0
176 135 162 136 163 133 0
176 135 169 136 170 134 0
176 145 154 146 155 142 0
176 145 162 146 163 143 0
176 145 169 146 170 144 0
176 154 162 155 163 152 0
176 154 169 155 170 153 0
176 162 169 163 170 161 0
177 178 179 187 188 191 0
177 178 180 187 189 192 0
177 178 181 187 190 193 0
177 178 99 187 101 102 0
177 178 112 187 114 115 0
177 178 124 187 126 127 0
177 178 135 187 137 138 0
177 178 145 187 147 148 0
177 178 154 187 156 157 0
177 178 162 187 164 165 0
177 178 169 187 171 172 0
177 179 180 188 189 194 0
177 179 181 188 190 195 0
177 179 99 188 101 103 0
177 179 112 188 114 116 0
177 179 124 188 126 128 0
177 179 135 188 137 139 0
177 179 145 188 147 149 0
177 179 154 188 156 158 0
177 179 162 188 164 166 0
177 179 169 188 171 173 0
177 180 181 189 190 196 0
177 180 99 189 101 104 0
177 180 112 189 114 117 0
177 180 124 189 126 129 0
177 180 135 189 137 140 0
177 180 145 189 147 150 0
177 180 154 189 156 159 0
177 180 162 189 164 167 0
177 180 169 189 171 174 0
177 181 99 190 101 105 0
177 181 112 190 114 118 0
177 181 124 190 126 130 0
177 181 135 190 137 141 0
177 181 145 190 147 151 0
177 181 154 190 156 160 0
177 181 162 190 164 168 0
177 181 169 190 171 175 0
177 99 112 101 114 92 0
177 99 124 101 126 93 0
177 99 135 101 137 94 0
177 99 145 101 147 95 0
177 99 154 101 156 96 0
177 99 162 101 164 97 0
177 99 169 101 171 98 0
177 112 124 114 126 106 0
177 112 135 114 137 107 0
177 112 145 114 147 108 0
177 112 154 114 156 109 0
177 112 162 114 164 110 0
177 112 169 114 171 111 0
177 124 135 126 137 119 0
177 124 145 126 147 120 0
177 124 154 126 156 121 0
177 124 162 126 164 122 0
177 124 169 126 171 123 0
177 135 145 137 147 131 0
177 135 154 137 156 132 0
177 135 162 137 164 133 0
177 135 169 137 171 134 0
177 145 154 147 156 142 0
177 145 162 147 164 143 0
177 145 169 147 171 144 0
177 154 162 156 164 152 0
177 154 169 156 171 153 0
177 162 169 164 171 161 0
178 179 180 191 192 194 0
178 179 181 191 193 195 0
178 179 99 191 102 103 0
178 179 112 191 115 116 0
178 179 124 191 127 128 0
178 179 135 191 138 139 0
178 179 145 191 148 149 0
178 179 154 191 157 158 0
178 179 162 191 165 166 0
178 179 169 191 172 173 0
178 180 181 192 193 196 0
178 180 99 192 102 104 0
178 180 112 192 115 117 0
178 180 124 192 127 129 0
178 180 135 192 138 140 0
178 180 145 192 148 150 0
178 180 154 192 157 159 0
178 180 162 192 165 167 0
178 180 169 192 172 174 0
178 181 99 193 102 105 0
178 181 112 193 115 118 0
178 181 124 193 127 130 0
178 181 135 193 138 141 0
178 181 145 193 148 151 0
178 181 154 193 157 160 0
178 181 162 193 165 168 0
178 181 169 193 172 175 0
178 99 112 102 115 92 0
178 99 124 102 127 93 0
178 99 135 102 138 94 0
178 99 145 102 148 95 0
178 99 154 102 157 96 0
178 99 162 102 165 97 0
178 99 169 102 172 98 0
178 112 124 115 127 106 0
178 112 135 115 138 107 0
178 112 145 115 148 108 0
178 112 154 115 157 109 0
178 112 162 115 165 110 0
178 112 169 115 172 111 0
178 124 135 127 138 119 0
178 124 145 127 148 120 0
178 124 154 127 157 121 0
178 124 162 127 165 122 0
178 124 169 127 172 123 0
178 135 145 138 148 131 0
178 135 154 138 157 132 0
178 135 162 138 165 133 0
178 135 169 138 172 134 0
178 145 154 148 157 142 0
178 145 162 148 165 143 0
178 145 169 148 172 144 0
178 154 162 157 165 152 0
178 154 169 157 172 153 0
178 162 169 165 172 161 0
179 180 181 194 195 196 0
179 180 99 194 103 104 0
179 180 112 194 116 117 0
179 180 124 194 128 129 0
179 180 135 194 139 140 0
179 180 145 194 149 150 0
179 180 154 194 158 159 0
179 180 162 194 166 167 0
179 180 169 194 173 174 0
179 181 99 195 103 105 0
179 181 112 195 116 118 0
179 181 124 195 128 130 0
179 181 135 195 139 141 0
179 181 145 195 149 151 0
179 181 154 195 158 160 0
179 181 162 195 166 168 0
179 181 169 195 173 175 0
179 99 112 103 116 92 0
179 99 124 103 128 93 0
179 99 135 103 139 94 0
179 99 145 103 149 95 0
179 99 154 103 158 96 0
179 99 162 103 166 97 0
179 99 169 103 173 98 0
179 112 124 116 128 106 0
179 112 135 116 139 107 0
179 112 145 116 149 108 0
179 112 154 116 158 109 0
179 112 162 116 166 110 0
179 112 169 116 173 111 0
179 124 135 128 139 119 0
179 124 145 128 149 120 0
179 124 154 128 158 121 0
179 124 162 128 166 122 0
179 124 169 128 173 123 0
179 135 145 139 149 131 0
179 135 154 139 158 132 0
179 135 162 139 166 133 0
179 135 169 139 173 134 0
179 145 154 149 158 142 0
179 145 162 149 166 143 0
179 145 169 149 173 144 0
179 154 162 158 166 152 0
179 154 169 158 173 153 0
179 162 169 166 173 161 0
180 181 99 196 104 105 0
180 181 112 196 117 118 0
180 181 124 196 129 130 0
180 181 135 196 140 141 0
180 181 145 196 150 151 0
180 181 154 196 159 160 0
180 181 162 196 167 168 0
180 181 169 196 174 175 0
180 99 112 104 117 92 0
180 99 124 104 129 93 0
180 99 135 104 140 94 0
180 99 145 104 150 95 0
180 99 154 104 159 96 0
180 99 162 104 167 97 0
180 99 169 104 174 98 0
180 112 124 117 129 106 0
180 112 135 117 140 107 0
180 112 145 117 150 108 0
180 112 154 117 159 109 0
180 112 162 117 167 110 0
180 112 169 117 174 111 0
180 124 135 129 140 119 0
180 124 145 129 150 120 0
180 124 154 129 159 121 0
180 124 162 129 167 122 0
180 124 169 129 174 123 0
180 135 145 140 150 131 0
180 135 154 140 159 132 0
180 135 162 140 167 133 0
180 135 169 140 174 134 0
180 145 154 150 159 142 0
180 145 162 150 167 143 0
180 145 169 150 174 144 0
180 154 162 159 167 152 0
180 154 169 159 174 153 0
180 162 169 167 174 161 0
181 99 112 105 118 92 0
181 99 124 105 130 93 0
181 99 135 105 141 94 0
181 99 145 105 151 95 0
181 99 154 105 160 96 0
181 99 162 105 168 97 0
181 99 169 105 175 98 0
181 112 124 118 130 106 0
181 112 135 118 141 107 0
181 112 145 118 151 108 0
181 112 154 118 160 109 0
181 112 162 118 168 110 0
181 112 169 118 175 111 0
181 124 135 130 141 119 0
181 124 145 130 151 120 0
181 124 154 130 160 121 0
181 124 162 130 168 122 0
181 124 169 130 175 123 0
181 135 145 141 151 131 0
181 135 154 141 160 132 0
181 135 162 141 168 133 0
181 135 169 141 175 134 0
181 145 154 151 160 142 0
181 145 162 151 168 143 0
181 145 169 151 175 144 0
181 154 162 160 168 152 0
181 154 169 160 175 153 0
181 162 169 168 175 161 0
99 112 124 92 93 106 0
99 112 135 92 94 107 0
99 112 145 92 95 108 0
99 112 154 92 96 109 0
99 112 162 92 97 110 0
99 112 169 92 98 111 0
99 124 135 93 94 119 0
99 124 145 93 95 120 0
99 124 154 93 96 121 0
99 124 162 93 97 122 0
99 124 169 93 98 123 0
99 135 145 94 95 131 0
99 135 154 94 96 132 0
99 135 162 94 97 133 0
99 135 169 94 98 134 0
99 145 154 95 96 142 0
99 145 162 95 97 143 0
99 145 169 95 98 144 0
99 154 162 96 97 152 0
99 154 169 96 98 153 0
99 162 169 97 98 161 0
112 124 135 106 107 119 0
112 124 145 106 108 120 0
112 124 154 106 109 121 0
112 124 162 106 110 122 0
112 124 169 106 111 123 0
112 135 145 107 108 131 0
112 135 154 107 109 132 0
112 135 162 107 110 133 0
112 135 169 107 111 134 0
112 145 154 108 109 142 0
112 145 162 108 110 143 0
112 145 169 108 111 144 0
112 154 162 109 110 152 0
112 154 169 109 111 153 0
112 162 169 110 111 161 0
124 135 145 119 120 131 0
124 135 154 119 121 132 0
124 135 162 119 122 133 0
124 135 169 119 123 134 0
124 145 154 120 121 142 0
124 145 162 120 122 143 0
124 145 169 120 123 144 0
124 154 162 121 122 152 0
124 154 169 121 123 153 0
124 162 169 122 123 161 0
135 145 154 131 132 142 0
135 145 162 131 133 143 0
135 145 169 131 134 144 0
135 154 162 132 133 152 0
135 154 169 132 134 153 0
135 162 169 133 134 161 0
145 154 162 142 143 152 0
145 154 169 142 144 153 0
145 162 169 143 144 161 0
154 162 169 152 153 161 0
182 183 184 187 188 191 0
182 183 185 187 189 192 0
182 183 186 187 190 193 0
182 183 100 187 101 102 0
182 183 113 187 114 115 0
182 183 125 187 126 127 0
182 183 136 187 137 138 0
182 183 146 187 147 148 0
182 183 155 187 156 157 0
182 183 163 187 164 165 0
182 183 170 187 171 172 0
182 183 176 187 177 178 0
182 184 185 188 189 194 0
182 184 186 188 190 195 0
182 184 100 188 101 103 0
182 184 113 188 114 116 0
182 184 125 188 126 128 0
182 184 136 188 137 139 0
182 184 146 188 147 149 0
182 184 155 188 156 158 0
182 184 163 188 164 166 0
182 184 170 188 171 173 0
182 184 176 188 177 179 0
182 185 186 189 190 196 0
182 185 100 189 101 104 0
182 185 113 189 114 117 0
182 185 125 189 126 129 0
182 185 136 189 137 140 0
182 185 146 189 147 150 0
182 185 155 189 156 159 0
182 185 163 189 164 167 0
182 185 170 189 171 174 0
182 185 176 189 177 180 0
182 186 100 190 101 105 0
182 186 113 190 114 118 0
182 186 125 190 126 130 0
182 186 136 190 137 141 0
182 186 146 190 147 151 0
182 186 155 190 156 160 0
182 186 163 190 164 168 0
182 186 170 190 171 175 0
182 186 176 190 177 181 0
182 100 113 101 114 92 0
182 100 125 101 126 93 0
182 100 136 101 137 94 0
182 100 146 101 147 95 0
182 100 155 101 156 96 0
182 100 163 101 164 97 0
182 100 170 101 171 98 0
182 100 176 101 177 99 0
182 113 125 114 126 106 0
182 113 136 114 137 107 0
182 113 146 114 147 108 0
182 113 155 114 156 109 0
182 113 163 114 164 110 0
182 113 170 114 171 111 0
182 113 176 114 177 112 0
182 125 136 126 137 119 0
182 125 146 126 147 120 0
182 125 155 126 156 121 0
182 125 163 126 164 122 0
182 125 170 126 171 123 0
182 125 176 126 177 124 0
182 136 146 137 147 131 0
182 136 155 137 156 132 0
182 136 163 137 164 133 0
182 136 170 137 171 134 0
182 136 176 137 177 135 0
182 146 155 147 156 142 0
182 146 163 147 164 143 0
182 146 170 147 171 144 0
182 146 176 147 177 145 0
182 155 163 156 164 152 0
182 155 170 156 171 153 0
182 155 176 156 177 154 0
182 163 170 164 171 161 0
182 163 176 164 177 162 0
182 170 176 171 177 169 0
183 184 185 191 192 194 0
183 184 186 191 193 195 0
183 184 100 191 102 103 0
183 184 113 191 115 116 0
183 184 125 191 127 128 0
183 184 136 191 138 139 0
183 184 146 191 148 149 0
183 184 155 191 157 158 0
183 184 163 191 165 166 0
183 184 170 191 172 173 0
183 184 176 191 178 179 0
183 185 186 192 193 196 0
183 185 100 192 102 104 0
183 185 113 192 115 117 0
183 185 125 192 127 129 0
183 185 136 192 138 140 0
183 185 146 192 148 150 0
183 185 155 192 157 159 0
183 185 163 192 165 167 0
183 185 170 192 172 174 0
183 185 176 192 178 180 0
183 186 100 193 102 105 0
183 186 113 193 115 118 0
183 186 125 193 127 130 0
183 186 136 193 138 141 0
183 186 146 193 148 151 0
183 186 155 193 157 160 0
183 186 163 193 165 168 0
183 186 170 193 172 175 0
183 186 176 193 178 181 0
183 100 113 102 115 92 0
183 100 125 102 127 93 0
183 100 136 102 138 94 0
183 100 146 102 148 95 0
183 100 155 102 157 96 0
183 100 163 102 165 97 0
183 100 170 102 172 98 0
183 100 176 102 178 99 0
183 113 125 115 127 106 0
183 113 136 115 138 107 0
183 113 146 115 148 108 0
183 113 155 115 157 109 0
183 113 163 115 165 110 0
183 113 170 115 172 111 0
183 113 176 115 178 112 0
183 125 136 127 138 119 0
183 125 146 127 148 120 0
183 125 155 127 157 121 0
183 125 163 127 165 122 0
183 125 170 127 172 123 0
183 125 176 127 178 124 0
183 136 146 138 148 131 0
183 136 155 138 157 132 0
183 136 163 138 165 133 0
183 136 170 138 172 134 0
183 136 176 138 178 135 0
183 146 155 148 157 142 0
183 146 163 148 165 143 0
183 146 170 148 172 144 0
183 146 176 148 178 145 0
183 155 163 157 165 152 0
183 155 170 157 172 153 0
183 155 176 157 178 154 0
183 163 170 165 172 161 0
183 163 176 165 178 162 0
183 170 176 172 178 169 0
184 185 186 194 195 196 0
184 185 100 194 103 104 0
184 185 113 194 116 117 0
184 185 125 194 128 129 0
184 185 136 194 139 140 0
184 185 146 194 149 150 0
184 185 155 194 158 159 0
184 185 163 194 166 167 0
184 185 170 194 173 174 0
184 185 176 194 179 180 0
184 186 100 195 103 105 0
184 186 113 195 116 118 0
184 186 125 195 128 130 0
184 186 136 195 139 141 0
184 186 146 195 149 151 0
184 186 155 195 158 160 0
184 186 163 195 166 168 0
184 186 170 195 173 175 0
184 186 176 195 179 181 0
184 100 113 103 116 92 0
184 100 125 103 128 93 0
184 100 136 103 139 94 0
184 100 146 103 149 95 0
184 100 155 103 158 96 0
184 100 163 103 166 97 0
184 100 170 103 173 98 0
184 100 176 103 179 99 0
184 113 125 116 128 106 0
184 113 136 116 139 107 0
184 113 146 116 149 108 0
184 113 155 116 158 109 0
184 113 163 116 166 110 0
184 113 170 116 173 111 0
184 113 176 116 179 112 0
184 125 136 128 139 119 0
184 125 146 128 149 120 0
184 125 155 128 158 121 0
184 125 163 128 166 122 0
184 125 170 128 173 123 0
184 125 176 128 179 124 0
184 136 146 139 149 131 0
184 136 155 139 158 132 0
184 136 163 139 166 133 0
184 136 170 139 173 134 0
184 136 176 139 179 135 0
184 146 155 149 158 142 0
184 146 163 149 166 143 0
184 146 170 149 173 144 0
184 146 176 149 179 145 0
184 155 163 158 166 152 0
184 155 170 158 173 153 0
184 155 176 158 179 154 0
184 163 170 166 173 161 0
184 163 176 166 179 162 0
184 170 176 173 179 169 0
185 186 100 196 104 105 0
185 186 113 196 117 118 0
185 186 125 196 129 130 0
185 186 136 196 140 141 0
185 186 146 196 150 151 0
185 186 155 196 159 160 0
185 186 163 196 167 168 0
185 186 170 196 174 175 0
185 186 176 196 180 181 0
185 100 113 104 117 92 0
185 100 125 104 129 93 0
185 100 136 104 140 94 0
185 100 146 104 150 95 0
185 100 155 104 159 96 0
185 100 163 104 167 97 0
185 100 170 104 174 98 0
185 100 176 104 180 99 0
185 113 125 117 129 106 0
185 113 136 117 140 107 0
185 113 146 117 150 108 0
185 113 155 117 159 109 0
185 113 163 117 167 110 0
185 113 170 117 174 111 0
185 113 176 117 180 112 0
185 125 136 129 140 119 0
185 125 146 129 150 120 0
185 125 155 129 159 121 0
185 125 163 129 167 122 0
185 125 170 129 174 123 0
185 125 176 129 180 124 0
185 136 146 140 150 131 0
185 136 155 140 159 132 0
185 136 163 140 167 133 0
185 136 170 140 174 134 0
185 136 176 140 180 135 0
185 146 155 150 159 142 0
185 146 163 150 167 143 0
185 146 170 150 174 144 0
185 146 176 150 180 145 0
185 155 163 159 167 152 0
185 155 170 159 174 153 0
185 155 176 159 180 154 0
185 163 170 167 174 161 0
185 163 176 167 180 162 0
185 170 176 174 180 169 0
186 100 113 105 118 92 0
186 100 125 105 130 93 0
186 100 136 105 141 94 0
186 100 146 105 151 95 0
186 100 155 105 160 96 0
186 100 163 105 168 97 0
186 100 170 105 175 98 0
186 100 176 105 181 99 0
186 113 125 118 130 106 0
186 113 136 118 141 107 0
186 113 146 118 151 108 0
186 113 155 118 160 109 0
186 113 163 118 168 110 0
186 113 170 118 175 111 0
186 113 176 118 181 112 0
186 125 136 130 141 119 0
186 125 146 130 151 120 0
186 125 155 130 160 121 0
186 125 163 130 168 122 0
186 125 170 130 175 123 0
186 125 176 130 181 124 0
186 136 146 141 151 131 0
186 136 155 141 160 132 0
186 136 163 141 168 133 0
186 136 170 141 175 134 0
186 136 176 141 181 135 0
186 146 155 151 160 142 0
186 146 163 151 168 143 0
186 146 170 151 175 144 0
186 146 176 151 181 145 0
186 155 163 160 168 152 0
186 155 170 160 175 153 0
186 155 176 160 181 154 0
186 163 170 168 175 161 0
186 163 176 168 181 162 0
186 170 176 175 181 169 0
100 113 125 92 93 106 0
100 113 136 92 94 107 0
100 113 146 92 95 108 0
100 113 155 92 96 109 0
100 113 163 92 97 110 0
100 113 170 92 98 111 0
100 113 176 92 99 112 0
100 125 136 93 94 119 0
100 125 146 93 95 120 0
100 125 155 93 96 121 0
100 125 163 93 97 122 0
100 125 170 93 98 123 0
100 125 176 93 99 124 0
100 136 146 94 95 131 0
100 136 155 94 96 132 0
100 136 163 94 97 133 0
100 136 170 94 98 134 0
100 136 176 94 99 135 0
100 146 155 95 96 142 0
100 146 163 95 97 143 0
100 146 170 95 98 144 0
100 146 176 95 99 145 0
100 155 163 96 97 152 0
100 155 170 96 98 153 0
100 155 176 96 99 154 0
100 163 170 97 98 161 0
100 163 176 97 99 162 0
100 170 176 98 99 169 0
113 125 136 106 107 119 0
113 125 146 106 108 120 0
113 125 155 106 109 121 0
113 125 163 106 110 122 0
113 125 170 106 111 123 0
113 125 176 106 112 124 0
113 136 146 107 108 131 0
113 136 155 107 109 132 0
113 136 163 107 110 133 0
113 136 170 107 111 134 0
113 136 176 107 112 135 0
113 146 155 108 109 142 0
113 146 163 108 110 143 0
113 146 170 108 111 144 0
113 146 176 108 112 145 0
113 155 163 109 110 152 0
113 155 170 109 111 153 0
113 155 176 109 112 154 0
113 163 170 110 111 161 0
113 163 176 110 112 162 0
113 170 176 111 112 169 0
125 136 146 119 120 131 0
125 136 155 119 121 132 0
125 136 163 119 122 133 0
125 136 170 119 123 134 0
125 136 176 119 124 135 0
125 146 155 120 121 142 0
125 146 163 120 122 143 0
125 146 170 120 123 144 0
125 146 176 120 124 145 0
125 155 163 121 122 152 0
125 155 170 121 123 153 0
125 155 176 121 124 154 0
125 163 170 122 123 161 0
125 163 176 122 124 162 0
125 170 176 123 124 169 0
136 146 155 131 132 142 0
136 146 163 131 133 143 0
136 146 170 131 134 144 0
136 146 176 131 135 145 0
136 155 163 132 133 152 0
136 155 170 132 134 153 0
136 155 176 132 135 154 0
136 163 170 133 134 161 0
136 163 176 133 135 162 0
136 170 176 134 135 169 0
146 155 163 142 143 152 0
146 155 170 142 144 153 0
146 155 176 142 145 154 0
146 163 170 143 144 161 0
146 163 176 143 145 162 0
146 170 176 144 145 169 0
155 163 170 152 153 161 0
155 163 176 152 154 162 0
155 170 176 153 154 169 0
163 170 176 161 162 169 0
187 188 189 191 192 194 0
187 188 190 191 193 195 0
187 188 101 191 102 103 0
187 188 114 191 115 116 0
187 188 126 191 127 128 0
187 188 137 191 138 139 0
187 188 147 191 148 149 0
187 188 156 191 157 158 0
187 188 164 191 165 166 0
187 188 171 191 172 173 0
187 188 177 191 178 179 0
187 188 182 191 183 184 0
187 189 190 192 193 196 0
187 189 101 192 102 104 0
187 189 114 192 115 117 0
187 189 126 192 127 129 0
187 189 137 192 138 140 0
187 189 147 192 148 150 0
187 189 156 192 157 159 0
187 189 164 192 165 167 0
187 189 171 192 172 174 0
187 189 177 192 178 180 0
187 189 182 192 183 185 0
187 190 101 193 102 105 0
187 190 114 193 115 118 0
187 190 126 193 127 130 0
187 190 137 193 138 141 0
187 190 147 193 148 151 0
187 190 156 193 157 160 0
187 190 164 193 165 168 0
187 190 171 193 172 175 0
187 190 177 193 178 181 0
187 190 182 193 183 186 0
187 101 114 102 115 92 0
187 101 126 102 127 93 0
187 101 137 102 138 94 0
187 101 147 102 148 95 0
187 101 156 102 157 96 0
187 101 164 102 165 97 0
187 101 171 102 172 98 0
187 101 177 102 178 99 0
187 101 182 102 183 100 0
187 114 126 115 127 106 0
187 114 137 115 138 107 0
187 114 147 115 148 108 0
187 114 156 115 157 109 0
187 114 164 115 165 110 0
187 114 171 115 172 111 0
187 114 177 115 178 112 0
187 114 182 115 183 113 0
187 126 137 127 138 119 0
187 126 147 127 148 120 0
187 126 156 127 157 121 0
187 126 164 127 165 122 0
187 126 171 127 172 123 0
187 126 177 127 178 124 0
187 126 182 127 183 125 0
187 137 147 138 148 131 0
187 137 156 138 157 132 0
187 137 164 138 165 133 0
187 137 171 138 172 134 0
187 137 177 138 178 135 0
187 137 182 138 183 136 0
187 147 156 148 157 142 0
187 147 164 148 165 143 0
187 147 171 148 172 144 0
187 147 177 148 178 145 0
187 147 182 148 183 146 0
187 156 164 157 165 152 0
187 156 171 157 172 153 0
187 156 177 157 178 154 0
187 156 182 157 183 155 0
187 164 171 165 172 161 0
187 164 177 165 178 162 0
187 164 182 165 183 163 0
187 171 177 172 178 169 0
187 171 182 172 183 170 0
187 177 182 178 183 176 0
188 189 190 194 195 196 0
188 189 101 194 103 104 0
188 189 114 194 116 117 0
188 189 126 194 128 129 0
188 189 137 194 139 140 0
188 189 147 194 149 150 0
188 189 156 194 158 159 0
188 189 164 194 166 167 0
188 189 171 194 173 174 0
188 189 177 194 179 180 0
188 189 182 194 184 185 0
188 190 101 195 103 105 0
188 190 114 195 116 118 0
188 190 126 195 128 130 0
188 190 137 195 139 141 0
188 190 147 195 149 151 0
188 190 156 195 158 160 0
188 190 164 195 166 168 0
188 190 171 195 173 175 0
188 190 177 195 179 181 0
188 190 182 195 184 186 0
188 101 114 103 116 92 0
188 101 126 103 128 93 0
188 101 137 103 139 94 0
188 101 147 103 149 95 0
188 101 156 103 158 96 0
188 101 164 103 166 97 0
188 101 171 103 173 98 0
188 101 177 103 179 99 0
188 101 182 103 184 100 0
188 114 126 116 128 106 0
188 114 137 116 139 107 0
188 114 147 116 149 108 0
188 114 156 116 158 109 0
188 114 164 116 166 110 0
188 114 171 116 173 111 0
188 114 177 116 179 112 0
188 114 182 116 184 113 0
188 126 137 128 139 119 0
188 126 147 128 149 120 0
188 126 156 128 158 121 0
188 126 164 128 166 122 0
188 126 171 128 173 123 0
188 126 177 128 179 124 0
188 126 182 128 184 125 0
188 137 147 139 149 131 0
188 137 156 139 158 132 0
188 137 164 139 166 133 0
188 137 171 139 173 134 0
188 137 177 139 179 135 0
188 137 182 139 184 136 0
188 147 156 149 158 142 0
188 147 164 149 166 143 0
188 147 171 149 173 144 0
188 147 177 149 179 145 0
188 147 182 149 184 146 0
188 156 164 158 166 152 0
188 156 171 158 173 153 0
188 156 177 158 179 154 0
188 156 182 158 184 155 0
188 164 171 166 173 161 0
188 164 177 166 179 162 0
188 164 182 166 184 163 0
188 171 177 173 179 169 0
188 171 182 173 184 170 0
188 177 182 179 184 176 0
189 190 101 196 104 105 0
189 190 114 196 117 118 0
189 190 126 196 129 130 0
189 190 137 196 140 141 0
189 190 147 196 150 151 0
189 190 156 196 159 160 0
189 190 164 196 167 168 0
189 190 171 196 174 175 0
189 190 177 196 180 181 0
189 190 182 196 185 186 0
189 101 114 104 117 92 0
189 101 126 104 129 93 0
189 101 137 104 140 94 0
189 101 147 104 150 95 0
189 101 156 104 159 96 0
189 101 164 104 167 97 0
189 101 171 104 174 98 0
189 101 177 104 180 99 0
189 101 182 104 185 100 0
189 114 126 117 129 106 0
189 114 137 117 140 107 0
189 114 147 117 150 108 0
189 114 156 117 159 109 0
189 114 164 117 167 110 0
189 114 171 117 174 111 0
189 114 177 117 180 112 0
189 114 182 117 185 113 0
189 126 137 129 140 119 0
189 126 147 129 150 120 0
189 126 156 129 159 121 0
189 126 164 129 167 122 0
189 126 171 129 174 123 0
189 126 177 129 180 124 0
189 126 182 129 185 125 0
189 137 147 140 150 131 0
189 137 156 140 159 132 0
189 137 164 140 167 133 0
189 137 171 140 174 134 0
189 137 177 140 180 135 0
189 137 182 140 185 136 0
189 147 156 150 159 142 0
189 147 164 150 167 143 0
189 147 171 150 174 144 0
189 147 177 150 180 145 0
189 147 182 150 185 146 0
189 156 164 159 167 152 0
189 156 171 159 174 153 0
189 156 177 159 180 154 0
189 156 182 159 185 155 0
189 164 171 167 174 161 0
189 164 177 167 180 162 0
189 164 182 167 185 163 0
189 171 177 174 180 169 0
189 171 182 174 185 170 0
189 177 182 180 185 176 0
190 101 114 105 118 92 0
190 101 126 105 130 93 0
190 101 137 105 141 94 0
190 101 147 105 151 95 0
190 101 156 105 160 96 0
190 101 164 105 168 97 0
190 101 171 105 175 98 0
190 101 177 105 181 99 0
190 101 182 105 186 100 0
190 114 126 118 130 106 0
190 114 137 118 141 107 0
190 114 147 118 151 108 0
190 114 156 118 160 109 0
190 114 164 118 168 110 0
190 114 171 118 175 111 0
190 114 177 118 181 112 0
190 114 182 118 186 113 0
190 126 137 130 141 119 0
190 126 147 130 151 120 0
190 126 156 130 160 121 0
190 126 164 130 168 122 0
190 126 171 130 175 123 0
190 126 177 130 181 124 0
190 126 182 130 186 125 0
190 137 147 141 151 131 0
190 137 156 141 160 132 0
190 137 164 141 168 133 0
190 137 171 141 175 134 0
190 137 177 141 181 135 0
190 137 182 141 186 136 0
190 147 156 151 160 142 0
190 147 164 151 168 143 0
190 147 171 151 175 144 0
190 147 177 151 181 145 0
190 147 182 151 186 146 0
190 156 164 160 168 152 0
190 156 171 160 175 153 0
190 156 177 160 181 154 0
190 156 182 160 186 155 0
190 164 171 168 175 161 0
190 164 177 168 181 162 0
190 164 182 168 186 163 0
190 171 177 175 181 169 0
190 171 182 175 186 170 0
190 177 182 181 186 176 0
101 114 126 92 93 106 0
101 114 137 92 94 107 0
101 114 147 92 95 108 0
101 114 156 92 96 109 0
101 114 164 92 97 110 0
101 114 171 92 98 111 0
101 114 177 92 99 112 0
101 114 182 92 100 113 0
101 126 137 93 94 119 0
101 126 147 93 95 120 0
101 126 156 93 96 121 0
101 126 164 93 97 122 0
101 126 171 93 98 123 0
101 126 177 93 99 124 0
101 126 182 93 100 125 0
101 137 147 94 95 131 0
101 137 156 94 96 132 0
101 137 164 94 97 133 0
101 137 171 94 98 134 0
101 137 177 94 99 135 0
101 137 182 94 100 136 0
101 147 156 95 96 142 0
101 147 164 95 97 143 0
101 147 171 95 98 144 0
101 147 177 95 99 145 0
101 147 182 95 100 146 0
101 156 164 96 97 152 0
101 156 171 96 98 153 0
101 156 177 96 99 154 0
101 156 182 96 100 155 0
101 164 171 97 98 161 0
101 164 177 97 99 162 0
101 164 182 97 100 163 0
101 171 177 98 99 169 0
101 171 182 98 100 170 0
101 177 182 99 100 176 0
114 126 137 106 107 119 0
114 126 147 106 108 120 0
114 126 156 106 109 121 0
114 126 164 106 110 122 0
114 126 171 106 111 123 0
114 126 177 106 112 124 0
114 126 182 106 113 125 0
114 137 147 107 108 131 0
114 137 156 107 109 132 0
114 137 164 107 110 133 0
114 137 171 107 111 134 0
114 137 177 107 112 135 0
114 137 182 107 113 136 0
114 147 156 108 109 142 0
114 147 164 108 110 143 0
114 147 171 108 111 144 0
114 147 177 108 112 145 0
114 147 182 108 113 146 0
114 156 164 109 110 152 0
114 156 171 109 111 153 0
114 156 177 109 112 154 0
114 156 182 109 113 155 0
114 164 171 110 111 161 0
114 164 177 110 112 162 0
114 164 182 110 113 163 0
114 171 177 111 112 169 0
114 171 182 111 113 170 0
114 177 182 112 113 176 0
126 137 147 119 120 131 0
126 137 156 119 121 132 0
126 137 164 119 122 133 0
126 137 171 119 123 134 0
126 137 177 119 124 135 0
126 137 182 119 125 136 0
126 147 156 120 121 142 0
126 147 164 120 122 143 0
126 147 171 120 123 144 0
126 147 177 120 124 145 0
126 147 182 120 125 146 0
126 156 164 121 122 152 0
126 156 171 121 123 153 0
126 156 177 121 124 154 0
126 156 182 121 125 155 0
126 164 171 122 123 161 0
126 164 177 122 124 162 0
126 164 182 122 125 163 0
126 171 177 123 124 169 0
126 171 182 123 125 170 0
126 177 182 124 125 176 0
137 147 156 131 132 142 0
137 147 164 131 133 143 0
137 147 171 131 134 144 0
137 147 177 131 135 145 0
137 147 182 131 136 146 0
137 156 164 132 133 152 0
137 156 171 132 134 153 0
137 156 177 132 135 154 0
137 156 182 132 136 155 0
137 164 171 133 134 161 0
137 164 177 133 135 162 0
137 164 182 133 136 163 0
137 171 177 134 135 169 0
137 171 182 134 136 170 0
137 177 182 135 136 176 0
147 156 164 142 143 152 0
147 156 171 142 144 153 0
147 156 177 142 145 154 0
147 156 182 142 146 155 0
147 164 171 143 144 161 0
147 164 177 143 145 162 0
147 164 182 143 146 163 0
147 171 177 144 145 169 0
147 171 182 144 146 170 0
147 177 182 145 146 176 0
156 164 171 152 153 161 0
156 164 177 152 154 162 0
156 164 182 152 155 163 0
156 171 177 153 154 169 0
156 171 182 153 155 170 0
156 177 182 154 155 176 0
164 171 177 161 162 169 0
164 171 182 161 163 170 0
164 177 182 162 163 176 0
171 177 182 169 170 176 0
191 192 193 194 195 196 0
191 192 102 194 103 104 0
191 192 115 194 116 117 0
191 192 127 194 128 129 0
191 192 138 194 139 140 0
191 192 148 194 149 150 0
191 192 157 194 158 159 0
191 192 165 194 166 167 0
191 192 172 194 173 174 0
191 192 178 194 179 180 0
191 192 183 194 184 185 0
191 192 187 194 188 189 0
191 193 102 195 103 105 0
191 193 115 195 116 118 0
191 193 127 195 128 130 0
191 193 138 195 139 141 0
191 193 148 195 149 151 0
191 193 157 195 158 160 0
191 193 165 195 166 168 0
191 193 172 195 173 175 0
191 193 178 195 179 181 0
191 193 183 195 184 186 0
191 193 187 195 188 190 0
191 102 115 103 116 92 0
191 102 127 103 128 93 0
191 102 138 103 139 94 0
191 102 148 103 149 95 0
191 102 157 103 158 96 0
191 102 165 103 166 97 0
191 102 172 103 173 98 0
191 102 178 103 179 99 0
191 102 183 103 184 100 0
191 102 187 103 188 101 0
191 115 127 116 128 106 0
191 115 138 116 139 107 0
191 115 148 116 149 108 0
191 115 157 116 158 109 0
191 115 165 116 166 110 0
191 115 172 116 173 111 0
191 115 178 116 179 112 0
191 115 183 116 184 113 0
191 115 187 116 188 114 0
191 127 138 128 139 119 0
191 127 148 128 149 120 0
191 127 157 128 158 121 0
191 127 165 128 166 122 0
191 127 172 128 173 123 0
191 127 178 128 179 124 0
191 127 183 128 184 125 0
191 127 187 128 188 126 0
191 138 148 139 149 131 0
191 138 157 139 158 132 0
191 138 165 139 166 133 0
191 138 172 139 173 134 0
191 138 178 139 179 135 0
191 138 183 139 184 136 0
191 138 187 139 188 137 0
191 148 157 149 158 142 0
191 148 165 149 166 143 0
191 148 172 149 173 144 0
191 148 178 149 179 145 0
191 148 183 149 184 146 0
191 148 187 149 188 147 0
191 157 165 158 166 152 0
191 157 172 158 173 153 0
191 157 178 158 179 154 0
191 157 183 158 184 155 0
191 157 187 158 188 156 0
191 165 172 166 173 161 0
191 165 178 166 179 162 0
191 165 183 166 184 163 0
191 165 187 166 188 164 0
191 172 178 173 179 169 0
191 172 183 173 184 170 0
191 172 187 173 188 171 0
191 178 183 179 184 176 0
191 178 187 179 188 177 0
191 183 187 184 188 182 0
192 193 102 196 104 105 0
192 193 115 196 117 118 0
192 193 127 196 129 130 0
192 193 138 196 140 141 0
192 193 148 196 150 151 0
192 193 157 196 159 160 0
192 193 165 196 167 168 0
192 193 172 196 174 175 0
192 193 178 196 180 181 0
192 193 183 196 185 186 0
192 193 187 196 189 190 0
192 102 115 104 117 92 0
192 102 127 104 129 93 0
192 102 138 104 140 94 0
192 102 148 104 150 95 0
192 102 157 104 159 96 0
192 102 165 104 167 97 0
192 102 172 104 174 98 0
192 102 178 104 180 99 0
192 102 183 104 185 100 0
192 102 187 104 189 101 0
192 115 127 117 129 106 0
192 115 138 117 140 107 0
192 115 148 117 150 108 0
192 115 157 117 159 109 0
192 115 165 117 167 110 0
192 115 172 117 174 111 0
192 115 178 117 180 112 0
192 115 183 117 185 113 0
192 115 187 117 189 114 0
192 127 138 129 140 119 0
192 127 148 129 150 120 0
192 127 157 129 159 121 0
192 127 165 129 167 122 0
192 127 172 129 174 123 0
192 127 178 129 180 124 0
192 127 183 129 185 125 0
192 127 187 129 189 126 0
192 138 148 140 150 131 0
192 138 157 140 159 132 0
192 138 165 140 167 133 0
192 138 172 140 174 134 0
192 138 178 140 180 135 0
192 138 183 140 185 136 0
192 138 187 140 189 137 0
192 148 157 150 159 142 0
192 148 165 150 167 143 0
192 148 172 150 174 144 0
192 148 178 150 180 145 0
192 148 183 150 185 146 0
192 148 187 150 189 147 0
192 157 165 159 167 152 0
192 157 172 159 174 153 0
192 157 178 159 180 154 0
192 157 183 159 185 155 0
192 157 187 159 189 156 0
192 165 172 167 174 161 0
192 165 178 167 180 162 0
192 165 183 167 185 163 0
192 165 187 167 189 164 0
192 172 178 174 180 169 0
192 172 183 174 185 170 0
192 172 187 174 189 171 0
192 178 183 180 185 176 0
192 178 187 180 189 177 0
192 183 187 185 189 182 0
193 102 115 105 118 92 0
193 102 127 105 130 93 0
193 102 138 105 141 94 0
193 102 148 105 151 95 0
193 102 157 105 160 96 0
193 102 165 105 168 97 0
193 102 172 105 175 98 0
193 102 178 105 181 99 0
193 102 183 105 186 100 0
193 102 187 105 190 101 0
193 115 127 118 130 106 0
193 115 138 118 141 107 0
193 115 148 118 151 108 0
193 115 157 118 160 109 0
193 115 165 118 168 110 0
193 115 172 118 175 111 0
193 115 178 118 181 112 0
193 115 183 118 186 113 0
193 115 187 118 190 114 0
193 127 138 130 141 119 0
193 127 148 130 151 120 0
193 127 157 130 160 121 0
193 127 165 130 168 122 0
193 127 172 130 175 123 0
193 127 178 130 181 124 0
193 127 183 130 186 125 0
193 127 187 130 190 126 0
193 138 148 141 151 131 0
193 138 157 141 160 132 0
193 138 165 141 168 133 0
193 138 172 141 175 134 0
193 138 178 141 181 135 0
193 138 183 141 186 136 0
193 138 187 141 190 137 0
193 148 157 151 160 142 0
193 148 165 151 168 143 0
193 148 172 151 175 144 0
193 148 178 151 181 145 0
193 148 183 151 186 146 0
193 148 187 151 190 147 0
193 157 165 160 168 152 0
193 157 172 160 175 153 0
193 157 178 160 181 154 0
193 157 183 160 186 155 0
193 157 187 160 190 156 0
193 165 172 168 175 161 0
193 165 178 168 181 162 0
193 165 183 168 186 163 0
193 165 187 168 190 164 0
193 172 178 175 181 169 0
193 172 183 175 186 170 0
193 172 187 175 190 171 0
193 178 183 181 186 176 0
193 178 187 181 190 177 0
193 183 187 186 190 182 0
102 115 127 92 93 106 0
102 115 138 92 94 107 0
102 115 148 92 95 108 0
102 115 157 92 96 109 0
102 115 165 92 97 110 0
102 115 172 92 98 111 0
102 115 178 92 99 112 0
102 115 183 92 100 113 0
102 115 187 92 101 114 0
102 127 138 93 94 119 0
102 127 148 93 95 120 0
102 127 157 93 96 121 0
102 127 165 93 97 122 0
102 127 172 93 98 123 0
102 127 178 93 99 124 0
102 127 183 93 100 125 0
102 127 187 93 101 126 0
102 138 148 94 95 131 0
102 138 157 94 96 132 0
102 138 165 94 97 133 0
102 138 172 94 98 134 0
102 138 178 94 99 135 0
102 138 183 94 100 136 0
102 138 187 94 101 137 0
102 148 157 95 96 142 0
102 148 165 95 97 143 0
102 148 172 95 98 144 0
102 148 178 95 99 145 0
102 148 183 95 100 146 0
102 148 187 95 101 147 0
102 157 165 96 97 152 0
102 157 172 96 98 153 0
102 157 178 96 99 154 0
102 157 183 96 100 155 0
102 157 187 96 101 156 0
102 165 172 97 98 161 0
102 165 178 97 99 162 0
102 165 183 97 100 163 0
102 165 187 97 101 164 0
102 172 178 98 99 169 0
102 172 183 98 100 170 0
102 172 187 98 101 171 0
102 178 183 99 100 176 0
102 178 187 99 101 177 0
102 183 187 100 101 182 0
115 127 138 106 107 119 0
115 127 148 106 108 120 0
115 127 157 106 109 121 0
115 127 165 106 110 122 0
115 127 172 106 111 123 0
115 127 178 106 112 124 0
115 127 183 106 113 125 0
115 127 187 106 114 126 0
115 138 148 107 108 131 0
115 138 157 107 109 132 0
115 138 165 107 110 133 0
115 138 172 107 111 134 0
115 138 178 107 112 135 0
115 138 183 107 113 136 0
115 138 187 107 114 137 0
115 148 157 108 109 142 0
115 148 165 108 110 143 0
115 148 172 108 111 144 0
115 148 178 108 112 145 0
115 148 183 108 113 146 0
115 148 187 108 114 147 0
115 157 165 109 110 152 0
115 157 172 109 111 153 0
115 157 178 109 112 154 0
115 157 183 109 113 155 0
115 157 187 109 114 156 0
115 165 172 110 111 161 0
115 165 178 110 112 162 0
115 165 183 110 113 163 0
115 165 187 110 114 164 0
115 172 178 111 112 169 0
115 172 183 111 113 170 0
115 172 187 111 114 171 0
115 178 183 112 113 176 0
115 178 187 112 114 177 0
115 183 187 113 114 182 0
127 138 148 119 120 131 0
127 138 157 119 121 132 0
127 138 165 119 122 133 0
127 138 172 119 123 134 0
127 138 178 119 124 135 0
127 138 183 119 125 136 0
127 138 187 119 126 137 0
127 148 157 120 121 142 0
127 148 165 120 122 143 0
127 148 172 120 123 144 0
127 148 178 120 124 145 0
127 148 183 120 125 146 0
127 148 187 120 126 147 0
127 157 165 121 122 152 0
127 157 172 121 123 153 0
127 157 178 121 124 154 0
127 157 183 121 125 155 0
127 157 187 121 126 156 0
127 165 172 122 123 161 0
127 165 178 122 124 162 0
127 165 183 122 125 163 0
127 165 187 122 126 164 0
127 172 178 123 124 169 0
127 172 183 123 125 170 0
127 172 187 123 126 171 0
127 178 183 124 125 176 0
127 178 187 124 126 177 0
127 183 187 125 126 182 0
138 148 157 131 132 142 0
138 148 165 131 133 143 0
138 148 172 131 134 144 0
138 148 178 131 135 145 0
138 148 183 131 136 146 0
138 148 187 131 137 147 0
138 157 165 132 133 152 0
138 157 172 132 134 153 0
138 157 178 132 135 154 0
138 157 183 132 136 155 0
138 157 187 132 137 156 0
138 165 172 133 134 161 0
138 165 178 133 135 162 0
138 165 183 133 136 163 0
138 165 187 133 137 164 0
138 172 178 134 135 169 0
138 172 183 134 136 170 0
138 172 187 134 137 171 0
138 178 183 135 136 176 0
138 178 187 135 137 177 0
138 183 187 136 137 182 0
148 157 165 142 143 152 0
148 157 172 142 144 153 0
148 157 178 142 145 154 0
148 157 183 142 146 155 0
148 157 187 142 147 156 0
148 165 172 143 144 161 0
148 165 178 143 145 162 0
148 165 183 143 146 163 0
148 165 187 143 147 164 0
148 172 178 144 145 169 0
148 172 183 144 146 170 0
148 172 187 144 147 171 0
148 178 183 145 146 176 0
148 178 187 145 147 177 0
148 183 187 146 147 182 0
157 165 172 152 153 161 0
157 165 178 152 154 162 0
157 165 183 152 155 163 0
157 165 187 152 156 164 0
157 172 178 153 154 169 0
157 172 183 153 155 170 0
157 172 187 153 156 171 0
157 178 183 154 155 176 0
157 178 187 154 156 177 0
157 183 187 155 156 182 0
165 172 178 161 162 169 0
165 172 183 161 163 170 0
165 172 187 161 164 171 0
165 178 183 162 163 176 0
165 178 187 162 164 177 0
165 183 187 163 164 182 0
172 178 183 169 170 176 0
172 178 187 169 171 177 0
172 183 187 170 171 182 0
178 183 187 176 177 182 0
194 195 103 196 104 105 0
194 195 116 196 117 118 0
194 195 128 196 129 130 0
194 195 139 196 140 141 0
194 195 149 196 150 151 0
194 195 158 196 159 160 0
194 195 166 196 167 168 0
194 195 173 196 174 175 0
194 195 179 196 180 181 0
194 195 184 196 185 186 0
194 195 188 196 189 190 0
194 195 191 196 192 193 0
194 103 116 104 117 92 0
194 103 128 104 129 93 0
194 103 139 104 140 94 0
194 103 149 104 150 95 0
194 103 158 104 159 96 0
194 103 166 104 167 97 0
194 103 173 104 174 98 0
194 103 179 104 180 99 0
194 103 184 104 185 100 0
194 103 188 104 189 101 0
194 103 191 104 192 102 0
194 116 128 117 129 106 0
194 116 139 117 140 107 0
194 116 149 117 150 108 0
194 116 158 117 159 109 0
194 116 166 117 167 110 0
194 116 173 117 174 111 0
194 116 179 117 180 112 0
194 116 184 117 185 113 0
194 116 188 117 189 114 0
194 116 191 117 192 115 0
194 128 139 129 140 119 0
194 128 149 129 150 120 0
194 128 158 129 159 121 0
194 128 166 129 167 122 0
194 128 173 129 174 123 0
194 128 179 129 180 124 0
194 128 184 129 185 125 0
194 128 188 129 189 126 0
194 128 191 129 192 127 0
194 139 149 140 150 131 0
194 139 158 140 159 132 0
194 139 166 140 167 133 0
194 139 173 140 174 134 0
194 139 179 140 180 135 0
194 139 184 140 185 136 0
194 139 188 140 189 137 0
194 139 191 140 192 138 0
194 149 158 150 159 142 0
194 149 166 150 167 143 0
194 149 173 150 174 144 0
194 149 179 150 180 145 0
194 149 184 150 185 146 0
194 149 188 150 189 147 0
194 149 191 150 192 148 0
194 158 166 159 167 152 0
194 158 173 159 174 153 0
194 158 179 159 180 154 0
194 158 184 159 185 155 0
194 158 188 159 189 156 0
194 158 191 159 192 157 0
194 166 173 167 174 161 0
194 166 179 167 180 162 0
194 166 184 167 185 163 0
194 166 188 167 189 164 0
194 166 191 167 192 165 0
194 173 179 174 180 169 0
194 173 184 174 185 170 0
194 173 188 174 189 171 0
194 173 191 174 192 172 0
194 179 184 180 185 176 0
194 179 188 180 189 177 0
194 179 191 180 192 178 0
194 184 188 185 189 182 0
194 184 191 185 192 183 0
194 188 191 189 192 187 0
195 103 116 105 118 92 0
195 103 128 105 130 93 0
195 103 139 105 141 94 0
195 103 149 105 151 95 0
195 103 158 105 160 96 0
195 103 166 105 168 97 0
195 103 173 105 175 98 0
195 103 179 105 181 99 0
195 103 184 105 186 100 0
195 103 188 105 190 101 0
195 103 191 105 193 102 0
195 116 128 118 130 106 0
195 116 139 118 141 107 0
195 116 149 118 151 108 0
195 116 158 118 160 109 0
195 116 166 118 168 110 0
195 116 173 118 175 111 0
195 116 179 118 181 112 0
195 116 184 118 186 113 0
195 116 188 118 190 114 0
195 116 191 118 193 115 0
195 128 139 130 141 119 0
195 128 149 130 151 120 0
195 128 158 130 160 121 0
195 128 166 130 168 122 0
195 128 173 130 175 123 0
195 128 179 130 181 124 0
195 128 184 130 186 125 0
195 128 188 130 190 126 0
195 128 191 130 193 127 0
195 139 149 141 151 131 0
195 139 158 141 160 132 0
195 139 166 141 168 133 0
195 139 173 141 175 134 0
195 139 179 141 181 135 0
195 139 184 141 186 136 0
195 139 188 141 190 137 0
195 139 191 141 193 138 0
195 149 158 151 160 142 0
195 149 166 151 168 143 0
195 149 173 151 175 144 0
195 149 179 151 181 145 0
195 149 184 151 186 146 0
195 149 188 151 190 147 0
195 149 191 151 193 148 0
195 158 166 160 168 152 0
195 158 173 160 175 153 0
195 158 179 160 181 154 0
195 158 184 160 186 155 0
195 158 188 160 190 156 0
195 158 191 160 193 157 0
195 166 173 168 175 161 0
195 166 179 168 181 162 0
195 166 184 168 186 163 0
195 166 188 168 190 164 0
195 166 191 168 193 165 0
195 173 179 175 181 169 0
195 173 184 175 186 170 0
195 173 188 175 190 171 0
195 173 191 175 193 172 0
195 179 184 181 186 176 0
195 179 188 181 190 177 0
195 179 191 181 193 178 0
195 184 188 186 190 182 0
195 184 191 186 193 183 0
195 188 191 190 193 187 0
103 116 128 92 93 106 0
103 116 139 92 94 107 0
103 116 149 92 95 108 0
103 116 158 92 96 109 0
103 116 166 92 97 110 0
103 116 173 92 98 111 0
103 116 179 92 99 112 0
103 116 184 92 100 113 0
103 116 188 92 101 114 0
103 116 191 92 102 115 0
103 128 139 93 94 119 0
103 128 149 93 95 120 0
103 128 158 93 96 121 0
103 128 166 93 97 122 0
103 128 173 93 98 123 0
103 128 179 93 99 124 0
103 128 184 93 100 125 0
103 128 188 93 101 126 0
103 128 191 93 102 127 0
103 139 149 94 95 131 0
103 139 158 94 96 132 0
103 139 166 94 97 133 0
103 139 173 94 98 134 0
103 139 179 94 99 135 0
103 139 184 94 100 136 0
103 139 188 94 101 137 0
103 139 191 94 102 138 0
103 149 158 95 96 142 0
103 149 166 95 97 143 0
103 149 173 95 98 144 0
103 149 179 95 99 145 0
103 149 184 95 100 146 0
103 149 188 95 101 147 0
103 149 191 95 102 148 0
103 158 166 96 97 152 0
103 158 173 96 98 153 0
103 158 179 96 99 154 0
103 158 184 96 100 155 0
103 158 188 96 101 156 0
103 158 191 96 102 157 0
103 166 173 97 98 161 0
103 166 179 97 99 162 0
103 166 184 97 100 163 0
103 166 188 97 101 164 0
103 166 191 97 102 165 0
103 173 179 98 99 169 0
103 173 184 98 100 170 0
103 173 188 98 101 171 0
103 173 191 98 102 172 0
103 179 184 99 100 176 0
103 179 188 99 101 177 0
103 179 191 99 102 178 0
103 184 188 100 101 182 0
103 184 191 100 102 183 0
103 188 191 101 102 187 0
116 128 139 106 107 119 0
116 128 149 106 108 120 0
116 128 158 106 109 121 0
116 128 166 106 110 122 0
116 128 173 106 111 123 0
116 128 179 106 112 124 0
116 128 184 106 113 125 0
116 128 188 106 114 126 0
116 128 191 106 115 127 0
116 139 149 107 108 131 0
116 139 158 107 109 132 0
116 139 166 107 110 133 0
116 139 173 107 111 134 0
116 139 179 107 112 135 0
116 139 184 107 113 136 0
116 139 188 107 114 137 0
116 139 191 107 115 138 0
116 149 158 108 109 142 0
116 149 166 108 110 143 0
116 149 173 108 111 144 0
116 149 179 108 112 145 0
116 149 184 108 113 146 0
116 149 188 108 114 147 0
116 149 191 108 115 148 0
116 158 166 109 110 152 0
116 158 173 109 111 153 0
116 158 179 109 112 154 0
116 158 184 109 113 155 0
116 158 188 109 114 156 0
116 158 191 109 115 157 0
116 166 173 110 111 161 0
116 166 179 110 112 162 0
116 166 184 110 113 163 0
116 166 188 110 114 164 0
116 166 191 110 115 165 0
116 173 179 111 112 169 0
116 173 184 111 113 170 0
116 173 188 111 114 171 0
116 173 191 111 115 172 0
116 179 184 112 113 176 0
116 179 188 112 114 177 0
116 179 191 112 115 178 0
116 184 188 113 114 182 0
116 184 191 113 115 183 0
116 188 191 114 115 187 0
128 139 149 119 120 131 0
128 139 158 119 121 132 0
128 139 166 119 122 133 0
128 139 173 119 123 134 0
128 139 179 119 124 135 0
128 139 184 119 125 136 0
128 139 188 119 126 137 0
128 139 191 119 127 138 0
128 149 158 120 121 142 0
128 149 166 120 122 143 0
128 149 173 120 123 144 0
128 149 179 120 124 145 0
128 149 184 120 125 146 0
128 149 188 120 126 147 0
128 149 191 120 127 148 0
128 158 166 121 122 152 0
128 158 173 121 123 153 0
128 158 179 121 124 154 0
128 158 184 121 125 155 0
128 158 188 121 126 156 0
128 158 191 121 127 157 0
128 166 173 122 123 161 0
128 166 179 122 124 162 0
128 166 184 122 125 163 0
128 166 188 122 126 164 0
128 166 191 122 127 165 0
128 173 179 123 124 169 0
128 173 184 123 125 170 0
128 173 188 123 126 171 0
128 173 191 123 127 172 0
128 179 184 124 125 176 0
128 179 188 124 126 177 0
128 179 191 124 127 178 0
128 184 188 125 126 182 0
128 184 191 125 127 183 0
128 188 191 126 127 187 0
139 149 158 131 132 142 0
139 149 166 131 133 143 0
139 149 173 131 134 144 0
139 149 179 131 135 145 0
139 149 184 131 136 146 0
139 149 188 131 137 147 0
139 149 191 131 138 148 0
139 158 166 132 133 152 0
139 158 173 132 134 153 0
139 158 179 132 135 154 0
139 158 184 132 136 155 0
139 158 188 132 137 156 0
139 158 191 132 138 157 0
139 166 173 133 134 161 0
139 166 179 133 135 162 0
139 166 184 133 136 163 0
139 166 188 133 137 164 0
139 166 191 133 138 165 0
139 173 179 134 135 169 0
139 173 184 134 136 170 0
139 173 188 134 137 171 0
139 173 191 134 138 172 0
139 179 184 135 136 176 0
139 179 188 135 137 177 0
139 179 191 135 138 178 0
139 184 188 136 137 182 0
139 184 191 136 138 183 0
139 188 191 137 138 187 0
149 158 166 142 143 152 0
149 158 173 142 144 153 0
149 158 179 142 145 154 0
149 158 184 142 146 155 0
149 158 188 142 147 156 0
149 158 191 142 148 157 0
149 166 173 143 144 161 0
149 166 179 143 145 162 0
149 166 184 143 146 163 0
149 166 188 143 147 164 0
149 166 191 143 148 165 0
149 173 179 144 145 169 0
149 173 184 144 146 170 0
149 173 188 144 147 171 0
149 173 191 144 148 172 0
149 179 184 145 146 176 0
149 179 188 145 147 177 0
149 179 191 145 148 178 0
149 184 188 146 147 182 0
149 184 191 146 148 183 0
149 188 191 147 148 187 0
158 166 173 152 153 161 0
158 166 179 152 154 162 0
158 166 184 152 155 163 0
158 166 188 152 156 164 0
158 166 191 152 157 165 0
158 173 179 153 154 169 0
158 173 184 153 155 170 0
158 173 188 153 156 171 0
158 173 191 153 157 172 0
158 179 184 154 155 176 0
158 179 188 154 156 177 0
158 179 191 154 157 178 0
158 184 188 155 156 182 0
158 184 191 155 157 183 0
158 188 191 156 157 187 0
166 173 179 161 162 169 0
166 173 184 161 163 170 0
166 173 188 161 164 171 0
166 173 191 161 165 172 0
166 179 184 162 163 176 0
166 179 188 162 164 177 0
166 179 191 162 165 178 0
166 184 188 163 164 182 0
166 184 191 163 165 183 0
166 188 191 164 165 187 0
173 179 184 169 170 176 0
173 179 188 169 171 177 0
173 179 191 169 172 178 0
173 184 188 170 171 182 0
173 184 191 170 172 183 0
173 188 191 171 172 187 0
179 184 188 176 177 182 0
179 184 191 176 178 183 0
179 188 191 177 178 187 0
184 188 191 182 183 187 0
196 104 117 105 118 92 0
196 104 129 105 130 93 0
196 104 140 105 141 94 0
196 104 150 105 151 95 0
196 104 159 105 160 96 0
196 104 167 105 168 97 0
196 104 174 105 175 98 0
196 104 180 105 181 99 0
196 104 185 105 186 100 0
196 104 189 105 190 101 0
196 104 192 105 193 102 0
196 104 194 105 195 103 0
196 117 129 118 130 106 0
196 117 140 118 141 107 0
196 117 150 118 151 108 0
196 117 159 118 160 109 0
196 117 167 118 168 110 0
196 117 174 118 175 111 0
196 117 180 118 181 112 0
196 117 185 118 186 113 0
196 117 189 118 190 114 0
196 117 192 118 193 115 0
196 117 194 118 195 116 0
196 129 140 130 141 119 0
196 129 150 130 151 120 0
196 129 159 130 160 121 0
196 129 167 130 168 122 0
196 129 174 130 175 123 0
196 129 180 130 181 124 0
196 129 185 130 186 125 0
196 129 189 130 190 126 0
196 129 192 130 193 127 0
196 129 194 130 195 128 0
196 140 150 141 151 131 0
196 140 159 141 160 132 0
196 140 167 141 168 133 0
196 140 174 141 175 134 0
196 140 180 141 181 135 0
196 140 185 141 186 136 0
196 140 189 141 190 137 0
196 140 192 141 193 138 0
196 140 194 141 195 139 0
196 150 159 151 160 142 0
196 150 167 151 168 143 0
196 150 174 151 175 144 0
196 150 180 151 181 145 0
196 150 185 151 186 146 0
196 150 189 151 190 147 0
196 150 192 151 193 148 0
196 150 194 151 195 149 0
196 159 167 160 168 152 0
196 159 174 160 175 153 0
196 159 180 160 181 154 0
196 159 185 160 186 155 0
196 159 189 160 190 156 0
196 159 192 160 193 157 0
196 159 194 160 195 158 0
196 167 174 168 175 161 0
196 167 180 168 181 162 0
196 167 185 168 186 163 0
196 167 189 168 190 164 0
196 167 192 168 193 165 0
196 167 194 168 195 166 0
196 174 180 175 181 169 0
196 174 185 175 186 170 0
196 174 189 175 190 171 0
196 174 192 175 193 172 0
196 174 194 175 195 173 0
196 180 185 181 186 176 0
196 180 189 181 190 177 0
196 180 192 181 193 178 0
196 180 194 181 195 179 0
196 185 189 186 190 182 0
196 185 192 186 193 183 0
196 185 194 186 195 184 0
196 189 192 190 193 187 0
196 189 194 190 195 188 0
196 192 194 193 195 191 0
104 117 129 92 93 106 0
104 117 140 92 94 107 0
104 117 150 92 95 108 0
104 117 159 92 96 109 0
104 117 167 92 97 110 0
104 117 174 92 98 111 0
104 117 180 92 99 112 0
104 117 185 92 100 113 0
104 117 189 92 101 114 0
104 117 192 92 102 115 0
104 117 194 92 103 116 0
104 129 140 93 94 119 0
104 129 150 93 95 120 0
104 129 159 93 96 121 0
104 129 167 93 97 122 0
104 129 174 93 98 123 0
104 129 180 93 99 124 0
104 129 185 93 100 125 0
104 129 189 93 101 126 0
104 129 192 93 102 127 0
104 129 194 93 103 128 0
104 140 150 94 95 131 0
104 140 159 94 96 132 0
104 140 167 94 97 133 0
104 140 174 94 98 134 0
104 140 180 94 99 135 0
104 140 185 94 100 136 0
104 140 189 94 101 137 0
104 140 192 94 102 138 0
104 140 194 94 103 139 0
104 150 159 95 96 142 0
104 150 167 95 97 143 0
104 150 174 95 98 144 0
104 150 180 95 99 145 0
104 150 185 95 100 146 0
104 150 189 95 101 147 0
104 150 192 95 102 148 0
104 150 194 95 103 149 0
104 159 167 96 97 152 0
104 159 174 96 98 153 0
104 159 180 96 99 154 0
104 159 185 96 100 155 0
104 159 189 96 101 156 0
104 159 192 96 102 157 0
104 159 194 96 103 158 0
104 167 174 97 98 161 0
104 167 180 97 99 162 0
104 167 185 97 100 163 0
104 167 189 97 101 164 0
104 167 192 97 102 165 0
104 167 194 97 103 166 0
104 174 180 98 99 169 0
104 174 185 98 100 170 0
104 174 189 98 101 171 0
104 174 192 98 102 172 0
104 174 194 98 103 173 0
104 180 185 99 100 176 0
104 180 189 99 101 177 0
104 180 192 99 102 178 0
104 180 194 99 103 179 0
104 185 189 100 101 182 0
104 185 192 100 102 183 0
104 185 194 100 103 184 0
104 189 192 101 102 187 0
104 189 194 101 103 188 0
104 192 194 102 103 191 0
117 129 140 106 107 119 0
117 129 150 106 108 120 0
117 129 159 106 109 121 0
117 129 167 106 110 122 0
117 129 174 106 111 123 0
117 129 180 106 112 124 0
117 129 185 106 113 125 0
117 129 189 106 114 126 0
117 129 192 106 115 127 0
117 129 194 106 116 128 0
117 140 150 107 108 131 0
117 140 159 107 109 132 0
117 140 167 107 110 133 0
117 140 174 107 111 134 0
117 140 180 107 112 135 0
117 140 185 107 113 136 0
117 140 189 107 114 137 0
117 140 192 107 115 138 0
117 140 194 107 116 139 0
117 150 159 108 109 142 0
117 150 167 108 110 143 0
117 150 174 108 111 144 0
117 150 180 108 112 145 0
117 150 185 108 113 146 0
117 150 189 108 114 147 0
117 150 192 108 115 148 0
117 150 194 108 116 149 0
117 159 167 109 110 152 0
117 159 174 109 111 153 0
117 159 180 109 112 154 0
117 159 185 109 113 155 0
117 159 189 109 114 156 0
117 159 192 109 115 157 0
117 159 194 109 116 158 0
117 167 174 110 111 161 0
117 167 180 110 112 162 0
117 167 185 110 113 163 0
117 167 189 110 114 164 0
117 167 192 110 115 165 0
117 167 194 110 116 166 0
117 174 180 111 112 169 0
117 174 185 111 113 170 0
117 174 189 111 114 171 0
117 174 192 111 115 172 0
117 174 194 111 116 173 0
117 180 185 112 113 176 0
117 180 189 112 114 177 0
117 180 192 112 115 178 0
117 180 194 112 116 179 0
117 185 189 113 114 182 0
117 185 192 113 115 183 0
117 185 194 113 116 184 0
117 189 192 114 115 187 0
117 189 194 114 116 188 0
117 192 194 115 116 191 0
129 140 150 119 120 131 0
129 140 159 119 121 132 0
129 140 167 119 122 133 0
129 140 174 119 123 134 0
129 140 180 119 124 135 0
129 140 185 119 125 136 0
129 140 189 119 126 137 0
129 140 192 119 127 138 0
129 140 194 119 128 139 0
129 150 159 120 121 142 0
129 150 167 120 122 143 0
129 150 174 120 123 144 0
129 150 180 120 124 145 0
129 150 185 120 125 146 0
129 150 189 120 126 147 0
129 150 192 120 127 148 0
129 150 194 120 128 149 0
129 159 167 121 122 152 0
129 159 174 121 123 153 0
129 159 180 121 124 154 0
129 159 185 121 125 155 0
129 159 189 121 126 156 0
129 159 192 121 127 157 0
129 159 194 121 128 158 0
129 167 174 122 123 161 0
129 167 180 122 124 162 0
129 167 185 122 125 163 0
129 167 189 122 126 164 0
129 167 192 122 127 165 0
129 167 194 122 128 166 0
129 174 180 123 124 169 0
129 174 185 123 125 170 0
129 174 189 123 126 171 0
129 174 192 123 127 172 0
129 174 194 123 128 173 0
129 180 185 124 125 176 0
129 180 189 124 126 177 0
129 180 192 124 127 178 0
129 180 194 124 128 179 0
129 185 189 125 126 182 0
129 185 192 125 127 183 0
129 185 194 125 128 184 0
129 189 192 126 127 187 0
129 189 194 126 128 188 0
129 192 194 127 128 191 0
140 150 159 131 132 142 0
140 150 167 131 133 143 0
140 150 174 131 134 144 0
140 150 180 131 135 145 0
140 150 185 131 136 146 0
140 150 189 131 137 147 0
140 150 192 131 138 148 0
140 150 194 131 139 149 0
140 159 167 132 133 152 0
140 159 174 132 134 153 0
140 159 180 132 135 154 0
140 159 185 132 136 155 0
140 159 189 132 137 156 0
140 159 192 132 138 157 0
140 159 194 132 139 158 0
140 167 174 133 134 161 0
140 167 180 133 135 162 0
140 167 185 133 136 163 0
140 167 189 133 137 164 0
140 167 192 133 138 165 0
140 167 194 133 139 166 0
140 174 180 134 135 169 0
140 174 185 134 136 170 0
140 174 189 134 137 171 0
140 174 192 134 138 172 0
140 174 194 134 139 173 0
140 180 185 135 136 176 0
140 180 189 135 137 177 0
140 180 192 135 138 178 0
140 180 194 135 139 179 0
140 185 189 136 137 182 0
140 185 192 136 138 183 0
140 185 194 136 139 184 0
140 189 192 137 138 187 0
140 189 194 137 139 188 0
140 192 194 138 139 191 0
150 159 167 142 143 152 0
150 159 174 142 144 153 0
150 159 180 142 145 154 0
150 159 185 142 146 155 0
150 159 189 142 147 156 0
150 159 192 142 148 157 0
150 159 194 142 149 158 0
150 167 174 143 144 161 0
150 167 180 143 145 162 0
150 167 185 143 146 163 0
150 167 189 143 147 164 0
150 167 192 143 148 165 0
150 167 194 143 149 166 0
150 174 180 144 145 169 0
150 174 185 144 146 170 0
150 174 189 144 147 171 0
150 174 192 144 148 172 0
150 174 194 144 149 173 0
150 180 185 145 146 176 0
150 180 189 145 147 177 0
150 180 192 145 148 178 0
150 180 194 145 149 179 0
150 185 189 146 147 182 0
150 185 192 146 148 183 0
150 185 194 146 149 184 0
150 189 192 147 148 187 0
150 189 194 147 149 188 0
150 192 194 148 149 191 0
159 167 174 152 153 161 0
159 167 180 152 154 162 0
159 167 185 152 155 163 0
159 167 189 152 156 164 0
159 167 192 152 157 165 0
159 167 194 152 158 166 0
159 174 180 153 154 169 0
159 174 185 153 155 170 0
159 174 189 153 156 171 0
159 174 192 153 157 172 0
159 174 194 153 158 173 0
159 180 185 154 155 176 0
159 180 189 154 156 177 0
159 180 192 154 157 178 0
159 180 194 154 158 179 0
159 185 189 155 156 182 0
159 185 192 155 157 183 0
159 185 194 155 158 184 0
159 189 192 156 157 187 0
159 189 194 156 158 188 0
159 192 194 157 158 191 0
167 174 180 161 162 169 0
167 174 185 161 163 170 0
167 174 189 161 164 171 0
167 174 192 161 165 172 0
167 174 194 161 166 173 0
167 180 185 162 163 176 0
167 180 189 162 164 177 0
167 180 192 162 165 178 0
167 180 194 162 166 179 0
167 185 189 163 164 182 0
167 185 192 163 165 183 0
167 185 194 163 166 184 0
167 189 192 164 165 187 0
167 189 194 164 166 188 0
167 192 194 165 166 191 0
174 180 185 169 170 176 0
174 180 189 169 171 177 0
174 180 192 169 172 178 0
174 180 194 169 173 179 0
174 185 189 170 171 182 0
174 185 192 170 172 183 0
174 185 194 170 173 184 0
174 189 192 171 172 187 0
174 189 194 171 173 188 0
174 192 194 172 173 191 0
180 185 189 176 177 182 0
180 185 192 176 178 183 0
180 185 194 176 179 184 0
180 189 192 177 178 187 0
180 189 194 177 179 188 0
180 192 194 178 179 191 0
185 189 192 182 183 187 0
185 189 194 182 184 188 0
185 192 194 183 184 191 0
189 192 194 187 188 191 0
105 118 130 92 93 106 0
105 118 141 92 94 107 0
105 118 151 92 95 108 0
105 118 160 92 96 109 0
105 118 168 92 97 110 0
105 118 175 92 98 111 0
105 118 181 92 99 112 0
105 118 186 92 100 113 0
105 118 190 92 101 114 0
105 118 193 92 102 115 0
105 118 195 92 103 116 0
105 118 196 92 104 117 0
105 130 141 93 94 119 0
105 130 151 93 95 120 0
105 130 160 93 96 121 0
105 130 168 93 97 122 0
105 130 175 93 98 123 0
105 130 181 93 99 124 0
105 130 186 93 100 125 0
105 130 190 93 101 126 0
105 130 193 93 102 127 0
105 130 195 93 103 128 0
105 130 196 93 104 129 0
105 141 151 94 95 131 0
105 141 160 94 96 132 0
105 141 168 94 97 133 0
105 141 175 94 98 134 0
105 141 181 94 99 135 0
105 141 186 94 100 136 0
105 141 190 94 101 137 0
105 141 193 94 102 138 0
105 141 195 94 103 139 0
105 141 196 94 104 140 0
105 151 160 95 96 142 0
105 151 168 95 97 143 0
105 151 175 95 98 144 0
105 151 181 95 99 145 0
105 151 186 95 100 146 0
105 151 190 95 101 147 0
105 151 193 95 102 148 0
105 151 195 95 103 149 0
105 151 196 95 104 150 0
105 160 168 96 97 152 0
105 160 175 96 98 153 0
105 160 181 96 99 154 0
105 160 186 96 100 155 0
105 160 190 96 101 156 0
105 160 193 96 102 157 0
105 160 195 96 103 158 0
105 160 196 96 104 159 0
105 168 175 97 98 161 0
105 168 181 97 99 162 0
105 168 186 97 100 163 0
105 168 190 97 101 164 0
105 168 193 97 102 165 0
105 168 195 97 103 166 0
105 168 196 97 104 167 0
105 175 181 98 99 169 0
105 175 186 98 100 170 0
105 175 190 98 101 171 0
105 175 193 98 102 172 0
105 175 195 98 103 173 0
105 175 196 98 104 174 0
105 181 186 99 100 176 0
105 181 190 99 101 177 0
105 181 193 99 102 178 0
105 181 195 99 103 179 0
105 181 196 99 104 180 0
105 186 190 100 101 182 0
105 186 193 100 102 183 0
105 186 195 100 103 184 0
105 186 196 100 104 185 0
105 190 193 101 102 187 0
105 190 195 101 103 188 0
105 190 196 101 104 189 0
105 193 195 102 103 191 0
105 193 196 102 104 192 0
105 195 196 103 104 194 0
118 130 141 106 107 119 0
118 130 151 106 108 120 0
118 130 160 106 109 121 0
118 130 168 106 110 122 0
118 130 175 106 111 123 0
118 130 181 106 112 124 0
118 130 186 106 113 125 0
118 130 190 106 114 126 0
118 130 193 106 115 127 0
118 130 195 106 116 128 0
118 130 196 106 117 129 0
118 141 151 107 108 131 0
118 141 160 107 109 132 0
118 141 168 107 110 133 0
118 141 175 107 111 134 0
118 141 181 107 112 135 0
118 141 186 107 113 136 0
118 141 190 107 114 137 0
118 141 193 107 115 138 0
118 141 195 107 116 139 0
118 141 196 107 117 140 0
118 151 160 108 109 142 0
118 151 168 108 110 143 0
118 151 175 108 111 144 0
118 151 181 108 112 145 0
118 151 186 108 113 146 0
118 151 190 108 114 147 0
118 151 193 108 115 148 0
118 151 195 108 116 149 0
118 151 196 108 117 150 0
118 160 168 109 110 152 0
118 160 175 109 111 153 0
118 160 181 109 112 154 0
118 160 186 109 113 155 0
118 160 190 109 114 156 0
118 160 193 109 115 157 0
118 160 195 109 116 158 0
118 160 196 109 117 159 0
118 168 175 110 111 161 0
118 168 181 110 112 162 0
118 168 186 110 113 163 0
118 168 190 110 114 164 0
118 168 193 110 115 165 0
118 168 195 110 116 166 0
118 168 196 110 117 167 0
118 175 181 111 112 169 0
118 175 186 111 113 170 0
118 175 190 111 114 171 0
118 175 193 111 115 172 0
118 175 195 111 116 173 0
118 175 196 111 117 174 0
118 181 186 112 113 176 0
118 181 190 112 114 177 0
118 181 193 112 115 178 0
118 181 195 112 116 179 0
118 181 196 112 117 180 0
118 186 190 113 114 182 0
118 186 193 113 115 183 0
118 186 195 113 116 184 0
118 186 196 113 117 185 0
118 190 193 114 115 187 0
118 190 195 114 116 188 0
118 190 196 114 117 189 0
118 193 195 115 116 191 0
118 193 196 115 117 192 0
118 195 196 116 117 194 0
130 141 151 119 120 131 0
130 141 160 119 121 132 0
130 141 168 119 122 133 0
130 141 175 119 123 134 0
130 141 181 119 124 135 0
130 141 186 119 125 136 0
130 141 190 119 126 137 0
130 141 193 119 127 138 0
130 141 195 119 128 139 0
130 141 196 119 129 140 0
130 151 160 120 121 142 0
130 151 168 120 122 143 0
130 151 175 120 123 144 0
130 151 181 120 124 145 0
130 151 186 120 125 146 0
130 151 190 120 126 147 0
130 151 193 120 127 148 0
130 151 195 120 128 149 0
130 151 196 120 129 150 0
130 160 168 121 122 152 0
130 160 175 121 123 153 0
130 160 181 121 124 154 0
130 160 186 121 125 155 0
130 160 190 121 126 156 0
130 160 193 121 127 157 0
130 160 195 121 128 158 0
130 160 196 121 129 159 0
130 168 175 122 123 161 0
130 168 181 122 124 162 0
130 168 186 122 125 163 0
130 168 190 122 126 164 0
130 168 193 122 127 165 0
130 168 195 122 128 166 0
130 168 196 122 129 167 0
130 175 181 123 124 169 0
130 175 186 123 125 170 0
130 175 190 123 126 171 0
130 175 193 123 127 172 0
130 175 195 123 128 173 0
130 175 196 123 129 174 0
130 181 186 124 125 176 0
130 181 190 124 126 177 0
130 181 193 124 127 178 0
130 181 195 124 128 179 0
130 181 196 124 129 180 0
130 186 190 125 126 182 0
130 186 193 125 127 183 0
130 186 195 125 128 184 0
130 186 196 125 129 185 0
130 190 193 126 127 187 0
130 190 195 126 128 188 0
130 190 196 126 129 189 0
130 193 195 127 128 191 0
130 193 196 127 129 192 0
130 195 196 128 129 194 0
141 151 160 131 132 142 0
141 151 168 131 133 143 0
141 151 175 131 134 144 0
141 151 181 131 135 145 0
141 151 186 131 136 146 0
141 151 190 131 137 147 0
141 151 193 131 138 148 0
141 151 195 131 139 149 0
141 151 196 131 140 150 0
141 160 168 132 133 152 0
141 160 175 132 134 153 0
141 160 181 132 135 154 0
141 160 186 132 136 155 0
141 160 190 132 137 156 0
141 160 193 132 138 157 0
141 160 195 132 139 158 0
141 160 196 132 140 159 0
141 168 175 133 134 161 0
141 168 181 133 135 162 0
141 168 186 133 136 163 0
141 168 190 133 137 164 0
141 168 193 133 138 165 0
141 168 195 133 139 166 0
141 168 196 133 140 167 0
141 175 181 134 135 169 0
141 175 186 134 136 170 0
141 175 190 134 137 171 0
141 175 193 134 138 172 0
141 175 195 134 139 173 0
141 175 196 134 140 174 0
141 181 186 135 136 176 0
141 181 190 135 137 177 0
141 181 193 135 138 178 0
141 181 195 135 139 179 0
141 181 196 135 140 180 0
141 186 190 136 137 182 0
141 186 193 136 138 183 0
141 186 195 136 139 184 0
141 186 196 136 140 185 0
141 190 193 137 138 187 0
141 190 195 137 139 188 0
141 190 196 137 140 189 0
141 193 195 138 139 191 0
141 193 196 138 140 192 0
141 195 196 139 140 194 0
151 160 168 142 143 152 0
151 160 175 142 144 153 0
151 160 181 142 145 154 0
151 160 186 142 146 155 0
151 160 190 142 147 156 0
151 160 193 142 148 157 0
151 160 195 142 149 158 0
151 160 196 142 150 159 0
151 168 175 143 144 161 0
151 168 181 143 145 162 0
151 168 186 143 146 163 0
151 168 190 143 147 164 0
151 168 193 143 148 165 0
151 168 195 143 149 166 0
151 168 196 143 150 167 0
151 175 181 144 145 169 0
151 175 186 144 146 170 0
151 175 190 144 147 171 0
151 175 193 144 148 172 0
151 175 195 144 149 173 0
151 175 196 144 150 174 0
151 181 186 145 146 176 0
151 181 190 145 147 177 0
151 181 193 145 148 178 0
151 181 195 145 149 179 0
151 181 196 145 150 180 0
151 186 190 146 147 182 0
151 186 193 146 148 183 0
151 186 195 146 149 184 0
151 186 196 146 150 185 0
151 190 193 147 148 187 0
151 190 195 147 149 188 0
151 190 196 147 150 189 0
151 193 195 148 149 191 0
151 193 196 148 150 192 0
151 195 196 149 150 194 0
160 168 175 152 153 161 0
160 168 181 152 154 162 0
160 168 186 152 155 163 0
160 168 190 152 156 164 0
160 168 193 152 157 165 0
160 168 195 152 158 166 0
160 168 196 152 159 167 0
160 175 181 153 154 169 0
160 175 186 153 155 170 0
160 175 190 153 156 171 0
160 175 193 153 157 172 0
160 175 195 153 158 173 0
160 175 196 153 159 174 0
160 181 186 154 155 176 0
160 181 190 154 156 177 0
160 181 193 154 157 178 0
160 181 195 154 158 179 0
160 181 196 154 159 180 0
160 186 190 155 156 182 0
160 186 193 155 157 183 0
160 186 195 155 158 184 0
160 186 196 155 159 185 0
160 190 193 156 157 187 0
160 190 195 156 158 188 0
160 190 196 156 159 189 0
160 193 195 157 158 191 0
160 193 196 157 159 192 0
160 195 196 158 159 194 0
168 175 181 161 162 169 0
168 175 186 161 163 170 0
168 175 190 161 164 171 0
168 175 193 161 165 172 0
168 175 195 161 166 173 0
168 175 196 161 167 174 0
168 181 186 162 163 176 0
168 181 190 162 164 177 0
168 181 193 162 165 178 0
168 181 195 162 166 179 0
168 181 196 162 167 180 0
168 186 190 163 164 182 0
168 186 193 163 165 183 0
168 186 195 163 166 184 0
168 186 196 163 167 185 0
168 190 193 164 165 187 0
168 190 195 164 166 188 0
168 190 196 164 167 189 0
168 193 195 165 166 191 0
168 193 196 165 167 192 0
168 195 196 166 167 194 0
175 181 186 169 170 176 0
175 181 190 169 171 177 0
175 181 193 169 172 178 0
175 181 195 169 173 179 0
175 181 196 169 174 180 0
175 186 190 170 171 182 0
175 186 193 170 172 183 0
175 186 195 170 173 184 0
175 186 196 170 174 185 0
175 190 193 171 172 187 0
175 190 195 171 173 188 0
175 190 196 171 174 189 0
175 193 195 172 173 191 0
175 193 196 172 174 192 0
175 195 196 173 174 194 0
181 186 190 176 177 182 0
181 186 193 176 178 183 0
181 186 195 176 179 184 0
181 186 196 176 180 185 0
181 190 193 177 178 187 0
181 190 195 177 179 188 0
181 190 196 177 180 189 0
181 193 195 178 179 191 0
181 193 196 178 180 192 0
181 195 196 179 180 194 0
186 190 193 182 183 187 0
186 190 195 182 184 188 0
186 190 196 182 185 189 0
186 193 195 183 184 191 0
186 193 196 183 185 192 0
186 195 196 184 185 194 0
190 193 195 187 188 191 0
190 193 196 187 189 192 0
190 195 196 188 189 194 0
193 195 196 191 192 194 0
-96 -108 -109 -119 -120 0
-97 -108 -110 -119 -120 0
-98 -108 -111 -119 -120 0
-99 -108 -112 -119 -120 0
-100 -108 -113 -119 -120 0
-101 -108 -114 -119 -120 0
-102 -108 -115 -119 -120 0
-103 -108 -116 -119 -120 0
-104 -108 -117 -119 -120 0
-105 -108 -118 -119 -120 0
-97 -109 -110 -119 -121 0
-98 -109 -111 -119 -121 0
-99 -109 -112 -119 -121 0
-100 -109 -113 -119 -121 0
-101 -109 -114 -119 -121 0
-102 -109 -115 -119 -121 0
-103 -109 -116 -119 -121 0
-104 -109 -117 -119 -121 0
-105 -109 -118 -119 -121 0
-98 -110 -111 -119 -122 0
-99 -110 -112 -119 -122 0
-100 -110 -113 -119 -122 0
-101 -110 -114 -119 -122 0
-102 -110 -115 -119 -122 0
-103 -110 -116 -119 -122 0
-104 -110 -117 -119 -122 0
-105 -110 -118 -119 -122 0
-99 -111 -112 -119 -123 0
-100 -111 -113 -119 -123 0
-101 -111 -114 -119 -123 0
-102 -111 -115 -119 -123 0
-103 -111 -116 -119 -123 0
-104 -111 -117 -119 -123 0
-105 -111 -118 -119 -123 0
-100 -112 -113 -119 -124 0
-101 -112 -114 -119 -124 0
-102 -112 -115 -119 -124 0
-103 -112 -116 -119 -124 0
-104 -112 -117 -119 -124 0
-105 -112 -118 -119 -124 0
-101 -113 -114 -119 -125 0
-102 -113 -115 -119 -125 0
-103 -113 -116 -119 -125 0
-104 -113 -117 -119 -125 0
-105 -113 -118 -119 -125 0
-102 -114 -115 -119 -126 0
-103 -114 -116 -119 -126 0
-104 -114 -117 -119 -126 0
-105 -114 -118 -119 -126 0
-103 -115 -116 -119 -127 0
-104 -115 -117 -119 -127 0
-105 -115 -118 -119 -127 0
-104 -116 -117 -119 -128 0
-105 -116 -118 -119 -128 0
-105 -117 -118 -119 -129 0
-97 -109 -110 -120 -121 0
-98 -109 -111 -120 -121 0
-99 -109 -112 -120 -121 0
-100 -109 -113 -120 -121 0
-101 -109 -114 -120 -121 0
-102 -109 -115 -120 -121 0
-103 -109 -116 -120 -121 0
-104 -109 -117 -120 -121 0
-105 -109 -118 -120 -121 0
-98 -110 -111 -120 -122 0
-99 -110 -112 -120 -122 0
-100 -110 -113 -120 -122 0
-101 -110 -114 -120 -122 0
-102 -110 -115 -120 -122 0
-103 -110 -116 -120 -122 0
-104 -110 -117 -120 -122 0
-105 -110 -118 -120 -122 0
-99 -111 -112 -120 -123 0
-100 -111 -113 -120 -123 0
-101 -111 -114 -120 -123 0
-102 -111 -115 -120 -123 0
-103 -111 -116 -120 -123 0
-104 -111 -117 -120 -123 0
-105 -111 -118 -120 -123 0
-100 -112 -113 -120 -124 0
-101 -112 -114 -120 -124 0
-102 -112 -115 -120 -124 0
-103 -112 -116 -120 -124 0
-104 -112 -117 -120 -124 0
-105 -112 -118 -120 -124 0
-101 -113 -114 -120 -125 0
-102 -113 -115 -120 -125 0
-103 -113 -116 -120 -125 0
-104 -113 -117 -120 -125 0
-105 -113 -118 -120 -125 0
-102 -114 -115 -120 -126 0
-103 -114 -116 -120 -126 0
-104 -114 -117 -120 -126 0
-105 -114 -118 -120 -126 0
-103 -115 -116 -120 -127 0
-104 -115 -117 -120 -127 0
-105 -115 -118 -120 -127 0
-104 -116 -117 -120 -128 0
-105 -116 -118 -120 -128 0
-105 -117 -118 -120 -129 0
-98 -110 -111 -121 -122 0
-99 -110 -112 -121 -122 0
-100 -110 -113 -121 -122 0
-101 -110 -114 -121 -122 0
-102 -110 -115 -121 -122 0
-103 -110 -116 -121 -122 0
-104 -110 -117 -121 -122 0
-105 -110 -118 -121 -122 0
-99 -111 -112 -121 -123 0
-100 -111 -113 -121 -123 0
-101 -111 -114 -121 -123 0
-102 -111 -115 -121 -123 0
-103 -111 -116 -121 -123 0
-104 -111 -117 -121 -123 0
-105 -111 -118 -121 -123 0
-100 -112 -113 -121 -124 0
-101 -112 -114 -121 -124 0
-102 -112 -115 -121 -124 0
-103 -112 -116 -121 -124 0
-104 -112 -117 -121 -124 0
-105 -112 -118 -121 -124 0
-101 -113 -114 -121 -125 0
-102 -113 -115 -121 -125 0
-103 -113 -116 -121 -125 0
-104 -113 -117 -121 -125 0
-105 -113 -118 -121 -125 0
-102 -114 -115 -121 -126 0
-103 -114 -116 -121 -126 0
-104 -114 -117 -121 -126 0
-105 -114 -118 -121 -126 0
-103 -115 -116 -121 -127 0
-104 -115 -117 -121 -127 0
-105 -115 -118 -121 -127 0
-104 -116 -117 -121 -128 0
-105 -116 -118 -121 -128 0
-105 -117 -118 -121 -129 0
-99 -111 -112 -122 -123 0
-100 -111 -113 -122 -123 0
-101 -111 -114 -122 -123 0
-102 -111 -115 -122 -123 0
-103 -111 -116 -122 -123 0
-104 -111 -117 -122 -123 0
-105 -111 -118 -122 -123 0
-100 -112 -113 -122 -124 0
-101 -112 -114 -122 -124 0
-102 -112 -115 -122 -124 0
-103 -112 -116 -122 -124 0
-104 -112 -117 -122 -124 0
-105 -112 -118 -122 -124 0
-101 -113 -114 -122 -125 0
-102 -113 -115 -122 -125 0
-103 -113 -116 -122 -125 0
-104 -113 -117 -122 -125 0
-105 -113 -118 -122 -125 0
-102 -114 -115 -122 -126 0
-103 -114 -116 -122 -126 0
-104 -114 -117 -122 -126 0
-105 -114 -118 -122 -126 0
-103 -115 -116 -122 -127 0
-104 -115 -117 -122 -127 0
-105 -115 -118 -122 -127 0
-104 -116 -117 -122 -128 0
-105 -116 -118 -122 -128 0
-105 -117 -118 -122 -129 0
-100 -112 -113 -123 -124 0
-101 -112 -114 -123 -124 0
-102 -112 -115 -123 -124 0
-103 -112 -116 -123 -124 0
-104 -112 -117 -123 -124 0
-105 -112 -118 -123 -124 0
-101 -113 -114 -123 -125 0
-102 -113 -115 -123 -125 0
-103 -113 -116 -123 -125 0
-104 -113 -117 -123 -125 0
-105 -113 -118 -123 -125 0
-102 -114 -115 -123 -126 0
-103 -114 -116 -123 -126 0
-104 -114 -117 -123 -126 0
-105 -114 -118 -123 -126 0
-103 -115 -116 -123 -127 0
-104 -115 -117 -123 -127 0
-105 -115 -118 -123 -127 0
-104 -116 -117 -123 -128 0
-105 -116 -118 -123 -128 0
-105 -117 -118 -123 -129 0
-101 -113 -114 -124 -125 0
-102 -113 -115 -124 -125 0
-103 -113 -116 -124 -125 0
-104 -113 -117 -124 -125 0
-105 -113 -118 -124 -125 0
-102 -114 -115 -124 -126 0
-103 -114 -116 -124 -126 0
-104 -114 -117 -124 -126 0
-105 -114 -118 -124 -126 0
-103 -115 -116 -124 -127 0
-104 -115 -117 -124 -127 0
-105 -115 -118 -124 -127 0
-104 -116 -117 -124 -128 0
-105 -116 -118 -124 -128 0
-105 -117 -118 -124 -129 0
-102 -114 -115 -125 -126 0
-103 -114 -116 -125 -126 0
-104 -114 -117 -125 -126 0
-105 -114 -118 -125 -126 0
-103 -115 -116 -125 -127 0
-104 -115 -117 -125 -127 0
-105 -115 -118 -125 -127 0
-104 -116 -117 -125 -128 0
-105 -116 -118 -125 -128 0
-105 -117 -118 -125 -129 0
-103 -115 -116 -126 -127 0
-104 -115 -117 -126 -127 0
-105 -115 -118 -126 -127 0
-104 -116 -117 -126 -128 0
-105 -116 -118 -126 -128 0
-105 -117 -118 -126 -129 0
-104 -116 -117 -127 -128 0
-105 -116 -118 -127 -128 0
-105 -117 -118 -127 -129 0
-105 -117 -118 -128 -129 0
-97 -109 -110 -131 -132 0
-98 -109 -111 -131 -132 0
-99 -109 -112 -131 -132 0
-100 -109 -113 -131 -132 0
-101 -109 -114 -131 -132 0
-102 -109 -115 -131 -132 0
-103 -109 -116 -131 -132 0
-104 -109 -117 -131 -132 0
-105 -109 -118 -131 -132 0
-98 -110 -111 -131 -133 0
-99 -110 -112 -131 -133 0
-100 -110 -113 -131 -133 0
-101 -110 -114 -131 -133 0
-102 -110 -115 -131 -133 0
-103 -110 -116 -131 -133 0
-104 -110 -117 -131 -133 0
-105 -110 -118 -131 -133 0
-99 -111 -112 -131 -134 0
-100 -111 -113 -131 -134 0
-101 -111 -114 -131 -134 0
-102 -111 -115 -131 -134 0
-103 -111 -116 -131 -134 0
-104 -111 -117 -131 -134 0
-105 -111 -118 -131 -134 0
-100 -112 -113 -131 -135 0
-101 -112 -114 -131 -135 0
-102 -112 -115 -131 -135 0
-103 -112 -116 -131 -135 0
-104 -112 -117 -131 -135 0
-105 -112 -118 -131 -135 0
-101 -113 -114 -131 -136 0
-102 -113 -115 -131 -136 0
-103 -113 -116 -131 -136 0
-104 -113 -117 -131 -136 0
-105 -113 -118 -131 -136 0
-102 -114 -115 -131 -137 0
-103 -114 -116 -131 -137 0
-104 -114 -117 -131 -137 0
-105 -114 -118 -131 -137 0
-103 -115 -116 -131 -138 0
-104 -115 -117 -131 -138 0
-105 -115 -118 -131 -138 0
-104 -116 -117 -131 -139 0
-105 -116 -118 -131 -139 0
-105 -117 -118 -131 -140 0
-98 -110 -111 -132 -133 0
-99 -110 -112 -132 -133 0
-100 -110 -113 -132 -133 0
-101 -110 -114 -132 -133 0
-102 -110 -115 -132 -133 0
-103 -110 -116 -132 -133 0
-104 -110 -117 -132 -133 0
-105 -110 -118 -132 -133 0
-99 -111 -112 -132 -134 0
-100 -111 -113 -132 -134 0
-101 -111 -114 -132 -134 0
-102 -111 -115 -132 -134 0
-103 -111 -116 -132 -134 0
-104 -111 -117 -132 -134 0
-105 -111 -118 -132 -134 0
-100 -112 -113 -132 -135 0
-101 -112 -114 -132 -135 0
-102 -112 -115 -132 -135 0
-103 -112 -116 -132 -135 0
-104 -112 -117 -132 -135 0
-105 -112 -118 -132 -135 0
-101 -113 -114 -132 -136 0
-102 -113 -115 -132 -136 0
-103 -113 -116 -132 -136 0
-104 -113 -117 -132 -136 0
-105 -113 -118 -132 -136 0
-102 -114 -115 -132 -137 0
-103 -114 -116 -132 -137 0
-104 -114 -117 -132 -137 0
-105 -114 -118 -132 -137 0
-103 -115 -116 -132 -138 0
-104 -115 -117 -132 -138 0
-105 -115 -118 -132 -138 0
-104 -116 -117 -132 -139 0
-105 -116 -118 -132 -139 0
-105 -117 -118 -132 -140 0
-99 -111 -112 -133 -134 0
-100 -111 -113 -133 -134 0
-101 -111 -114 -133 -134 0
-102 -111 -115 -133 -134 0
-103 -111 -116 -133 -134 0
-104 -111 -117 -133 -134 0
-105 -111 -118 -133 -134 0
-100 -112 -113 -133 -135 0
-101 -112 -114 -133 -135 0
-102 -112 -115 -133 -135 0
-103 -112 -116 -133 -135 0
-104 -112 -117 -133 -135 0
-105 -112 -118 -133 -135 0
-101 -113 -114 -133 -136 0
-102 -113 -115 -133 -136 0
-103 -113 -116 -133 -136 0
-104 -113 -117 -133 -136 0
-105 -113 -118 -133 -136 0
-102 -114 -115 -133 -137 0
-103 -114 -116 -133 -137 0
-104 -114 -117 -133 -137 0
-105 -114 -118 -133 -137 0
-103 -115 -116 -133 -138 0
-104 -115 -117 -133 -138 0
-105 -115 -118 -133 -138 0
-104 -116 -117 -133 -139 0
-105 -116 -118 -133 -139 0
-105 -117 -118 -133 -140 0
-100 -112 -113 -134 -135 0
-101 -112 -114 -134 -135 0
-102 -112 -115 -134 -135 0
-103 -112 -116 -134 -135 0
-104 -112 -117 -134 -135 0
-105 -112 -118 -134 -135 0
-101 -113 -114 -134 -136 0
-102 -113 -115 -134 -136 0
-103 -113 -116 -134 -136 0
-104 -113 -117 -134 -136 0
-105 -113 -118 -134 -136 0
-102 -114 -115 -134 -137 0
-103 -114 -116 -134 -137 0
-104 -114 -117 -134 -137 0
-105 -114 -118 -134 -137 0
-103 -115 -116 -134 -138 0
-104 -115 -117 -134 -138 0
-105 -115 -118 -134 -138 0
-104 -116 -117 -134 -139 0
-105 -116 -118 -134 -139 0
-105 -117 -118 -134 -140 0
-101 -113 -114 -135 -136 0
-102 -113 -115 -135 -136 0
-103 -113 -116 -135 -136 0
-104 -113 -117 -135 -136 0
-105 -113 -118 -135 -136 0
-102 -114 -115 -135 -137 0
-103 -114 -116 -135 -137 0
-104 -114 -117 -135 -137 0
-105 -114 -118 -135 -137 0
-103 -115 -116 -135 -138 0
-104 -115 -117 -135 -138 0
-105 -115 -118 -135 -138 0
-104 -116 -117 -135 -139 0
-105 -116 -118 -135 -139 0
-105 -117 -118 -135 -140 0
-102 -114 -115 -136 -137 0
-103 -114 -116 -136 -137 0
-104 -114 -117 -136 -137 0
-105 -114 -118 -136 -137 0
-103 -115 -116 -136 -138 0
-104 -115 -117 -136 -138 0
-105 -115 -118 -136 -138 0
-104 -116 -117 -136 -139 0
-105 -116 -118 -136 -139 0
-105 -117 -118 -136 -140 0
-103 -115 -116 -137 -138 0
-104 -115 -117 -137 -138 0
-105 -115 -118 -137 -138 0
-104 -116 -117 -137 -139 0
-105 -116 -118 -137 -139 0
-105 -117 -118 -137 -140 0
-104 -116 -117 -138 -139 0
-105 -116 -118 -138 -139 0
-105 -117 -118 -138 -140 0
-105 -117 -118 -139 -140 0
-98 -110 -111 -142 -143 0
-99 -110 -112 -142 -143 0
-100 -110 -113 -142 -143 0
-101 -110 -114 -142 -143 0
-102 -110 -115 -142 -143 0
-103 -110 -116 -142 -143 0
-104 -110 -117 -142 -143 0
-105 -110 -118 -142 -143 0
-99 -111 -112 -142 -144 0
-100 -111 -113 -142 -144 0
-101 -111 -114 -142 -144 0
-102 -111 -115 -142 -144 0
-103 -111 -116 -142 -144 0
-104 -111 -117 -142 -144 0
-105 -111 -118 -142 -144 0
-100 -112 -113 -142 -145 0
-101 -112 -114 -142 -145 0
-102 -112 -115 -142 -145 0
-103 -112 -116 -142 -145 0
-104 -112 -117 -142 -145 0
-105 -112 -118 -142 -145 0
-101 -113 -114 -142 -146 0
-102 -113 -115 -142 -146 0
-103 -113 -116 -142 -146 0
-104 -113 -117 -142 -146 0
-105 -113 -118 -142 -146 0
-102 -114 -115 -142 -147 0
-103 -114 -116 -142 -147 0
-104 -114 -117 -142 -147 0
-105 -114 -118 -142 -147 0
-103 -115 -116 -142 -148 0
-104 -115 -117 -142 -148 0
-105 -115 -118 -142 -148 0
-104 -116 -117 -142 -149 0
-105 -116 -118 -142 -149 0
-105 -117 -118 -142 -150 0
-99 -111 -112 -143 -144 0
-100 -111 -113 -143 -144 0
-101 -111 -114 -143 -144 0
-102 -111 -115 -143 -144 0
-103 -111 -116 -143 -144 0
-104 -111 -117 -143 -144 0
-105 -111 -118 -143 -144 0
-100 -112 -113 -143 -145 0
-101 -112 -114 -143 -145 0
-102 -112 -115 -143 -145 0
-103 -112 -116 -143 -145 0
-104 -112 -117 -143 -145 0
-105 -112 -118 -143 -145 0
-101 -113 -114 -143 -146 0
-102 -113 -115 -143 -146 0
-103 -113 -116 -143 -146 0
-104 -113 -117 -143 -146 0
-105 -113 -118 -143 -146 0
-102 -114 -115 -143 -147 0
-103 -114 -116 -143 -147 0
-104 -114 -117 -143 -147 0
-105 -114 -118 -143 -147 0
-103 -115 -116 -143 -148 0
-104 -115 -117 -143 -148 0
-105 -115 -118 -143 -148 0
-104 -116 -117 -143 -149 0
-105 -116 -118 -143 -149 0
-105 -117 -118 -143 -150 0
-100 -112 -113 -144 -145 0
-101 -112 -114 -144 -145 0
-102 -112 -115 -144 -145 0
-103 -112 -116 -144 -145 0
-104 -112 -117 -144 -145 0
-105 -112 -118 -144 -145 0
-101 -113 -114 -144 -146 0
-102 -113 -115 -144 -146 0
-103 -113 -116 -144 -146 0
-104 -113 -117 -144 -146 0
-105 -113 -118 -144 -146 0
-102 -114 -115 -144 -147 0
-103 -114 -116 -144 -147 0
-104 -114 -117 -144 -147 0
-105 -114 -118 -144 -147 0
-103 -115 -116 -144 -148 0
-104 -115 -117 -144 -148 0
-105 -115 -118 -144 -148 0
-104 -116 -117 -144 -149 0
-105 -116 -118 -144 -149 0
-105 -117 -118 -144 -150 0
-101 -113 -114 -145 -146 0
-102 -113 -115 -145 -146 0
-103 -113 -116 -145 -146 0
-104 -113 -117 -145 -146 0
-105 -113 -118 -145 -146 0
-102 -114 -115 -145 -147 0
-103 -114 -116 -145 -147 0
-104 -114 -117 -145 -147 0
-105 -114 -118 -145 -147 0
-103 -115 -116 -145 -148 0
-104 -115 -117 -145 -148 0
-105 -115 -118 -145 -148 0
-104 -116 -117 -145 -149 0
-105 -116 -118 -145 -149 0
-105 -117 -118 -145 -150 0
-102 -114 -115 -146 -147 0
-103 -114 -116 -146 -147 0
-104 -114 -117 -146 -147 0
-105 -114 -118 -146 -147 0
-103 -115 -116 -146 -148 0
-104 -115 -117 -146 -148 0
-105 -115 -118 -146 -148 0
-104 -116 -117 -146 -149 0
-105 -116 -118 -146 -149 0
-105 -117 -118 -146 -150 0
-103 -115 -116 -147 -148 0
-104 -115 -117 -147 -148 0
-105 -115 -118 -147 -148 0
-104 -116 -117 -147 -149 0
-105 -116 -118 -147 -149 0
-105 -117 -118 -147 -150 0
-104 -116 -117 -148 -149 0
-105 -116 -118 -148 -149 0
-105 -117 -118 -148 -150 0
-105 -117 -118 -149 -150 0
-99 -111 -112 -152 -153 0
-100 -111 -113 -152 -153 0
-101 -111 -114 -152 -153 0
-102 -111 -115 -152 -153 0
-103 -111 -116 -152 -153 0
-104 -111 -117 -152 -153 0
-105 -111 -118 -152 -153 0
-100 -112 -113 -152 -154 0
-101 -112 -114 -152 -154 0
-102 -112 -115 -152 -154 0
-103 -112 -116 -152 -154 0
-104 -112 -117 -152 -154 0
-105 -112 -118 -152 -154 0
-101 -113 -114 -152 -155 0
-102 -113 -115 -152 -155 0
-103 -113 -116 -152 -155 0
-104 -113 -117 -152 -155 0
-105 -113 -118 -152 -155 0
-102 -114 -115 -152 -156 0
-103 -114 -116 -152 -156 0
-104 -114 -117 -152 -156 0
-105 -114 -118 -152 -156 0
-103 -115 -116 -152 -157 0
-104 -115 -117 -152 -157 0
-105 -115 -118 -152 -157 0
-104 -116 -117 -152 -158 0
-105 -116 -118 -152 -158 0
-105 -117 -118 -152 -159 0
-100 -112 -113 -153 -154 0
-101 -112 -114 -153 -154 0
-102 -112 -115 -153 -154 0
-103 -112 -116 -153 -154 0
-104 -112 -117 -153 -154 0
-105 -112 -118 -153 -154 0
-101 -113 -114 -153 -155 0
-102 -113 -115 -153 -155 0
-103 -113 -116 -153 -155 0
-104 -113 -117 -153 -155 0
-105 -113 -118 -153 -155 0
-102 -114 -115 -153 -156 0
-103 -114 -116 -153 -156 0
-104 -114 -117 -153 -156 0
-105 -114 -118 -153 -156 0
-103 -115 -116 -153 -157 0
-104 -115 -117 -153 -157 0
-105 -115 -118 -153 -157 0
-104 -116 -117 -153 -158 0
-105 -116 -118 -153 -158 0
-105 -117 -118 -153 -159 0
-101 -113 -114 -154 -155 0
-102 -113 -115 -154 -155 0
-103 -113 -116 -154 -155 0
-104 -113 -117 -154 -155 0
-105 -113 -118 -154 -155 0
-102 -114 -115 -154 -156 0
-103 -114 -116 -154 -156 0
-104 -114 -117 -154 -156 0
-105 -114 -118 -154 -156 0
-103 -115 -116 -154 -157 0
-104 -115 -117 -154 -157 0
-105 -115 -118 -154 -157 0
-104 -116 -117 -154 -158 0
-105 -116 -118 -154 -158 0
-105 -117 -118 -154 -159 0
-102 -114 -115 -155 -156 0
-103 -114 -116 -155 -156 0
-104 -114 -117 -155 -156 0
-105 -114 -118 -155 -156 0
-103 -115 -116 -155 -157 0
-104 -115 -117 -155 -157 0
-105 -115 -118 -155 -157 0
-104 -116 -117 -155 -158 0
-105 -116 -118 -155 -158 0
-105 -117 -118 -155 -159 0
-103 -115 -116 -156 -157 0
-104 -115 -117 -156 -157 0
-105 -115 -118 -156 -157 0
-104 -116 -117 -156 -158 0
-105 -116 -118 -156 -158 0
-105 -117 -118 -156 -159 0
-104 -116 -117 -157 -158 0
-105 -116 -118 -157 -158 0
-105 -117 -118 -157 -159 0
-105 -117 -118 -158 -159 0
-100 -112 -113 -161 -162 0
-101 -112 -114 -161 -162 0
-102 -112 -115 -161 -162 0
-103 -112 -116 -161 -162 0
-104 -112 -117 -161 -162 0
-105 -112 -118 -161 -162 0
-101 -113 -114 -161 -163 0
-102 -113 -115 -161 -163 0
-103 -113 -116 -161 -163 0
-104 -113 -117 -161 -163 0
-105 -113 -118 -161 -163 0
-102 -114 -115 -161 -164 0
-103 -114 -116 -161 -164 0
-104 -114 -117 -161 -164 0
-105 -114 -118 -161 -164 0
-103 -115 -116 -161 -165 0
-104 -115 -117 -161 -165 0
-105 -115 -118 -161 -165 0
-104 -116 -117 -161 -166 0
-105 -116 -118 -161 -166 0
-105 -117 -118 -161 -167 0
-101 -113 -114 -162 -163 0
-102 -113 -115 -162 -163 0
-103 -113 -116 -162 -163 0
-104 -113 -117 -162 -163 0
-105 -113 -118 -162 -163 0
-102 -114 -115 -162 -164 0
-103 -114 -116 -162 -164 0
-104 -114 -117 -162 -164 0
-105 -114 -118 -162 -164 0
-103 -115 -116 -162 -165 0
-104 -115 -117 -162 -165 0
-105 -115 -118 -162 -165 0
-104 -116 -117 -162 -166 0
-105 -116 -118 -162 -166 0
-105 -117 -118 -162 -167 0
-102 -114 -115 -163 -164 0
-103 -114 -116 -163 -164 0
-104 -114 -117 -163 -164 0
-105 -114 -118 -163 -164 0
-103 -115 -116 -163 -165 0
-104 -115 -117 -163 -165 0
-105 -115 -118 -163 -165 0
-104 -116 -117 -163 -166 0
-105 -116 -118 -163 -166 0
-105 -117 -118 -163 -167 0
-103 -115 -116 -164 -165 0
-104 -115 -117 -164 -165 0
-105 -115 -118 -164 -165 0
-104 -116 -117 -164 -166 0
-105 -116 -118 -164 -166 0
-105 -117 -118 -164 -167 0
-104 -116 -117 -165 -166 0
-105 -116 -118 -165 -166 0
-105 -117 -118 -165 -167 0
-105 -117 -118 -166 -167 0
-101 -113 -114 -169 -170 0
-102 -113 -115 -169 -170 0
-103 -113 -116 -169 -170 0
-104 -113 -117 -169 -170 0
-105 -113 -118 -169 -170 0
-102 -114 -115 -169 -171 0
-103 -114 -116 -169 -171 0
-104 -114 -117 -169 -171 0
-105 -114 -118 -169 -171 0
-103 -115 -116 -169 -172 0
-104 -115 -117 -169 -172 0
-105 -115 -118 -169 -172 0
-104 -116 -117 -169 -173 0
-105 -116 -118 -169 -173 0
-105 -117 -118 -169 -174 0
-102 -114 -115 -170 -171 0
-103 -114 -116 -170 -171 0
-104 -114 -117 -170 -171 0
-105 -114 -118 -170 -171 0
-103 -115 -116 -170 -172 0
-104 -115 -117 -170 -172 0
-105 -115 -118 -170 -172 0
-104 -116 -117 -170 -173 0
-105 -116 -118 -170 -173 0
-105 -117 -118 -170 -174 0
-103 -115 -116 -171 -172 0
-104 -115 -117 -171 -172 0
-105 -115 -118 -171 -172 0
-104 -116 -117 -171 -173 0
-105 -116 -118 -171 -173 0
-105 -117 -118 -171 -174 0
-104 -116 -117 -172 -173 0
-105 -116 -118 -172 -173 0
-105 -117 -118 -172 -174 0
-105 -117 -118 -173 -174 0
-102 -114 -115 -176 -177 0
-103 -114 -116 -176 -177 0
-104 -114 -117 -176 -177 0
-105 -114 -118 -176 -177 0
-103 -115 -116 -176 -178 0
-104 -115 -117 -176 -178 0
-105 -115 -118 -176 -178 0
-104 -116 -117 -176 -179 0
-105 -116 -118 -176 -179 0
-105 -117 -118 -176 -180 0
-103 -115 -116 -177 -178 0
-104 -115 -117 -177 -178 0
-105 -115 -118 -177 -178 0
-104 -116 -117 -177 -179 0
-105 -116 -118 -177 -179 0
-105 -117 -118 -177 -180 0
-104 -116 -117 -178 -179 0
-105 -116 -118 -178 -179 0
-105 -117 -118 -178 -180 0
-105 -117 -118 -179 -180 0
-103 -115 -116 -182 -183 0
-104 -115 -117 -182 -183 0
-105 -115 -118 -182 -183 0
-104 -116 -117 -182 -184 0
-105 -116 -118 -182 -184 0
-105 -117 -118 -182 -185 0
-104 -116 -117 -183 -184 0
-105 -116 -118 -183 -184 0
-105 -117 -118 -183 -185 0
-105 -117 -118 -184 -185 0
-104 -116 -117 -187 -188 0
-105 -116 -118 -187 -188 0
-105 -117 -118 -187 -189 0
-105 -117 -118 -188 -189 0
-105 -117 -118 -191 -192 0
-97 -121 -122 -131 -132 0
-98 -121 -123 -131 -132 0
-99 -121 -124 -131 -132 0
-100 -121 -125 -131 -132 0
-101 -121 -126 -131 -132 0
-102 -121 -127 -131 -132 0
-103 -121 -128 -131 -132 0
-104 -121 -129 -131 -132 0
-105 -121 -130 -131 -132 0
-98 -122 -123 -131 -133 0
-99 -122 -124 -131 -133 0
-100 -122 -125 -131 -133 0
-101 -122 -126 -131 -133 0
-102 -122 -127 -131 -133 0
-103 -122 -128 -131 -133 0
-104 -122 -129 -131 -133 0
-105 -122 -130 -131 -133 0
-99 -123 -124 -131 -134 0
-100 -123 -125 -131 -134 0
-101 -123 -126 -131 -134 0
-102 -123 -127 -131 -134 0
-103 -123 -128 -131 -134 0
-104 -123 -129 -131 -134 0
-105 -123 -130 -131 -134 0
-100 -124 -125 -131 -135 0
-101 -124 -126 -131 -135 0
-102 -124 -127 -131 -135 0
-103 -124 -128 -131 -135 0
-104 -124 -129 -131 -135 0
-105 -124 -130 -131 -135 0
-101 -125 -126 -131 -136 0
-102 -125 -127 -131 -136 0
-103 -125 -128 -131 -136 0
-104 -125 -129 -131 -136 0
-105 -125 -130 -131 -136 0
-102 -126 -127 -131 -137 0
-103 -126 -128 -131 -137 0
-104 -126 -129 -131 -137 0
-105 -126 -130 -131 -137 0
-103 -127 -128 -131 -138 0
-104 -127 -129 -131 -138 0
-105 -127 -130 -131 -138 0
-104 -128 -129 -131 -139 0
-105 -128 -130 -131 -139 0
-105 -129 -130 -131 -140 0
-98 -122 -123 -132 -133 0
-99 -122 -124 -132 -133 0
-100 -122 -125 -132 -133 0
-101 -122 -126 -132 -133 0
-102 -122 -127 -132 -133 0
-103 -122 -128 -132 -133 0
-104 -122 -129 -132 -133 0
-105 -122 -130 -132 -133 0
-99 -123 -124 -132 -134 0
-100 -123 -125 -132 -134 0
-101 -123 -126 -132 -134 0
-102 -123 -127 -132 -134 0
-103 -123 -128 -132 -134 0
-104 -123 -129 -132 -134 0
-105 -123 -130 -132 -134 0
-100 -124 -125 -132 -135 0
-101 -124 -126 -132 -135 0
-102 -124 -127 -132 -135 0
-103 -124 -128 -132 -135 0
-104 -124 -129 -132 -135 0
-105 -124 -130 -132 -135 0
-101 -125 -126 -132 -136 0
-102 -125 -127 -132 -136 0
-103 -125 -128 -132 -136 0
-104 -125 -129 -132 -136 0
-105 -125 -130 -132 -136 0
-102 -126 -127 -132 -137 0
-103 -126 -128 -132 -137 0
-104 -126 -129 -132 -137 0
-105 -126 -130 -132 -137 0
-103 -127 -128 -132 -138 0
-104 -127 -129 -132 -138 0
-105 -127 -130 -132 -138 0
-104 -128 -129 -132 -139 0
-105 -128 -130 -132 -139 0
-105 -129 -130 -132 -140 0
-99 -123 -124 -133 -134 0
-100 -123 -125 -133 -134 0
-101 -123 -126 -133 -134 0
-102 -123 -127 -133 -134 0
-103 -123 -128 -133 -134 0
-104 -123 -129 -133 -134 0
-105 -123 -130 -133 -134 0
-100 -124 -125 -133 -135 0
-101 -124 -126 -133 -135 0
-102 -124 -127 -133 -135 0
-103 -124 -128 -133 -135 0
-104 -124 -129 -133 -135 0
-105 -124 -130 -133 -135 0
-101 -125 -126 -133 -136 0
-102 -125 -127 -133 -136 0
-103 -125 -128 -133 -136 0
-104 -125 -129 -133 -136 0
-105 -125 -130 -133 -136 0
-102 -126 -127 -133 -137 0
-103 -126 -128 -133 -137 0
-104 -126 -129 -133 -137 0
-105 -126 -130 -133 -137 0
-103 -127 -128 -133 -138 0
-104 -127 -129 -133 -138 0
-105 -127 -130 -133 -138 0
-104 -128 -129 -133 -139 0
-105 -128 -130 -133 -139 0
-105 -129 -130 -133 -140 0
-100 -124 -125 -134 -135 0
-101 -124 -126 -134 -135 0
-102 -124 -127 -134 -135 0
-103 -124 -128 -134 -135 0
-104 -124 -129 -134 -135 0
-105 -124 -130 -134 -135 0
-101 -125 -126 -134 -136 0
-102 -125 -127 -134 -136 0
-103 -125 -128 -134 -136 0
-104 -125 -129 -134 -136 0
-105 -125 -130 -134 -136 0
-102 -126 -127 -134 -137 0
-103 -126 -128 -134 -137 0
-104 -126 -129 -134 -137 0
-105 -126 -130 -134 -137 0
-103 -127 -128 -134 -138 0
-104 -127 -129 -134 -138 0
-105 -127 -130 -134 -138 0
-104 -128 -129 -134 -139 0
-105 -128 -130 -134 -139 0
-105 -129 -130 -134 -140 0
-101 -125 -126 -135 -136 0
-102 -125 -127 -135 -136 0
-103 -125 -128 -135 -136 0
-104 -125 -129 -135 -136 0
-105 -125 -130 -135 -136 0
-102 -126 -127 -135 -137 0
-103 -126 -128 -135 -137 0
-104 -126 -129 -135 -137 0
-105 -126 -130 -135 -137 0
-103 -127 -128 -135 -138 0
-104 -127 -129 -135 -138 0
-105 -127 -130 -135 -138 0
-104 -128 -129 -135 -139 0
-105 -128 -130 -135 -139 0
-105 -129 -130 -135 -140 0
-102 -126 -127 -136 -137 0
-103 -126 -128 -136 -137 0
-104 -126 -129 -136 -137 0
-105 -126 -130 -136 -137 0
-103 -127 -128 -136 -138 0
-104 -127 -129 -136 -138 0
-105 -127 -130 -136 -138 0
-104 -128 -129 -136 -139 0
-105 -128 -130 -136 -139 0
-105 -129 -130 -136 -140 0
-103 -127 -128 -137 -138 0
-104 -127 -129 -137 -138 0
-105 -127 -130 -137 -138 0
-104 -128 -129 -137 -139 0
-105 -128 -130 -137 -139 0
-105 -129 -130 -137 -140 0
-104 -128 -129 -138 -139 0
-105 -128 -130 -138 -139 0
-105 -129 -130 -138 -140 0
-105 -129 -130 -139 -140 0
-98 -122 -123 -142 -143 0
-99 -122 -124 -142 -143 0
-100 -122 -125 -142 -143 0
-101 -122 -126 -142 -143 0
-102 -122 -127 -142 -143 0
-103 -122 -128 -142 -143 0
-104 -122 -129 -142 -143 0
-105 -122 -130 -142 -143 0
-99 -123 -124 -142 -144 0
-100 -123 -125 -142 -144 0
-101 -123 -126 -142 -144 0
-102 -123 -127 -142 -144 0
-103 -123 -128 -142 -144 0
-104 -123 -129 -142 -144 0
-105 -123 -130 -142 -144 0
-100 -124 -125 -142 -145 0
-101 -124 -126 -142 -145 0
-102 -124 -127 -142 -145 0
-103 -124 -128 -142 -145 0
-104 -124 -129 -142 -145 0
-105 -124 -130 -142 -145 0
-101 -125 -126 -142 -146 0
-102 -125 -127 -142 -146 0
-103 -125 -128 -142 -146 0
-104 -125 -129 -142 -146 0
-105 -125 -130 -142 -146 0
-102 -126 -127 -142 -147 0
-103 -126 -128 -142 -147 0
-104 -126 -129 -142 -147 0
-105 -126 -130 -142 -147 0
-103 -127 -128 -142 -148 0
-104 -127 -129 -142 -148 0
-105 -127 -130 -142 -148 0
-104 -128 -129 -142 -149 0
-105 -128 -130 -142 -149 0
-105 -129 -130 -142 -150 0
-99 -123 -124 -143 -144 0
-100 -123 -125 -143 -144 0
-101 -123 -126 -143 -144 0
-102 -123 -127 -143 -144 0
-103 -123 -128 -143 -144 0
-104 -123 -129 -143 -144 0
-105 -123 -130 -143 -144 0
-100 -124 -125 -143 -145 0
-101 -124 -126 -143 -145 0
-102 -124 -127 -143 -145 0
-103 -124 -128 -143 -145 0
-104 -124 -129 -143 -145 0
-105 -124 -130 -143 -145 0
-101 -125 -126 -143 -146 0
-102 -125 -127 -143 -146 0
-103 -125 -128 -143 -146 0
-104 -125 -129 -143 -146 0
-105 -125 -130 -143 -146 0
-102 -126 -127 -143 -147 0
-103 -126 -128 -143 -147 0
-104 -126 -129 -143 -147 0
-105 -126 -130 -143 -147 0
-103 -127 -128 -143 -148 0
-104 -127 -129 -143 -148 0
-105 -127 -130 -143 -148 0
-104 -128 -129 -143 -149 0
-105 -128 -130 -143 -149 0
-105 -129 -130 -143 -150 0
-100 -124 -125 -144 -145 0
-101 -124 -126 -144 -145 0
-102 -124 -127 -144 -145 0
-103 -124 -128 -144 -145 0
-104 -124 -129 -144 -145 0
-105 -124 -130 -144 -145 0
-101 -125 -126 -144 -146 0
-102 -125 -127 -144 -146 0
-103 -125 -128 -144 -146 0
-104 -125 -129 -144 -146 0
-105 -125 -130 -144 -146 0
-102 -126 -127 -144 -147 0
-103 -126 -128 -144 -147 0
-104 -126 -129 -144 -147 0
-105 -126 -130 -144 -147 0
-103 -127 -128 -144 -148 0
-104 -127 -129 -144 -148 0
-105 -127 -130 -144 -148 0
-104 -128 -129 -144 -149 0
-105 -128 -130 -144 -149 0
-105 -129 -130 -144 -150 0
-101 -125 -126 -145 -146 0
-102 -125 -127 -145 -146 0
-103 -125 -128 -145 -146 0
-104 -125 -129 -145 -146 0
-105 -125 -130 -145 -146 0
-102 -126 -127 -145 -147 0
-103 -126 -128 -145 -147 0
-104 -126 -129 -145 -147 0
-105 -126 -130 -145 -147 0
-103 -127 -128 -145 -148 0
-104 -127 -129 -145 -148 0
-105 -127 -130 -145 -148 0
-104 -128 -129 -145 -149 0
-105 -128 -130 -145 -149 0
-105 -129 -130 -145 -150 0
-102 -126 -127 -146 -147 0
-103 -126 -128 -146 -147 0
-104 -126 -129 -146 -147 0
-105 -126 -130 -146 -147 0
-103 -127 -128 -146 -148 0
-104 -127 -129 -146 -148 0
-105 -127 -130 -146 -148 0
-104 -128 -129 -146 -149 0
-105 -128 -130 -146 -149 0
-105 -129 -130 -146 -150 0
-103 -127 -128 -147 -148 0
-104 -127 -129 -147 -148 0
-105 -127 -130 -147 -148 0
-104 -128 -129 -147 -149 0
-105 -128 -130 -147 -149 0
-105 -129 -130 -147 -150 0
-104 -128 -129 -148 -149 0
-105 -128 -130 -148 -149 0
-105 -129 -130 -148 -150 0
-105 -129 -130 -149 -150 0
-99 -123 -124 -152 -153 0
-100 -123 -125 -152 -153 0
-101 -123 -126 -152 -153 0
-102 -123 -127 -152 -153 0
-103 -123 -128 -152 -153 0
-104 -123 -129 -152 -153 0
-105 -123 -130 -152 -153 0
-100 -124 -125 -152 -154 0
-101 -124 -126 -152 -154 0
-102 -124 -127 -152 -154 0
-103 -124 -128 -152 -154 0
-104 -124 -129 -152 -154 0
-105 -124 -130 -152 -154 0
-101 -125 -126 -152 -155 0
-102 -125 -127 -152 -155 0
-103 -125 -128 -152 -155 0
-104 -125 -129 -152 -155 0
-105 -125 -130 -152 -155 0
-102 -126 -127 -152 -156 0
-103 -126 -128 -152 -156 0
-104 -126 -129 -152 -156 0
-105 -126 -130 -152 -156 0
-103 -127 -128 -152 -157 0
-104 -127 -129 -152 -157 0
-105 -127 -130 -152 -157 0
-104 -128 -129 -152 -158 0
-105 -128 -130 -152 -158 0
-105 -129 -130 -152 -159 0
-100 -124 -125 -153 -154 0
-101 -124 -126 -153 -154 0
-102 -124 -127 -153 -154 0
-103 -124 -128 -153 -154 0
-104 -124 -129 -153 -154 0
-105 -124 -130 -153 -154 0
-101 -125 -126 -153 -155 0
-102 -125 -127 -153 -155 0
-103 -125 -128 -153 -155 0
-104 -125 -129 -153 -155 0
-105 -125 -130 -153 -155 0
-102 -126 -127 -153 -156 0
-103 -126 -128 -153 -156 0
-104 -126 -129 -153 -156 0
-105 -126 -130 -153 -156 0
-103 -127 -128 -153 -157 0
-104 -127 -129 -153 -157 0
-105 -127 -130 -153 -157 0
-104 -128 -129 -153 -158 0
-105 -128 -130 -153 -158 0
-105 -129 -130 -153 -159 0
-101 -125 -126 -154 -155 0
-102 -125 -127 -154 -155 0
-103 -125 -128 -154 -155 0
-104 -125 -129 -154 -155 0
-105 -125 -130 -154 -155 0
-102 -126 -127 -154 -156 0
-103 -126 -128 -154 -156 0
-104 -126 -129 -154 -156 0
-105 -126 -130 -154 -156 0
-103 -127 -128 -154 -157 0
-104 -127 -129 -154 -157 0
-105 -127 -130 -154 -157 0
-104 -128 -129 -154 -158 0
-105 -128 -130 -154 -158 0
-105 -129 -130 -154 -159 0
-102 -126 -127 -155 -156 0
-103 -126 -128 -155 -156 0
-104 -126 -129 -155 -156 0
-105 -126 -130 -155 -156 0
-103 -127 -128 -155 -157 0
-104 -127 -129 -155 -157 0
-105 -127 -130 -155 -157 0
-104 -128 -129 -155 -158 0
-105 -128 -130 -155 -158 0
-105 -129 -130 -155 -159 0
-103 -127 -128 -156 -157 0
-104 -127 -129 -156 -157 0
-105 -127 -130 -156 -157 0
-104 -128 -129 -156 -158 0
-105 -128 -130 -156 -158 0
-105 -129 -130 -156 -159 0
-104 -128 -129 -157 -158 0
-105 -128 -130 -157 -158 0
-105 -129 -130 -157 -159 0
-105 -129 -130 -158 -159 0
-100 -124 -125 -161 -162 0
-101 -124 -126 -161 -162 0
-102 -124 -127 -161 -162 0
-103 -124 -128 -161 -162 0
-104 -124 -129 -161 -162 0
-105 -124 -130 -161 -162 0
-101 -125 -126 -161 -163 0
-102 -125 -127 -161 -163 0
-103 -125 -128 -161 -163 0
-104 -125 -129 -161 -163 0
-105 -125 -130 -161 -163 0
-102 -126 -127 -161 -164 0
-103 -126 -128 -161 -164 0
-104 -126 -129 -161 -164 0
-105 -126 -130 -161 -164 0
-103 -127 -128 -161 -165 0
-104 -127 -129 -161 -165 0
-105 -127 -130 -161 -165 0
-104 -128 -129 -161 -166 0
-105 -128 -130 -161 -166 0
-105 -129 -130 -161 -167 0
-101 -125 -126 -162 -163 0
-102 -125 -127 -162 -163 0
-103 -125 -128 -162 -163 0
-104 -125 -129 -162 -163 0
-105 -125 -130 -162 -163 0
-102 -126 -127 -162 -164 0
-103 -126 -128 -162 -164 0
-104 -126 -129 -162 -164 0
-105 -126 -130 -162 -164 0
-103 -127 -128 -162 -165 0
-104 -127 -129 -162 -165 0
-105 -127 -130 -162 -165 0
-104 -128 -129 -162 -166 0
-105 -128 -130 -162 -166 0
-105 -129 -130 -162 -167 0
-102 -126 -127 -163 -164 0
-103 -126 -128 -163 -164 0
-104 -126 -129 -163 -164 0
-105 -126 -130 -163 -164 0
-103 -127 -128 -163 -165 0
-104 -127 -129 -163 -165 0
-105 -127 -130 -163 -165 0
-104 -128 -129 -163 -166 0
-105 -128 -130 -163 -166 0
-105 -129 -130 -163 -167 0
-103 -127 -128 -164 -165 0
-104 -127 -129 -164 -165 0
-105 -127 -130 -164 -165 0
-104 -128 -129 -164 -166 0
-105 -128 -130 -164 -166 0
-105 -129 -130 -164 -167 0
-104 -128 -129 -165 -166 0
-105 -128 -130 -165 -166 0
-105 -129 -130 -165 -167 0
-105 -129 -130 -166 -167 0
-101 -125 -126 -169 -170 0
-102 -125 -127 -169 -170 0
-103 -125 -128 -169 -170 0
-104 -125 -129 -169 -170 0
-105 -125 -130 -169 -170 0
-102 -126 -127 -169 -171 0
-103 -126 -128 -169 -171 0
-104 -126 -129 -169 -171 0
-105 -126 -130 -169 -171 0
-103 -127 -128 -169 -172 0
-104 -127 -129 -169 -172 0
-105 -127 -130 -169 -172 0
-104 -128 -129 -169 -173 0
-105 -128 -130 -169 -173 0
-105 -129 -130 -169 -174 0
-102 -126 -127 -170 -171 0
-103 -126 -128 -170 -171 0
-104 -126 -129 -170 -171 0
-105 -126 -130 -170 -171 0
-103 -127 -128 -170 -172 0
-104 -127 -129 -170 -172 0
-105 -127 -130 -170 -172 0
-104 -128 -129 -170 -173 0
-105 -128 -130 -170 -173 0
-105 -129 -130 -170 -174 0
-103 -127 -128 -171 -172 0
-104 -127 -129 -171 -172 0
-105 -127 -130 -171 -172 0
-104 -128 -129 -171 -173 0
-105 -128 -130 -171 -173 0
-105 -129 -130 -171 -174 0
-104 -128 -129 -172 -173 0
-105 -128 -130 -172 -173 0
-105 -129 -130 -172 -174 0
-105 -129 -130 -173 -174 0
-102 -126 -127 -176 -177 0
-103 -126 -128 -176 -177 0
-104 -126 -129 -176 -177 0
-105 -126 -130 -176 -177 0
-103 -127 -128 -176 -178 0
-104 -127 -129 -176 -178 0
-105 -127 -130 -176 -178 0
-104 -128 -129 -176 -179 0
-105 -128 -130 -176 -179 0
-105 -129 -130 -176 -180 0
-103 -127 -128 -177 -178 0
-104 -127 -129 -177 -178 0
-105 -127 -130 -177 -178 0
-104 -128 -129 -177 -179 0
-105 -128 -130 -177 -179 0
-105 -129 -130 -177 -180 0
-104 -128 -129 -178 -179 0
-105 -128 -130 -178 -179 0
-105 -129 -130 -178 -180 0
-105 -129 -130 -179 -180 0
-103 -127 -128 -182 -183 0
-104 -127 -129 -182 -183 0
-105 -127 -130 -182 -183 0
-104 -128 -129 -182 -184 0
-105 -128 -130 -182 -184 0
-105 -129 -130 -182 -185 0
-104 -128 -129 -183 -184 0
-105 -128 -130 -183 -184 0
-105 -129 -130 -183 -185 0
-105 -129 -130 -184 -185 0
-104 -128 -129 -187 -188 0
-105 -128 -130 -187 -188 0
-105 -129 -130 -187 -189 0
-105 -129 -130 -188 -189 0
-105 -129 -130 -191 -192 0
-98 -133 -134 -142 -143 0
-99 -133 -135 -142 -143 0
-100 -133 -136 -142 -143 0
-101 -133 -137 -142 -143 0
-102 -133 -138 -142 -143 0
-103 -133 -139 -142 -143 0
-104 -133 -140 -142 -143 0
-105 -133 -141 -142 -143 0
-99 -134 -135 -142 -144 0
-100 -134 -136 -142 -144 0
-101 -134 -137 -142 -144 0
-102 -134 -138 -142 -144 0
-103 -134 -139 -142 -144 0
-104 -134 -140 -142 -144 0
-105 -134 -141 -142 -144 0
-100 -135 -136 -142 -145 0
-101 -135 -137 -142 -145 0
-102 -135 -138 -142 -145 0
-103 -135 -139 -142 -145 0
-104 -135 -140 -142 -145 0
-105 -135 -141 -142 -145 0
-101 -136 -137 -142 -146 0
-102 -136 -138 -142 -146 0
-103 -136 -139 -142 -146 0
-104 -136 -140 -142 -146 0
-105 -136 -141 -142 -146 0
-102 -137 -138 -142 -147 0
-103 -137 -139 -142 -147 0
-104 -137 -140 -142 -147 0
-105 -137 -141 -142 -147 0
-103 -138 -139 -142 -148 0
-104 -138 -140 -142 -148 0
-105 -138 -141 -142 -148 0
-104 -139 -140 -142 -149 0
-105 -139 -141 -142 -149 0
-105 -140 -141 -142 -150 0
-99 -134 -135 -143 -144 0
-100 -134 -136 -143 -144 0
-101 -134 -137 -143 -144 0
-102 -134 -138 -143 -144 0
-103 -134 -139 -143 -144 0
-104 -134 -140 -143 -144 0
-105 -134 -141 -143 -144 0
-100 -135 -136 -143 -145 0
-101 -135 -137 -143 -145 0
-102 -135 -138 -143 -145 0
-103 -135 -139 -143 -145 0
-104 -135 -140 -143 -145 0
-105 -135 -141 -143 -145 0
-101 -136 -137 -143 -146 0
-102 -136 -138 -143 -146 0
-103 -136 -139 -143 -146 0
-104 -136 -140 -143 -146 0
-105 -136 -141 -143 -146 0
-102 -137 -138 -143 -147 0
-103 -137 -139 -143 -147 0
-104 -137 -140 -143 -147 0
-105 -137 -141 -143 -147 0
-103 -138 -139 -143 -148 0
-104 -138 -140 -143 -148 0
-105 -138 -141 -143 -148 0
-104 -139 -140 -143 -149 0
-105 -139 -141 -143 -149 0
-105 -140 -141 -143 -150 0
-100 -135 -136 -144 -145 0
-101 -135 -137 -144 -145 0
-102 -135 -138 -144 -145 0
-103 -135 -139 -144 -145 0
-104 -135 -140 -144 -145 0
-105 -135 -141 -144 -145 0
-101 -136 -137 -144 -146 0
-102 -136 -138 -144 -146 0
-103 -136 -139 -144 -146 0
-104 -136 -140 -144 -146 0
-105 -136 -141 -144 -146 0
-102 -137 -138 -144 -147 0
-103 -137 -139 -144 -147 0
-104 -137 -140 -144 -147 0
-105 -137 -141 -144 -147 0
-103 -138 -139 -144 -148 0
-104 -138 -140 -144 -148 0
-105 -138 -141 -144 -148 0
-104 -139 -140 -144 -149 0
-105 -139 -141 -144 -149 0
-105 -140 -141 -144 -150 0
-101 -136 -137 -145 -146 0
-102 -136 -138 -145 -146 0
-103 -136 -139 -145 -146 0
-104 -136 -140 -145 -146 0
-105 -136 -141 -145 -146 0
-102 -137 -138 -145 -147 0
-103 -137 -139 -145 -147 0
-104 -137 -140 -145 -147 0
-105 -137 -141 -145 -147 0
-103 -138 -139 -145 -148 0
-104 -138 -140 -145 -148 0
-105 -138 -141 -145 -148 0
-104 -139 -140 -145 -149 0
-105 -139 -141 -145 -149 0
-105 -140 -141 -145 -150 0
-102 -137 -138 -146 -147 0
-103 -137 -139 -146 -147 0
-104 -137 -140 -146 -147 0
-105 -137 -141 -146 -147 0
-103 -138 -139 -146 -148 0
-104 -138 -140 -146 -148 0
-105 -138 -141 -146 -148 0
-104 -139 -140 -146 -149 0
-105 -139 -141 -146 -149 0
-105 -140 -141 -146 -150 0
-103 -138 -139 -147 -148 0
-104 -138 -140 -147 -148 0
-105 -138 -141 -147 -148 0
-104 -139 -140 -147 -149 0
-105 -139 -141 -147 -149 0
-105 -140 -141 -147 -150 0
-104 -139 -140 -148 -149 0
-105 -139 -141 -148 -149 0
-105 -140 -141 -148 -150 0
-105 -140 -141 -149 -150 0
-99 -134 -135 -152 -153 0
-100 -134 -136 -152 -153 0
-101 -134 -137 -152 -153 0
-102 -134 -138 -152 -153 0
-103 -134 -139 -152 -153 0
-104 -134 -140 -152 -153 0
-105 -134 -141 -152 -153 0
-100 -135 -136 -152 -154 0
-101 -135 -137 -152 -154 0
-102 -135 -138 -152 -154 0
-103 -135 -139 -152 -154 0
-104 -135 -140 -152 -154 0
-105 -135 -141 -152 -154 0
-101 -136 -137 -152 -155 0
-102 -136 -138 -152 -155 0
-103 -136 -139 -152 -155 0
-104 -136 -140 -152 -155 0
-105 -136 -141 -152 -155 0
-102 -137 -138 -152 -156 0
-103 -137 -139 -152 -156 0
-104 -137 -140 -152 -156 0
-105 -137 -141 -152 -156 0
-103 -138 -139 -152 -157 0
-104 -138 -140 -152 -157 0
-105 -138 -141 -152 -157 0
-104 -139 -140 -152 -158 0
-105 -139 -141 -152 -158 0
-105 -140 -141 -152 -159 0
-100 -135 -136 -153 -154 0
-101 -135 -137 -153 -154 0
-102 -135 -138 -153 -154 0
-103 -135 -139 -153 -154 0
-104 -135 -140 -153 -154 0
-105 -135 -141 -153 -154 0
-101 -136 -137 -153 -155 0
-102 -136 -138 -153 -155 0
-103 -136 -139 -153 -155 0
-104 -136 -140 -153 -155 0
-105 -136 -141 -153 -155 0
-102 -137 -138 -153 -156 0
-103 -137 -139 -153 -156 0
-104 -137 -140 -153 -156 0
-105 -137 -141 -153 -156 0
-103 -138 -139 -153 -157 0
-104 -138 -140 -153 -157 0
-105 -138 -141 -153 -157 0
-104 -139 -140 -153 -158 0
-105 -139 -141 -153 -158 0
-105 -140 -141 -153 -159 0
-101 -136 -137 -154 -155 0
-102 -136 -138 -154 -155 0
-103 -136 -139 -154 -155 0
-104 -136 -140 -154 -155 0
-105 -136 -141 -154 -155 0
-102 -137 -138 -154 -156 0
-103 -137 -139 -154 -156 0
-104 -137 -140 -154 -156 0
-105 -137 -141 -154 -156 0
-103 -138 -139 -154 -157 0
-104 -138 -140 -154 -157 0
-105 -138 -141 -154 -157 0
-104 -139 -140 -154 -158 0
-105 -139 -141 -154 -158 0
-105 -140 -141 -154 -159 0
-102 -137 -138 -155 -156 0
-103 -137 -139 -155 -156 0
-104 -137 -140 -155 -156 0
-105 -137 -141 -155 -156 0
-103 -138 -139 -155 -157 0
-104 -138 -140 -155 -157 0
-105 -138 -141 -155 -157 0
-104 -139 -140 -155 -158 0
-105 -139 -141 -155 -158 0
-105 -140 -141 -155 -159 0
-103 -138 -139 -156 -157 0
-104 -138 -140 -156 -157 0
-105 -138 -141 -156 -157 0
-104 -139 -140 -156 -158 0
-105 -139 -141 -156 -158 0
-105 -140 -141 -156 -159 0
-104 -139 -140 -157 -158 0
-105 -139 -141 -157 -158 0
-105 -140 -141 -157 -159 0
-105 -140 -141 -158 -159 0
-100 -135 -136 -161 -162 0
-101 -135 -137 -161 -162 0
-102 -135 -138 -161 -162 0
-103 -135 -139 -161 -162 0
-104 -135 -140 -161 -162 0
-105 -135 -141 -161 -162 0
-101 -136 -137 -161 -163 0
-102 -136 -138 -161 -163 0
-103 -136 -139 -161 -163 0
-104 -136 -140 -161 -163 0
-105 -136 -141 -161 -163 0
-102 -137 -138 -161 -164 0
-103 -137 -139 -161 -164 0
-104 -137 -140 -161 -164 0
-105 -137 -141 -161 -164 0
-103 -138 -139 -161 -165 0
-104 -138 -140 -161 -165 0
-105 -138 -141 -161 -165 0
-104 -139 -140 -161 -166 0
-105 -139 -141 -161 -166 0
-105 -140 -141 -161 -167 0
-101 -136 -137 -162 -163 0
-102 -136 -138 -162 -163 0
-103 -136 -139 -162 -163 0
-104 -136 -140 -162 -163 0
-105 -136 -141 -162 -163 0
-102 -137 -138 -162 -164 0
-103 -137 -139 -162 -164 0
-104 -137 -140 -162 -164 0
-105 -137 -141 -162 -164 0
-103 -138 -139 -162 -165 0
-104 -138 -140 -162 -165 0
-105 -138 -141 -162 -165 0
-104 -139 -140 -162 -166 0
-105 -139 -141 -162 -166 0
-105 -140 -141 -162 -167 0
-102 -137 -138 -163 -164 0
-103 -137 -139 -163 -164 0
-104 -137 -140 -163 -164 0
-105 -137 -141 -163 -164 0
-103 -138 -139 -163 -165 0
-104 -138 -140 -163 -165 0
-105 -138 -141 -163 -165 0
-104 -139 -140 -163 -166 0
-105 -139 -141 -163 -166 0
-105 -140 -141 -163 -167 0
-103 -138 -139 -164 -165 0
-104 -138 -140 -164 -165 0
-105 -138 -141 -164 -165 0
-104 -139 -140 -164 -166 0
-105 -139 -141 -164 -166 0
-105 -140 -141 -164 -167 0
-104 -139 -140 -165 -166 0
-105 -139 -141 -165 -166 0
-105 -140 -141 -165 -167 0
-105 -140 -141 -166 -167 0
-101 -136 -137 -169 -170 0
-102 -136 -138 -169 -170 0
-103 -136 -139 -169 -170 0
-104 -136 -140 -169 -170 0
-105 -136 -141 -169 -170 0
-102 -137 -138 -169 -171 0
-103 -137 -139 -169 -171 0
-104 -137 -140 -169 -171 0
-105 -137 -141 -169 -171 0
-103 -138 -139 -169 -172 0
-104 -138 -140 -169 -172 0
-105 -138 -141 -169 -172 0
-104 -139 -140 -169 -173 0
-105 -139 -141 -169 -173 0
-105 -140 -141 -169 -174 0
-102 -137 -138 -170 -171 0
-103 -137 -139 -170 -171 0
-104 -137 -140 -170 -171 0
-105 -137 -141 -170 -171 0
-103 -138 -139 -170 -172 0
-104 -138 -140 -170 -172 0
-105 -138 -141 -170 -172 0
-104 -139 -140 -170 -173 0
-105 -139 -141 -170 -173 0
-105 -140 -141 -170 -174 0
-103 -138 -139 -171 -172 0
-104 -138 -140 -171 -172 0
-105 -138 -141 -171 -172 0
-104 -139 -140 -171 -173 0
-105 -139 -141 -171 -173 0
-105 -140 -141 -171 -174 0
-104 -139 -140 -172 -173 0
-105 -139 -141 -172 -173 0
-105 -140 -141 -172 -174 0
-105 -140 -141 -173 -174 0
-102 -137 -138 -176 -177 0
-103 -137 -139 -176 -177 0
-104 -137 -140 -176 -177 0
-105 -137 -141 -176 -177 0
-103 -138 -139 -176 -178 0
-104 -138 -140 -176 -178 0
-105 -138 -141 -176 -178 0
-104 -139 -140 -176 -179 0
-105 -139 -141 -176 -179 0
-105 -140 -141 -176 -180 0
-103 -138 -139 -177 -178 0
-104 -138 -140 -177 -178 0
-105 -138 -141 -177 -178 0
-104 -139 -140 -177 -179 0
-105 -139 -141 -177 -179 0
-105 -140 -141 -177 -180 0
-104 -139 -140 -178 -179 0
-105 -139 -141 -178 -179 0
-105 -140 -141 -178 -180 0
-105 -140 -141 -179 -180 0
-103 -138 -139 -182 -183 0
-104 -138 -140 -182 -183 0
-105 -138 -141 -182 -183 0
-104 -139 -140 -182 -184 0
-105 -139 -141 -182 -184 0
-105 -140 -141 -182 -185 0
-104 -139 -140 -183 -184 0
-105 -139 -141 -183 -184 0
-105 -140 -141 -183 -185 0
-105 -140 -141 -184 -185 0
-104 -139 -140 -187 -188 0
-105 -139 -141 -187 -188 0
-105 -140 -141 -187 -189 0
-105 -140 -141 -188 -189 0
-105 -140 -141 -191 -192 0
-99 -144 -145 -152 -153 0
-100 -144 -146 -152 -153 0
-101 -144 -147 -152 -153 0
-102 -144 -148 -152 -153 0
-103 -144 -149 -152 -153 0
-104 -144 -150 -152 -153 0
-105 -144 -151 -152 -153 0
-100 -145 -146 -152 -154 0
-101 -145 -147 -152 -154 0
-102 -145 -148 -152 -154 0
-103 -145 -149 -152 -154 0
-104 -145 -150 -152 -154 0
-105 -145 -151 -152 -154 0
-101 -146 -147 -152 -155 0
-102 -146 -148 -152 -155 0
-103 -146 -149 -152 -155 0
-104 -146 -150 -152 -155 0
-105 -146 -151 -152 -155 0
-102 -147 -148 -152 -156 0
-103 -147 -149 -152 -156 0
-104 -147 -150 -152 -156 0
-105 -147 -151 -152 -156 0
-103 -148 -149 -152 -157 0
-104 -148 -150 -152 -157 0
-105 -148 -151 -152 -157 0
-104 -149 -150 -152 -158 0
-105 -149 -151 -152 -158 0
-105 -150 -151 -152 -159 0
-100 -145 -146 -153 -154 0
-101 -145 -147 -153 -154 0
-102 -145 -148 -153 -154 0
-103 -145 -149 -153 -154 0
-104 -145 -150 -153 -154 0
-105 -145 -151 -153 -154 0
-101 -146 -147 -153 -155 0
-102 -146 -148 -153 -155 0
-103 -146 -149 -153 -155 0
-104 -146 -150 -153 -155 0
-105 -146 -151 -153 -155 0
-102 -147 -148 -153 -156 0
-103 -147 -149 -153 -156 0
-104 -147 -150 -153 -156 0
-105 -147 -151 -153 -156 0
-103 -148 -149 -153 -157 0
-104 -148 -150 -153 -157 0
-105 -148 -151 -153 -157 0
-104 -149 -150 -153 -158 0
-105 -149 -151 -153 -158 0
-105 -150 -151 -153 -159 0
-101 -146 -147 -154 -155 0
-102 -146 -148 -154 -155 0
-103 -146 -149 -154 -155 0
-104 -146 -150 -154 -155 0
-105 -146 -151 -154 -155 0
-102 -147 -148 -154 -156 0
-103 -147 -149 -154 -156 0
-104 -147 -150 -154 -156 0
-105 -147 -151 -154 -156 0
-103 -148 -149 -154 -157 0
-104 -148 -150 -154 -157 0
-105 -148 -151 -154 -157 0
-104 -149 -150 -154 -158 0
-105 -149 -151 -154 -158 0
-105 -150 -151 -154 -159 0
-102 -147 -148 -155 -156 0
-103 -147 -149 -155 -156 0
-104 -147 -150 -155 -156 0
-105 -147 -151 -155 -156 0
-103 -148 -149 -155 -157 0
-104 -148 -150 -155 -157 0
-105 -148 -151 -155 -157 0
-104 -149 -150 -155 -158 0
-105 -149 -151 -155 -158 0
-105 -150 -151 -155 -159 0
-103 -148 -149 -156 -157 0
-104 -148 -150 -156 -157 0
-105 -148 -151 -156 -157 0
-104 -149 -150 -156 -158 0
-105 -149 -151 -156 -158 0
-105 -150 -151 -156 -159 0
-104 -149 -150 -157 -158 0
-105 -149 -151 -157 -158 0
-105 -150 -151 -157 -159 0
-105 -150 -151 -158 -159 0
-100 -145 -146 -161 -162 0
-101 -145 -147 -161 -162 0
-102 -145 -148 -161 -162 0
-103 -145 -149 -161 -162 0
-104 -145 -150 -161 -162 0
-105 -145 -151 -161 -162 0
-101 -146 -147 -161 -163 0
-102 -146 -148 -161 -163 0
-103 -146 -149 -161 -163 0
-104 -146 -150 -161 -163 0
-105 -146 -151 -161 -163 0
-102 -147 -148 -161 -164 0
-103 -147 -149 -161 -164 0
-104 -147 -150 -161 -164 0
-105 -147 -151 -161 -164 0
-103 -148 -149 -161 -165 0
-104 -148 -150 -161 -165 0
-105 -148 -151 -161 -165 0
-104 -149 -150 -161 -166 0
-105 -149 -151 -161 -166 0
-105 -150 -151 -161 -167 0
-101 -146 -147 -162 -163 0
-102 -146 -148 -162 -163 0
-103 -146 -149 -162 -163 0
-104 -146 -150 -162 -163 0
-105 -146 -151 -162 -163 0
-102 -147 -148 -162 -164 0
-103 -147 -149 -162 -164 0
-104 -147 -150 -162 -164 0
-105 -147 -151 -162 -164 0
-103 -148 -149 -162 -165 0
-104 -148 -150 -162 -165 0
-105 -148 -151 -162 -165 0
-104 -149 -150 -162 -166 0
-105 -149 -151 -162 -166 0
-105 -150 -151 -162 -167 0
-102 -147 -148 -163 -164 0
-103 -147 -149 -163 -164 0
-104 -147 -150 -163 -164 0
-105 -147 -151 -163 -164 0
-103 -148 -149 -163 -165 0
-104 -148 -150 -163 -165 0
-105 -148 -151 -163 -165 0
-104 -149 -150 -163 -166 0
-105 -149 -151 -163 -166 0
-105 -150 -151 -163 -167 0
-103 -148 -149 -164 -165 0
-104 -148 -150 -164 -165 0
-105 -148 -151 -164 -165 0
-104 -149 -150 -164 -166 0
-105 -149 -151 -164 -166 0
-105 -150 -151 -164 -167 0
-104 -149 -150 -165 -166 0
-105 -149 -151 -165 -166 0
-105 -150 -151 -165 -167 0
-105 -150 -151 -166 -167 0
-101 -146 -147 -169 -170 0
-102 -146 -148 -169 -170 0
-103 -146 -149 -169 -170 0
-104 -146 -150 -169 -170 0
-105 -146 -151 -169 -170 0
-102 -147 -148 -169 -171 0
-103 -147 -149 -169 -171 0
-104 -147 -150 -169 -171 0
-105 -147 -151 -169 -171 0
-103 -148 -149 -169 -172 0
-104 -148 -150 -169 -172 0
-105 -148 -151 -169 -172 0
-104 -149 -150 -169 -173 0
-105 -149 -151 -169 -173 0
-105 -150 -151 -169 -174 0
-102 -147 -148 -170 -171 0
-103 -147 -149 -170 -171 0
-104 -147 -150 -170 -171 0
-105 -147 -151 -170 -171 0
-103 -148 -149 -170 -172 0
-104 -148 -150 -170 -172 0
-105 -148 -151 -170 -172 0
-104 -149 -150 -170 -173 0
-105 -149 -151 -170 -173 0
-105 -150 -151 -170 -174 0
-103 -148 -149 -171 -172 0
-104 -148 -150 -171 -172 0
-105 -148 -151 -171 -172 0
-104 -149 -150 -171 -173 0
-105 -149 -151 -171 -173 0
-105 -150 -151 -171 -174 0
-104 -149 -150 -172 -173 0
-105 -149 -151 -172 -173 0
-105 -150 -151 -172 -174 0
-105 -150 -151 -173 -174 0
-102 -147 -148 -176 -177 0
-103 -147 -149 -176 -177 0
-104 -147 -150 -176 -177 0
-105 -147 -151 -176 -177 0
-103 -148 -149 -176 -178 0
-104 -148 -150 -176 -178 0
-105 -148 -151 -176 -178 0
-104 -149 -150 -176 -179 0
-105 -149 -151 -176 -179 0
-105 -150 -151 -176 -180 0
-103 -148 -149 -177 -178 0
-104 -148 -150 -177 -178 0
-105 -148 -151 -177 -178 0
-104 -149 -150 -177 -179 0
-105 -149 -151 -177 -179 0
-105 -150 -151 -177 -180 0
-104 -149 -150 -178 -179 0
-105 -149 -151 -178 -179 0
-105 -150 -151 -178 -180 0
-105 -150 -151 -179 -180 0
-103 -148 -149 -182 -183 0
-104 -148 -150 -182 -183 0
-105 -148 -151 -182 -183 0
-104 -149 -150 -182 -184 0
-105 -149 -151 -182 -184 0
-105 -150 -151 -182 -185 0
-104 -149 -150 -183 -184 0
-105 -149 -151 -183 -184 0
-105 -150 -151 -183 -185 0
-105 -150 -151 -184 -185 0
-104 -149 -150 -187 -188 0
-105 -149 -151 -187 -188 0
-105 -150 -151 -187 -189 0
-105 -150 -151 -188 -189 0
-105 -150 -151 -191 -192 0
-100 -154 -155 -161 -162 0
-101 -154 -156 -161 -162 0
-102 -154 -157 -161 -162 0
-103 -154 -158 -161 -162 0
-104 -154 -159 -161 -162 0
-105 -154 -160 -161 -162 0
-101 -155 -156 -161 -163 0
-102 -155 -157 -161 -163 0
-103 -155 -158 -161 -163 0
-104 -155 -159 -161 -163 0
-105 -155 -160 -161 -163 0
-102 -156 -157 -161 -164 0
-103 -156 -158 -161 -164 0
-104 -156 -159 -161 -164 0
-105 -156 -160 -161 -164 0
-103 -157 -158 -161 -165 0
-104 -157 -159 -161 -165 0
-105 -157 -160 -161 -165 0
-104 -158 -159 -161 -166 0
-105 -158 -160 -161 -166 0
-105 -159 -160 -161 -167 0
-101 -155 -156 -162 -163 0
-102 -155 -157 -162 -163 0
-103 -155 -158 -162 -163 0
-104 -155 -159 -162 -163 0
-105 -155 -160 -162 -163 0
-102 -156 -157 -162 -164 0
-103 -156 -158 -162 -164 0
-104 -156 -159 -162 -164 0
-105 -156 -160 -162 -164 0
-103 -157 -158 -162 -165 0
-104 -157 -159 -162 -165 0
-105 -157 -160 -162 -165 0
-104 -158 -159 -162 -166 0
-105 -158 -160 -162 -166 0
-105 -159 -160 -162 -167 0
-102 -156 -157 -163 -164 0
-103 -156 -158 -163 -164 0
-104 -156 -159 -163 -164 0
-105 -156 -160 -163 -164 0
-103 -157 -158 -163 -165 0
-104 -157 -159 -163 -165 0
-105 -157 -160 -163 -165 0
-104 -158 -159 -163 -166 0
-105 -158 -160 -163 -166 0
-105 -159 -160 -163 -167 0
-103 -157 -158 -164 -165 0
-104 -157 -159 -164 -165 0
-105 -157 -160 -164 -165 0
-104 -158 -159 -164 -166 0
-105 -158 -160 -164 -166 0
-105 -159 -160 -164 -167 0
-104 -158 -159 -165 -166 0
-105 -158 -160 -165 -166 0
-105 -159 -160 -165 -167 0
-105 -159 -160 -166 -167 0
-101 -155 -156 -169 -170 0
-102 -155 -157 -169 -170 0
-103 -155 -158 -169 -170 0
-104 -155 -159 -169 -170 0
-105 -155 -160 -169 -170 0
-102 -156 -157 -169 -171 0
-103 -156 -158 -169 -171 0
-104 -156 -159 -169 -171 0
-105 -156 -160 -169 -171 0
-103 -157 -158 -169 -172 0
-104 -157 -159 -169 -172 0
-105 -157 -160 -169 -172 0
-104 -158 -159 -169 -173 0
-105 -158 -160 -169 -173 0
-105 -159 -160 -169 -174 0
-102 -156 -157 -170 -171 0
-103 -156 -158 -170 -171 0
-104 -156 -159 -170 -171 0
-105 -156 -160 -170 -171 0
-103 -157 -158 -170 -172 0
-104 -157 -159 -170 -172 0
-105 -157 -160 -170 -172 0
-104 -158 -159 -170 -173 0
-105 -158 -160 -170 -173 0
-105 -159 -160 -170 -174 0
-103 -157 -158 -171 -172 0
-104 -157 -159 -171 -172 0
-105 -157 -160 -171 -172 0
-104 -158 -159 -171 -173 0
-105 -158 -160 -171 -173 0
-105 -159 -160 -171 -174 0
-104 -158 -159 -172 -173 0
-105 -158 -160 -172 -173 0
-105 -159 -160 -172 -174 0
-105 -159 -160 -173 -174 0
-102 -156 -157 -176 -177 0
-103 -156 -158 -176 -177 0
-104 -156 -159 -176 -177 0
-105 -156 -160 -176 -177 0
-103 -157 -158 -176 -178 0
-104 -157 -159 -176 -178 0
-105 -157 -160 -176 -178 0
-104 -158 -159 -176 -179 0
-105 -158 -160 -176 -179 0
-105 -159 -160 -176 -180 0
-103 -157 -158 -177 -178 0
-104 -157 -159 -177 -178 0
-105 -157 -160 -177 -178 0
-104 -158 -159 -177 -179 0
-105 -158 -160 -177 -179 0
-105 -159 -160 -177 -180 0
-104 -158 -159 -178 -179 0
-105 -158 -160 -178 -179 0
-105 -159 -160 -178 -180 0
-105 -159 -160 -179 -180 0
-103 -157 -158 -182 -183 0
-104 -157 -159 -182 -183 0
-105 -157 -160 -182 -183 0
-104 -158 -159 -182 -184 0
-105 -158 -160 -182 -184 0
-105 -159 -160 -182 -185 0
-104 -158 -159 -183 -184 0
-105 -158 -160 -183 -184 0
-105 -159 -160 -183 -185 0
-105 -159 -160 -184 -185 0
-104 -158 -159 -187 -188 0
-105 -158 -160 -187 -188 0
-105 -159 -160 -187 -189 0
-105 -159 -160 -188 -189 0
-105 -159 -160 -191 -192 0
-101 -163 -164 -169 -170 0
-102 -163 -165 -169 -170 0
-103 -163 -166 -169 -170 0
-104 -163 -167 -169 -170 0
-105 -163 -168 -169 -170 0
-102 -164 -165 -169 -171 0
-103 -164 -166 -169 -171 0
-104 -164 -167 -169 -171 0
-105 -164 -168 -169 -171 0
-103 -165 -166 -169 -172 0
-104 -165 -167 -169 -172 0
-105 -165 -168 -169 -172 0
-104 -166 -167 -169 -173 0
-105 -166 -168 -169 -173 0
-105 -167 -168 -169 -174 0
-102 -164 -165 -170 -171 0
-103 -164 -166 -170 -171 0
-104 -164 -167 -170 -171 0
-105 -164 -168 -170 -171 0
-103 -165 -166 -170 -172 0
-104 -165 -167 -170 -172 0
-105 -165 -168 -170 -172 0
-104 -166 -167 -170 -173 0
-105 -166 -168 -170 -173 0
-105 -167 -168 -170 -174 0
-103 -165 -166 -171 -172 0
-104 -165 -167 -171 -172 0
-105 -165 -168 -171 -172 0
-104 -166 -167 -171 -173 0
-105 -166 -168 -171 -173 0
-105 -167 -168 -171 -174 0
-104 -166 -167 -172 -173 0
-105 -166 -168 -172 -173 0
-105 -167 -168 -172 -174 0
-105 -167 -168 -173 -174 0
-102 -164 -165 -176 -177 0
-103 -164 -166 -176 -177 0
-104 -164 -167 -176 -177 0
-105 -164 -168 -176 -177 0
-103 -165 -166 -176 -178 0
-104 -165 -167 -176 -178 0
-105 -165 -168 -176 -178 0
-104 -166 -167 -176 -179 0
-105 -166 -168 -176 -179 0
-105 -167 -168 -176 -180 0
-103 -165 -166 -177 -178 0
-104 -165 -167 -177 -178 0
-105 -165 -168 -177 -178 0
-104 -166 -167 -177 -179 0
-105 -166 -168 -177 -179 0
-105 -167 -168 -177 -180 0
-104 -166 -167 -178 -179 0
-105 -166 -168 -178 -179 0
-105 -167 -168 -178 -180 0
-105 -167 -168 -179 -180 0
-103 -165 -166 -182 -183 0
-104 -165 -167 -182 -183 0
-105 -165 -168 -182 -183 0
-104 -166 -167 -182 -184 0
-105 -166 -168 -182 -184 0
-105 -167 -168 -182 -185 0
-104 -166 -167 -183 -184 0
-105 -166 -168 -183 -184 0
-105 -167 -168 -183 -185 0
-105 -167 -168 -184 -185 0
-104 -166 -167 -187 -188 0
-105 -166 -168 -187 -188 0
-105 -167 -168 -187 -189 0
-105 -167 -168 -188 -189 0
-105 -167 -168 -191 -192 0
-102 -171 -172 -176 -177 0
-103 -171 -173 -176 -177 0
-104 -171 -174 -176 -177 0
-105 -171 -175 -176 -177 0
-103 -172 -173 -176 -178 0
-104 -172 -174 -176 -178 0
-105 -172 -175 -176 -178 0
-104 -173 -174 -176 -179 0
-105 -173 -175 -176 -179 0
-105 -174 -175 -176 -180 0
-103 -172 -173 -177 -178 0
-104 -172 -174 -177 -178 0
-105 -172 -175 -177 -178 0
-104 -173 -174 -177 -179 0
-105 -173 -175 -177 -179 0
-105 -174 -175 -177 -180 0
-104 -173 -174 -178 -179 0
-105 -173 -175 -178 -179 0
-105 -174 -175 -178 -180 0
-105 -174 -175 -179 -180 0
-103 -172 -173 -182 -183 0
-104 -172 -174 -182 -183 0
-105 -172 -175 -182 -183 0
-104 -173 -174 -182 -184 0
-105 -173 -175 -182 -184 0
-105 -174 -175 -182 -185 0
-104 -173 -174 -183 -184 0
-105 -173 -175 -183 -184 0
-105 -174 -175 -183 -185 0
-105 -174 -175 -184 -185 0
-104 -173 -174 -187 -188 0
-105 -173 -175 -187 -188 0
-105 -174 -175 -187 -189 0
-105 -174 -175 -188 -189 0
-105 -174 -175 -191 -192 0
-103 -178 -179 -182 -183 0
-104 -178 -180 -182 -183 0
-105 -178 -181 -182 -183 0
-104 -179 -180 -182 -184 0
-105 -179 -181 -182 -184 0
-105 -180 -181 -182 -185 0
-104 -179 -180 -183 -184 0
-105 -179 -181 -183 -184 0
-105 -180 -181 -183 -185 0
-105 -180 -181 -184 -185 0
-104 -179 -180 -187 -188 0
-105 -179 -181 -187 -188 0
-105 -180 -181 -187 -189 0
-105 -180 -181 -188 -189 0
-105 -180 -181 -191 -192 0
-104 -184 -185 -187 -188 0
-105 -184 -186 -187 -188 0
-105 -185 -186 -187 -189 0
-105 -185 -186 -188 -189 0
-105 -185 -186 -191 -192 0
-105 -189 -190 -191 -192 0
-110 -121 -122 -131 -132 0
-111 -121 -123 -131 -132 0
-112 -121 -124 -131 -132 0
-113 -121 -125 -131 -132 0
-114 -121 -126 -131 -132 0
-115 -121 -127 -131 -132 0
-116 -121 -128 -131 -132 0
-117 -121 -129 -131 -132 0
-118 -121 -130 -131 -132 0
-92 -121 -93 -131 -132 0
-111 -122 -123 -131 -133 0
-112 -122 -124 -131 -133 0
-113 -122 -125 -131 -133 0
-114 -122 -126 -131 -133 0
-115 -122 -127 -131 -133 0
-116 -122 -128 -131 -133 0
-117 -122 -129 -131 -133 0
-118 -122 -130 -131 -133 0
-92 -122 -93 -131 -133 0
-112 -123 -124 -131 -134 0
-113 -123 -125 -131 -134 0
-114 -123 -126 -131 -134 0
-115 -123 -127 -131 -134 0
-116 -123 -128 -131 -134 0
-117 -123 -129 -131 -134 0
-118 -123 -130 -131 -134 0
-92 -123 -93 -131 -134 0
-113 -124 -125 -131 -135 0
-114 -124 -126 -131 -135 0
-115 -124 -127 -131 -135 0
-116 -124 -128 -131 -135 0
-117 -124 -129 -131 -135 0
-118 -124 -130 -131 -135 0
-92 -124 -93 -131 -135 0
-114 -125 -126 -131 -136 0
-115 -125 -127 -131 -136 0
-116 -125 -128 -131 -136 0
-117 -125 -129 -131 -136 0
-118 -125 -130 -131 -136 0
-92 -125 -93 -131 -136 0
-115 -126 -127 -131 -137 0
-116 -126 -128 -131 -137 0
-117 -126 -129 -131 -137 0
-118 -126 -130 -131 -137 0
-92 -126 -93 -131 -137 0
-116 -127 -128 -131 -138 0
-117 -127 -129 -131 -138 0
-118 -127 -130 -131 -138 0
-92 -127 -93 -131 -138 0
-117 -128 -129 -131 -139 0
-118 -128 -130 -131 -139 0
-92 -128 -93 -131 -139 0
-118 -129 -130 -131 -140 0
-92 -129 -93 -131 -140 0
-92 -130 -93 -131 -141 0
-111 -122 -123 -132 -133 0
-112 -122 -124 -132 -133 0
-113 -122 -125 -132 -133 0
-114 -122 -126 -132 -133 0
-115 -122 -127 -132 -133 0
-116 -122 -128 -132 -133 0
-117 -122 -129 -132 -133 0
-118 -122 -130 -132 -133 0
-92 -122 -93 -132 -133 0
-112 -123 -124 -132 -134 0
-113 -123 -125 -132 -134 0
-114 -123 -126 -132 -134 0
-115 -123 -127 -132 -134 0
-116 -123 -128 -132 -134 0
-117 -123 -129 -132 -134 0
-118 -123 -130 -132 -134 0
-92 -123 -93 -132 -134 0
-113 -124 -125 -132 -135 0
-114 -124 -126 -132 -135 0
-115 -124 -127 -132 -135 0
-116 -124 -128 -132 -135 0
-117 -124 -129 -132 -135 0
-118 -124 -130 -132 -135 0
-92 -124 -93 -132 -135 0
-114 -125 -126 -132 -136 0
-115 -125 -127 -132 -136 0
-116 -125 -128 -132 -136 0
-117 -125 -129 -132 -136 0
-118 -125 -130 -132 -136 0
-92 -125 -93 -132 -136 0
-115 -126 -127 -132 -137 0
-116 -126 -128 -132 -137 0
-117 -126 -129 -132 -137 0
-118 -126 -130 -132 -137 0
-92 -126 -93 -132 -137 0
-116 -127 -128 -132 -138 0
-117 -127 -129 -132 -138 0
-118 -127 -130 -132 -138 0
-92 -127 -93 -132 -138 0
-117 -128 -129 -132 -139 0
-118 -128 -130 -132 -139 0
-92 -128 -93 -132 -139 0
-118 -129 -130 -132 -140 0
-92 -129 -93 -132 -140 0
-92 -130 -93 -132 -141 0
-112 -123 -124 -133 -134 0
-113 -123 -125 -133 -134 0
-114 -123 -126 -133 -134 0
-115 -123 -127 -133 -134 0
-116 -123 -128 -133 -134 0
-117 -123 -129 -133 -134 0
-118 -123 -130 -133 -134 0
-92 -123 -93 -133 -134 0
-113 -124 -125 -133 -135 0
-114 -124 -126 -133 -135 0
-115 -124 -127 -133 -135 0
-116 -124 -128 -133 -135 0
-117 -124 -129 -133 -135 0
-118 -124 -130 -133 -135 0
-92 -124 -93 -133 -135 0
-114 -125 -126 -133 -136 0
-115 -125 -127 -133 -136 0
-116 -125 -128 -133 -136 0
-117 -125 -129 -133 -136 0
-118 -125 -130 -133 -136 0
-92 -125 -93 -133 -136 0
-115 -126 -127 -133 -137 0
-116 -126 -128 -133 -137 0
-117 -126 -129 -133 -137 0
-118 -126 -130 -133 -137 0
-92 -126 -93 -133 -137 0
-116 -127 -128 -133 -138 0
-117 -127 -129 -133 -138 0
-118 -127 -130 -133 -138 0
-92 -127 -93 -133 -138 0
-117 -128 -129 -133 -139 0
-118 -128 -130 -133 -139 0
-92 -128 -93 -133 -139 0
-118 -129 -130 -133 -140 0
-92 -129 -93 -133 -140 0
-92 -130 -93 -133 -141 0
-113 -124 -125 -134 -135 0
-114 -124 -126 -134 -135 0
-115 -124 -127 -134 -135 0
-116 -124 -128 -134 -135 0
-117 -124 -129 -134 -135 0
-118 -124 -130 -134 -135 0
-92 -124 -93 -134 -135 0
-114 -125 -126 -134 -136 0
-115 -125 -127 -134 -136 0
-116 -125 -128 -134 -136 0
-117 -125 -129 -134 -136 0
-118 -125 -130 -134 -136 0
-92 -125 -93 -134 -136 0
-115 -126 -127 -134 -137 0
-116 -126 -128 -134 -137 0
-117 -126 -129 -134 -137 0
-118 -126 -130 -134 -137 0
-92 -126 -93 -134 -137 0
-116 -127 -128 -134 -138 0
-117 -127 -129 -134 -138 0
-118 -127 -130 -134 -138 0
-92 -127 -93 -134 -138 0
-117 -128 -129 -134 -139 0
-118 -128 -130 -134 -139 0
-92 -128 -93 -134 -139 0
-118 -129 -130 -134 -140 0
-92 -129 -93 -134 -140 0
-92 -130 -93 -134 -141 0
-114 -125 -126 -135 -136 0
-115 -125 -127 -135 -136 0
-116 -125 -128 -135 -136 0
-117 -125 -129 -135 -136 0
-118 -125 -130 -135 -136 0
-92 -125 -93 -135 -136 0
-115 -126 -127 -135 -137 0
-116 -126 -128 -135 -137 0
-117 -126 -129 -135 -137 0
-118 -126 -130 -135 -137 0
-92 -126 -93 -135 -137 0
-116 -127 -128 -135 -138 0
-117 -127 -129 -135 -138 0
-118 -127 -130 -135 -138 0
-92 -127 -93 -135 -138 0
-117 -128 -129 -135 -139 0
-118 -128 -130 -135 -139 0
-92 -128 -93 -135 -139 0
-118 -129 -130 -135 -140 0
-92 -129 -93 -135 -140 0
-92 -130 -93 -135 -141 0
-115 -126 -127 -136 -137 0
-116 -126 -128 -136 -137 0
-117 -126 -129 -136 -137 0
-118 -126 -130 -136 -137 0
-92 -126 -93 -136 -137 0
-116 -127 -128 -136 -138 0
-117 -127 -129 -136 -138 0
-118 -127 -130 -136 -138 0
-92 -127 -93 -136 -138 0
-117 -128 -129 -136 -139 0
-118 -128 -130 -136 -139 0
-92 -128 -93 -136 -139 0
-118 -129 -130 -136 -140 0
-92 -129 -93 -136 -140 0
-92 -130 -93 -136 -141 0
-116 -127 -128 -137 -138 0
-117 -127 -129 -137 -138 0
-118 -127 -130 -137 -138 0
-92 -127 -93 -137 -138 0
-117 -128 -129 -137 -139 0
-118 -128 -130 -137 -139 0
-92 -128 -93 -137 -139 0
-118 -129 -130 -137 -140 0
-92 -129 -93 -137 -140 0
-92 -130 -93 -137 -141 0
-117 -128 -129 -138 -139 0
-118 -128 -130 -138 -139 0
-92 -128 -93 -138 -139 0
-118 -129 -130 -138 -140 0
-92 -129 -93 -138 -140 0
-92 -130 -93 -138 -141 0
-118 -129 -130 -139 -140 0
-92 -129 -93 -139 -140 0
-92 -130 -93 -139 -141 0
-92 -130 -93 -140 -141 0
-111 -122 -123 -142 -143 0
-112 -122 -124 -142 -143 0
-113 -122 -125 -142 -143 0
-114 -122 -126 -142 -143 0
-115 -122 -127 -142 -143 0
-116 -122 -128 -142 -143 0
-117 -122 -129 -142 -143 0
-118 -122 -130 -142 -143 0
-92 -122 -93 -142 -143 0
-112 -123 -124 -142 -144 0
-113 -123 -125 -142 -144 0
-114 -123 -126 -142 -144 0
-115 -123 -127 -142 -144 0
-116 -123 -128 -142 -144 0
-117 -123 -129 -142 -144 0
-118 -123 -130 -142 -144 0
-92 -123 -93 -142 -144 0
-113 -124 -125 -142 -145 0
-114 -124 -126 -142 -145 0
-115 -124 -127 -142 -145 0
-116 -124 -128 -142 -145 0
-117 -124 -129 -142 -145 0
-118 -124 -130 -142 -145 0
-92 -124 -93 -142 -145 0
-114 -125 -126 -142 -146 0
-115 -125 -127 -142 -146 0
-116 -125 -128 -142 -146 0
-117 -125 -129 -142 -146 0
-118 -125 -130 -142 -146 0
-92 -125 -93 -142 -146 0
-115 -126 -127 -142 -147 0
-116 -126 -128 -142 -147 0
-117 -126 -129 -142 -147 0
-118 -126 -130 -142 -147 0
-92 -126 -93 -142 -147 0
-116 -127 -128 -142 -148 0
-117 -127 -129 -142 -148 0
-118 -127 -130 -142 -148 0
-92 -127 -93 -142 -148 0
-117 -128 -129 -142 -149 0
-118 -128 -130 -142 -149 0
-92 -128 -93 -142 -149 0
-118 -129 -130 -142 -150 0
-92 -129 -93 -142 -150 0
-92 -130 -93 -142 -151 0
-112 -123 -124 -143 -144 0
-113 -123 -125 -143 -144 0
-114 -123 -126 -143 -144 0
-115 -123 -127 -143 -144 0
-116 -123 -128 -143 -144 0
-117 -123 -129 -143 -144 0
-118 -123 -130 -143 -144 0
-92 -123 -93 -143 -144 0
-113 -124 -125 -143 -145 0
-114 -124 -126 -143 -145 0
-115 -124 -127 -143 -145 0
-116 -124 -128 -143 -145 0
-117 -124 -129 -143 -145 0
-118 -124 -130 -143 -145 0
-92 -124 -93 -143 -145 0
-114 -125 -126 -143 -146 0
-115 -125 -127 -143 -146 0
-116 -125 -128 -143 -146 0
-117 -125 -129 -143 -146 0
-118 -125 -130 -143 -146 0
-92 -125 -93 -143 -146 0
-115 -126 -127 -143 -147 0
-116 -126 -128 -143 -147 0
-117 -126 -129 -143 -147 0
-118 -126 -130 -143 -147 0
-92 -126 -93 -143 -147 0
-116 -127 -128 -143 -148 0
-117 -127 -129 -143 -148 0
-118 -127 -130 -143 -148 0
-92 -127 -93 -143 -148 0
-117 -128 -129 -143 -149 0
-118 -128 -130 -143 -149 0
-92 -128 -93 -143 -149 0
-118 -129 -130 -143 -150 0
-92 -129 -93 -143 -150 0
-92 -130 -93 -143 -151 0
-113 -124 -125 -144 -145 0
-114 -124 -126 -144 -145 0
-115 -124 -127 -144 -145 0
-116 -124 -128 -144 -145 0
-117 -124 -129 -144 -145 0
-118 -124 -130 -144 -145 0
-92 -124 -93 -144 -145 0
-114 -125 -126 -144 -146 0
-115 -125 -127 -144 -146 0
-116 -125 -128 -144 -146 0
-117 -125 -129 -144 -146 0
-118 -125 -130 -144 -146 0
-92 -125 -93 -144 -146 0
-115 -126 -127 -144 -147 0
-116 -126 -128 -144 -147 0
-117 -126 -129 -144 -147 0
-118 -126 -130 -144 -147 0
-92 -126 -93 -144 -147 0
-116 -127 -128 -144 -148 0
-117 -127 -129 -144 -148 0
-118 -127 -130 -144 -148 0
-92 -127 -93 -144 -148 0
-117 -128 -129 -144 -149 0
-118 -128 -130 -144 -149 0
-92 -128 -93 -144 -149 0
-118 -129 -130 -144 -150 0
-92 -129 -93 -144 -150 0
-92 -130 -93 -144 -151 0
-114 -125 -126 -145 -146 0
-115 -125 -127 -145 -146 0
-116 -125 -128 -145 -146 0
-117 -125 -129 -145 -146 0
-118 -125 -130 -145 -146 0
-92 -125 -93 -145 -146 0
-115 -126 -127 -145 -147 0
-116 -126 -128 -145 -147 0
-117 -126 -129 -145 -147 0
-118 -126 -130 -145 -147 0
-92 -126 -93 -145 -147 0
-116 -127 -128 -145 -148 0
-117 -127 -129 -145 -148 0
-118 -127 -130 -145 -148 0
-92 -127 -93 -145 -148 0
-117 -128 -129 -145 -149 0
-118 -128 -130 -145 -149 0
-92 -128 -93 -145 -149 0
-118 -129 -130 -145 -150 0
-92 -129 -93 -145 -150 0
-92 -130 -93 -145 -151 0
-115 -126 -127 -146 -147 0
-116 -126 -128 -146 -147 0
-117 -126 -129 -146 -147 0
-118 -126 -130 -146 -147 0
-92 -126 -93 -146 -147 0
-116 -127 -128 -146 -148 0
-117 -127 -129 -146 -148 0
-118 -127 -130 -146 -148 0
-92 -127 -93 -146 -148 0
-117 -128 -129 -146 -149 0
-118 -128 -130 -146 -149 0
-92 -128 -93 -146 -149 0
-118 -129 -130 -146 -150 0
-92 -129 -93 -146 -150 0
-92 -130 -93 -146 -151 0
-116 -127 -128 -147 -148 0
-117 -127 -129 -147 -148 0
-118 -127 -130 -147 -148 0
-92 -127 -93 -147 -148 0
-117 -128 -129 -147 -149 0
-118 -128 -130 -147 -149 0
-92 -128 -93 -147 -149 0
-118 -129 -130 -147 -150 0
-92 -129 -93 -147 -150 0
-92 -130 -93 -147 -151 0
-117 -128 -129 -148 -149 0
-118 -128 -130 -148 -149 0
-92 -128 -93 -148 -149 0
-118 -129 -130 -148 -150 0
-92 -129 -93 -148 -150 0
-92 -130 -93 -148 -151 0
-118 -129 -130 -149 -150 0
-92 -129 -93 -149 -150 0
-92 -130 -93 -149 -151 0
-92 -130 -93 -150 -151 0
-112 -123 -124 -152 -153 0
-113 -123 -125 -152 -153 0
-114 -123 -126 -152 -153 0
-115 -123 -127 -152 -153 0
-116 -123 -128 -152 -153 0
-117 -123 -129 -152 -153 0
-118 -123 -130 -152 -153 0
-92 -123 -93 -152 -153 0
-113 -124 -125 -152 -154 0
-114 -124 -126 -152 -154 0
-115 -124 -127 -152 -154 0
-116 -124 -128 -152 -154 0
-117 -124 -129 -152 -154 0
-118 -124 -130 -152 -154 0
-92 -124 -93 -152 -154 0
-114 -125 -126 -152 -155 0
-115 -125 -127 -152 -155 0
-116 -125 -128 -152 -155 0
-117 -125 -129 -152 -155 0
-118 -125 -130 -152 -155 0
-92 -125 -93 -152 -155 0
-115 -126 -127 -152 -156 0
-116 -126 -128 -152 -156 0
-117 -126 -129 -152 -156 0
-118 -126 -130 -152 -156 0
-92 -126 -93 -152 -156 0
-116 -127 -128 -152 -157 0
-117 -127 -129 -152 -157 0
-118 -127 -130 -152 -157 0
-92 -127 -93 -152 -157 0
-117 -128 -129 -152 -158 0
-118 -128 -130 -152 -158 0
-92 -128 -93 -152 -158 0
-118 -129 -130 -152 -159 0
-92 -129 -93 -152 -159 0
-92 -130 -93 -152 -160 0
-113 -124 -125 -153 -154 0
-114 -124 -126 -153 -154 0
-115 -124 -127 -153 -154 0
-116 -124 -128 -153 -154 0
-117 -124 -129 -153 -154 0
-118 -124 -130 -153 -154 0
-92 -124 -93 -153 -154 0
-114 -125 -126 -153 -155 0
-115 -125 -127 -153 -155 0
-116 -125 -128 -153 -155 0
-117 -125 -129 -153 -155 0
-118 -125 -130 -153 -155 0
-92 -125 -93 -153 -155 0
-115 -126 -127 -153 -156 0
-116 -126 -128 -153 -156 0
-117 -126 -129 -153 -156 0
-118 -126 -130 -153 -156 0
-92 -126 -93 -153 -156 0
-116 -127 -128 -153 -157 0
-117 -127 -129 -153 -157 0
-118 -127 -130 -153 -157 0
-92 -127 -93 -153 -157 0
-117 -128 -129 -153 -158 0
-118 -128 -130 -153 -158 0
-92 -128 -93 -153 -158 0
-118 -129 -130 -153 -159 0
-92 -129 -93 -153 -159 0
-92 -130 -93 -153 -160 0
-114 -125 -126 -154 -155 0
-115 -125 -127 -154 -155 0
-116 -125 -128 -154 -155 0
-117 -125 -129 -154 -155 0
-118 -125 -130 -154 -155 0
-92 -125 -93 -154 -155 0
-115 -126 -127 -154 -156 0
-116 -126 -128 -154 -156 0
-117 -126 -129 -154 -156 0
-118 -126 -130 -154 -156 0
-92 -126 -93 -154 -156 0
-116 -127 -128 -154 -157 0
-117 -127 -129 -154 -157 0
-118 -127 -130 -154 -157 0
-92 -127 -93 -154 -157 0
-117 -128 -129 -154 -158 0
-118 -128 -130 -154 -158 0
-92 -128 -93 -154 -158 0
-118 -129 -130 -154 -159 0
-92 -129 -93 -154 -159 0
-92 -130 -93 -154 -160 0
-115 -126 -127 -155 -156 0
-116 -126 -128 -155 -156 0
-117 -126 -129 -155 -156 0
-118 -126 -130 -155 -156 0
-92 -126 -93 -155 -156 0
-116 -127 -128 -155 -157 0
-117 -127 -129 -155 -157 0
-118 -127 -130 -155 -157 0
-92 -127 -93 -155 -157 0
-117 -128 -129 -155 -158 0
-118 -128 -130 -155 -158 0
-92 -128 -93 -155 -158 0
-118 -129 -130 -155 -159 0
-92 -129 -93 -155 -159 0
-92 -130 -93 -155 -160 0
-116 -127 -128 -156 -157 0
-117 -127 -129 -156 -157 0
-118 -127 -130 -156 -157 0
-92 -127 -93 -156 -157 0
-117 -128 -129 -156 -158 0
-118 -128 -130 -156 -158 0
-92 -128 -93 -156 -158 0
-118 -129 -130 -156 -159 0
-92 -129 -93 -156 -159 0
-92 -130 -93 -156 -160 0
-117 -128 -129 -157 -158 0
-118 -128 -130 -157 -158 0
-92 -128 -93 -157 -158 0
-118 -129 -130 -157 -159 0
-92 -129 -93 -157 -159 0
-92 -130 -93 -157 -160 0
-118 -129 -130 -158 -159 0
-92 -129 -93 -158 -159 0
-92 -130 -93 -158 -160 0
-92 -130 -93 -159 -160 0
-113 -124 -125 -161 -162 0
-114 -124 -126 -161 -162 0
-115 -124 -127 -161 -162 0
-116 -124 -128 -161 -162 0
-117 -124 -129 -161 -162 0
-118 -124 -130 -161 -162 0
-92 -124 -93 -161 -162 0
-114 -125 -126 -161 -163 0
-115 -125 -127 -161 -163 0
-116 -125 -128 -161 -163 0
-117 -125 -129 -161 -163 0
-118 -125 -130 -161 -163 0
-92 -125 -93 -161 -163 0
-115 -126 -127 -161 -164 0
-116 -126 -128 -161 -164 0
-117 -126 -129 -161 -164 0
-118 -126 -130 -161 -164 0
-92 -126 -93 -161 -164 0
-116 -127 -128 -161 -165 0
-117 -127 -129 -161 -165 0
-118 -127 -130 -161 -165 0
-92 -127 -93 -161 -165 0
-117 -128 -129 -161 -166 0
-118 -128 -130 -161 -166 0
-92 -128 -93 -161 -166 0
-118 -129 -130 -161 -167 0
-92 -129 -93 -161 -167 0
-92 -130 -93 -161 -168 0
-114 -125 -126 -162 -163 0
-115 -125 -127 -162 -163 0
-116 -125 -128 -162 -163 0
-117 -125 -129 -162 -163 0
-118 -125 -130 -162 -163 0
-92 -125 -93 -162 -163 0
-115 -126 -127 -162 -164 0
-116 -126 -128 -162 -164 0
-117 -126 -129 -162 -164 0
-118 -126 -130 -162 -164 0
-92 -126 -93 -162 -164 0
-116 -127 -128 -162 -165 0
-117 -127 -129 -162 -165 0
-118 -127 -130 -162 -165 0
-92 -127 -93 -162 -165 0
-117 -128 -129 -162 -166 0
-118 -128 -130 -162 -166 0
-92 -128 -93 -162 -166 0
-118 -129 -130 -162 -167 0
-92 -129 -93 -162 -167 0
-92 -130 -93 -162 -168 0
-115 -126 -127 -163 -164 0
-116 -126 -128 -163 -164 0
-117 -126 -129 -163 -164 0
-118 -126 -130 -163 -164 0
-92 -126 -93 -163 -164 0
-116 -127 -128 -163 -165 0
-117 -127 -129 -163 -165 0
-118 -127 -130 -163 -165 0
-92 -127 -93 -163 -165 0
-117 -128 -129 -163 -166 0
-118 -128 -130 -163 -166 0
-92 -128 -93 -163 -166 0
-118 -129 -130 -163 -167 0
-92 -129 -93 -163 -167 0
-92 -130 -93 -163 -168 0
-116 -127 -128 -164 -165 0
-117 -127 -129 -164 -165 0
-118 -127 -130 -164 -165 0
-92 -127 -93 -164 -165 0
-117 -128 -129 -164 -166 0
-118 -128 -130 -164 -166 0
-92 -128 -93 -164 -166 0
-118 -129 -130 -164 -167 0
-92 -129 -93 -164 -167 0
-92 -130 -93 -164 -168 0
-117 -128 -129 -165 -166 0
-118 -128 -130 -165 -166 0
-92 -128 -93 -165 -166 0
-118 -129 -130 -165 -167 0
-92 -129 -93 -165 -167 0
-92 -130 -93 -165 -168 0
-118 -129 -130 -166 -167 0
-92 -129 -93 -166 -167 0
-92 -130 -93 -166 -168 0
-92 -130 -93 -167 -168 0
-114 -125 -126 -169 -170 0
-115 -125 -127 -169 -170 0
-116 -125 -128 -169 -170 0
-117 -125 -129 -169 -170 0
-118 -125 -130 -169 -170 0
-92 -125 -93 -169 -170 0
-115 -126 -127 -169 -171 0
-116 -126 -128 -169 -171 0
-117 -126 -129 -169 -171 0
-118 -126 -130 -169 -171 0
-92 -126 -93 -169 -171 0
-116 -127 -128 -169 -172 0
-117 -127 -129 -169 -172 0
-118 -127 -130 -169 -172 0
-92 -127 -93 -169 -172 0
-117 -128 -129 -169 -173 0
-118 -128 -130 -169 -173 0
-92 -128 -93 -169 -173 0
-118 -129 -130 -169 -174 0
-92 -129 -93 -169 -174 0
-92 -130 -93 -169 -175 0
-115 -126 -127 -170 -171 0
-116 -126 -128 -170 -171 0
-117 -126 -129 -170 -171 0
-118 -126 -130 -170 -171 0
-92 -126 -93 -170 -171 0
-116 -127 -128 -170 -172 0
-117 -127 -129 -170 -172 0
-118 -127 -130 -170 -172 0
-92 -127 -93 -170 -172 0
-117 -128 -129 -170 -173 0
-118 -128 -130 -170 -173 0
-92 -128 -93 -170 -173 0
-118 -129 -130 -170 -174 0
-92 -129 -93 -170 -174 0
-92 -130 -93 -170 -175 0
-116 -127 -128 -171 -172 0
-117 -127 -129 -171 -172 0
-118 -127 -130 -171 -172 0
-92 -127 -93 -171 -172 0
-117 -128 -129 -171 -173 0
-118 -128 -130 -171 -173 0
-92 -128 -93 -171 -173 0
-118 -129 -130 -171 -174 0
-92 -129 -93 -171 -174 0
-92 -130 -93 -171 -175 0
-117 -128 -129 -172 -173 0
-118 -128 -130 -172 -173 0
-92 -128 -93 -172 -173 0
-118 -129 -130 -172 -174 0
-92 -129 -93 -172 -174 0
-92 -130 -93 -172 -175 0
-118 -129 -130 -173 -174 0
-92 -129 -93 -173 -174 0
-92 -130 -93 -173 -175 0
-92 -130 -93 -174 -175 0
-115 -126 -127 -176 -177 0
-116 -126 -128 -176 -177 0
-117 -126 -129 -176 -177 0
-118 -126 -130 -176 -177 0
-92 -126 -93 -176 -177 0
-116 -127 -128 -176 -178 0
-117 -127 -129 -176 -178 0
-118 -127 -130 -176 -178 0
-92 -127 -93 -176 -178 0
-117 -128 -129 -176 -179 0
-118 -128 -130 -176 -179 0
-92 -128 -93 -176 -179 0
-118 -129 -130 -176 -180 0
-92 -129 -93 -176 -180 0
-92 -130 -93 -176 -181 0
-116 -127 -128 -177 -178 0
-117 -127 -129 -177 -178 0
-118 -127 -130 -177 -178 0
-92 -127 -93 -177 -178 0
-117 -128 -129 -177 -179 0
-118 -128 -130 -177 -179 0
-92 -128 -93 -177 -179 0
-118 -129 -130 -177 -180 0
-92 -129 -93 -177 -180 0
-92 -130 -93 -177 -181 0
-117 -128 -129 -178 -179 0
-118 -128 -130 -178 -179 0
-92 -128 -93 -178 -179 0
-118 -129 -130 -178 -180 0
-92 -129 -93 -178 -180 0
-92 -130 -93 -178 -181 0
-118 -129 -130 -179 -180 0
-92 -129 -93 -179 -180 0
-92 -130 -93 -179 -181 0
-92 -130 -93 -180 -181 0
-116 -127 -128 -182 -183 0
-117 -127 -129 -182 -183 0
-118 -127 -130 -182 -183 0
-92 -127 -93 -182 -183 0
-117 -128 -129 -182 -184 0
-118 -128 -130 -182 -184 0
-92 -128 -93 -182 -184 0
-118 -129 -130 -182 -185 0
-92 -129 -93 -182 -185 0
-92 -130 -93 -182 -186 0
-117 -128 -129 -183 -184 0
-118 -128 -130 -183 -184 0
-92 -128 -93 -183 -184 0
-118 -129 -130 -183 -185 0
-92 -129 -93 -183 -185 0
-92 -130 -93 -183 -186 0
-118 -129 -130 -184 -185 0
-92 -129 -93 -184 -185 0
-92 -130 -93 -184 -186 0
-92 -130 -93 -185 -186 0
-117 -128 -129 -187 -188 0
-118 -128 -130 -187 -188 0
-92 -128 -93 -187 -188 0
-118 -129 -130 -187 -189 0
-92 -129 -93 -187 -189 0
-92 -130 -93 -187 -190 0
-118 -129 -130 -188 -189 0
-92 -129 -93 -188 -189 0
-92 -130 -93 -188 -190 0
-92 -130 -93 -189 -190 0
-118 -129 -130 -191 -192 0
-92 -129 -93 -191 -192 0
-92 -130 -93 -191 -193 0
-92 -130 -93 -192 -193 0
-92 -130 -93 -194 -195 0
-111 -133 -134 -142 -143 0
-112 -133 -135 -142 -143 0
-113 -133 -136 -142 -143 0
-114 -133 -137 -142 -143 0
-115 -133 -138 -142 -143 0
-116 -133 -139 -142 -143 0
-117 -133 -140 -142 -143 0
-118 -133 -141 -142 -143 0
-92 -133 -94 -142 -143 0
-112 -134 -135 -142 -144 0
-113 -134 -136 -142 -144 0
-114 -134 -137 -142 -144 0
-115 -134 -138 -142 -144 0
-116 -134 -139 -142 -144 0
-117 -134 -140 -142 -144 0
-118 -134 -141 -142 -144 0
-92 -134 -94 -142 -144 0
-113 -135 -136 -142 -145 0
-114 -135 -137 -142 -145 0
-115 -135 -138 -142 -145 0
-116 -135 -139 -142 -145 0
-117 -135 -140 -142 -145 0
-118 -135 -141 -142 -145 0
-92 -135 -94 -142 -145 0
-114 -136 -137 -142 -146 0
-115 -136 -138 -142 -146 0
-116 -136 -139 -142 -146 0
-117 -136 -140 -142 -146 0
-118 -136 -141 -142 -146 0
-92 -136 -94 -142 -146 0
-115 -137 -138 -142 -147 0
-116 -137 -139 -142 -147 0
-117 -137 -140 -142 -147 0
-118 -137 -141 -142 -147 0
-92 -137 -94 -142 -147 0
-116 -138 -139 -142 -148 0
-117 -138 -140 -142 -148 0
-118 -138 -141 -142 -148 0
-92 -138 -94 -142 -148 0
-117 -139 -140 -142 -149 0
-118 -139 -141 -142 -149 0
-92 -139 -94 -142 -149 0
-118 -140 -141 -142 -150 0
-92 -140 -94 -142 -150 0
-92 -141 -94 -142 -151 0
-112 -134 -135 -143 -144 0
-113 -134 -136 -143 -144 0
-114 -134 -137 -143 -144 0
-115 -134 -138 -143 -144 0
-116 -134 -139 -143 -144 0
-117 -134 -140 -143 -144 0
-118 -134 -141 -143 -144 0
-92 -134 -94 -143 -144 0
-113 -135 -136 -143 -145 0
-114 -135 -137 -143 -145 0
-115 -135 -138 -143 -145 0
-116 -135 -139 -143 -145 0
-117 -135 -140 -143 -145 0
-118 -135 -141 -143 -145 0
-92 -135 -94 -143 -145 0
-114 -136 -137 -143 -146 0
-115 -136 -138 -143 -146 0
-116 -136 -139 -143 -146 0
-117 -136 -140 -143 -146 0
-118 -136 -141 -143 -146 0
-92 -136 -94 -143 -146 0
-115 -137 -138 -143 -147 0
-116 -137 -139 -143 -147 0
-117 -137 -140 -143 -147 0
-118 -137 -141 -143 -147 0
-92 -137 -94 -143 -147 0
-116 -138 -139 -143 -148 0
-117 -138 -140 -143 -148 0
-118 -138 -141 -143 -148 0
-92 -138 -94 -143 -148 0
-117 -139 -140 -143 -149 0
-118 -139 -141 -143 -149 0
-92 -139 -94 -143 -149 0
-118 -140 -141 -143 -150 0
-92 -140 -94 -143 -150 0
-92 -141 -94 -143 -151 0
-113 -135 -136 -144 -145 0
-114 -135 -137 -144 -145 0
-115 -135 -138 -144 -145 0
-116 -135 -139 -144 -145 0
-117 -135 -140 -144 -145 0
-118 -135 -141 -144 -145 0
-92 -135 -94 -144 -145 0
-114 -136 -137 -144 -146 0
-115 -136 -138 -144 -146 0
-116 -136 -139 -144 -146 0
-117 -136 -140 -144 -146 0
-118 -136 -141 -144 -146 0
-92 -136 -94 -144 -146 0
-115 -137 -138 -144 -147 0
-116 -137 -139 -144 -147 0
-117 -137 -140 -144 -147 0
-118 -137 -141 -144 -147 0
-92 -137 -94 -144 -147 0
-116 -138 -139 -144 -148 0
-117 -138 -140 -144 -148 0
-118 -138 -141 -144 -148 0
-92 -138 -94 -144 -148 0
-117 -139 -140 -144 -149 0
-118 -139 -141 -144 -149 0
-92 -139 -94 -144 -149 0
-118 -140 -141 -144 -150 0
-92 -140 -94 -144 -150 0
-92 -141 -94 -144 -151 0
-114 -136 -137 -145 -146 0
-115 -136 -138 -145 -146 0
-116 -136 -139 -145 -146 0
-117 -136 -140 -145 -146 0
-118 -136 -141 -145 -146 0
-92 -136 -94 -145 -146 0
-115 -137 -138 -145 -147 0
-116 -137 -139 -145 -147 0
-117 -137 -140 -145 -147 0
-118 -137 -141 -145 -147 0
-92 -137 -94 -145 -147 0
-116 -138 -139 -145 -148 0
-117 -138 -140 -145 -148 0
-118 -138 -141 -145 -148 0
-92 -138 -94 -145 -148 0
-117 -139 -140 -145 -149 0
-118 -139 -141 -145 -149 0
-92 -139 -94 -145 -149 0
-118 -140 -141 -145 -150 0
-92 -140 -94 -145 -150 0
-92 -141 -94 -145 -151 0
-115 -137 -138 -146 -147 0
-116 -137 -139 -146 -147 0
-117 -137 -140 -146 -147 0
-118 -137 -141 -146 -147 0
-92 -137 -94 -146 -147 0
-116 -138 -139 -146 -148 0
-117 -138 -140 -146 -148 0
-118 -138 -141 -146 -148 0
-92 -138 -94 -146 -148 0
-117 -139 -140 -146 -149 0
-118 -139 -141 -146 -149 0
-92 -139 -94 -146 -149 0
-118 -140 -141 -146 -150 0
-92 -140 -94 -146 -150 0
-92 -141 -94 -146 -151 0
-116 -138 -139 -147 -148 0
-117 -138 -140 -147 -148 0
-118 -138 -141 -147 -148 0
-92 -138 -94 -147 -148 0
-117 -139 -140 -147 -149 0
-118 -139 -141 -147 -149 0
-92 -139 -94 -147 -149 0
-118 -140 -141 -147 -150 0
-92 -140 -94 -147 -150 0
-92 -141 -94 -147 -151 0
-117 -139 -140 -148 -149 0
-118 -139 -141 -148 -149 0
-92 -139 -94 -148 -149 0
-118 -140 -141 -148 -150 0
-92 -140 -94 -148 -150 0
-92 -141 -94 -148 -151 0
-118 -140 -141 -149 -150 0
-92 -140 -94 -149 -150 0
-92 -141 -94 -149 -151 0
-92 -141 -94 -150 -151 0
-112 -134 -135 -152 -153 0
-113 -134 -136 -152 -153 0
-114 -134 -137 -152 -153 0
-115 -134 -138 -152 -153 0
-116 -134 -139 -152 -153 0
-117 -134 -140 -152 -153 0
-118 -134 -141 -152 -153 0
-92 -134 -94 -152 -153 0
-113 -135 -136 -152 -154 0
-114 -135 -137 -152 -154 0
-115 -135 -138 -152 -154 0
-116 -135 -139 -152 -154 0
-117 -135 -140 -152 -154 0
-118 -135 -141 -152 -154 0
-92 -135 -94 -152 -154 0
-114 -136 -137 -152 -155 0
-115 -136 -138 -152 -155 0
-116 -136 -139 -152 -155 0
-117 -136 -140 -152 -155 0
-118 -136 -141 -152 -155 0
-92 -136 -94 -152 -155 0
-115 -137 -138 -152 -156 0
-116 -137 -139 -152 -156 0
-117 -137 -140 -152 -156 0
-118 -137 -141 -152 -156 0
-92 -137 -94 -152 -156 0
-116 -138 -139 -152 -157 0
-117 -138 -140 -152 -157 0
-118 -138 -141 -152 -157 0
-92 -138 -94 -152 -157 0
-117 -139 -140 -152 -158 0
-118 -139 -141 -152 -158 0
-92 -139 -94 -152 -158 0
-118 -140 -141 -152 -159 0
-92 -140 -94 -152 -159 0
-92 -141 -94 -152 -160 0
-113 -135 -136 -153 -154 0
-114 -135 -137 -153 -154 0
-115 -135 -138 -153 -154 0
-116 -135 -139 -153 -154 0
-117 -135 -140 -153 -154 0
-118 -135 -141 -153 -154 0
-92 -135 -94 -153 -154 0
-114 -136 -137 -153 -155 0
-115 -136 -138 -153 -155 0
-116 -136 -139 -153 -155 0
-117 -136 -140 -153 -155 0
-118 -136 -141 -153 -155 0
-92 -136 -94 -153 -155 0
-115 -137 -138 -153 -156 0
-116 -137 -139 -153 -156 0
-117 -137 -140 -153 -156 0
-118 -137 -141 -153 -156 0
-92 -137 -94 -153 -156 0
-116 -138 -139 -153 -157 0
-117 -138 -140 -153 -157 0
-118 -138 -141 -153 -157 0
-92 -138 -94 -153 -157 0
-117 -139 -140 -153 -158 0
-118 -139 -141 -153 -158 0
-92 -139 -94 -153 -158 0
-118 -140 -141 -153 -159 0
-92 -140 -94 -153 -159 0
-92 -141 -94 -153 -160 0
-114 -136 -137 -154 -155 0
-115 -136 -138 -154 -155 0
-116 -136 -139 -154 -155 0
-117 -136 -140 -154 -155 0
-118 -136 -141 -154 -155 0
-92 -136 -94 -154 -155 0
-115 -137 -138 -154 -156 0
-116 -137 -139 -154 -156 0
-117 -137 -140 -154 -156 0
-118 -137 -141 -154 -156 0
-92 -137 -94 -154 -156 0
-116 -138 -139 -154 -157 0
-117 -138 -140 -154 -157 0
-118 -138 -141 -154 -157 0
-92 -138 -94 -154 -157 0
-117 -139 -140 -154 -158 0
-118 -139 -141 -154 -158 0
-92 -139 -94 -154 -158 0
-118 -140 -141 -154 -159 0
-92 -140 -94 -154 -159 0
-92 -141 -94 -154 -160 0
-115 -137 -138 -155 -156 0
-116 -137 -139 -155 -156 0
-117 -137 -140 -155 -156 0
-118 -137 -141 -155 -156 0
-92 -137 -94 -155 -156 0
-116 -138 -139 -155 -157 0
-117 -138 -140 -155 -157 0
-118 -138 -141 -155 -157 0
-92 -138 -94 -155 -157 0
-117 -139 -140 -155 -158 0
-118 -139 -141 -155 -158 0
-92 -139 -94 -155 -158 0
-118 -140 -141 -155 -159 0
-92 -140 -94 -155 -159 0
-92 -141 -94 -155 -160 0
-116 -138 -139 -156 -157 0
-117 -138 -140 -156 -157 0
-118 -138 -141 -156 -157 0
-92 -138 -94 -156 -157 0
-117 -139 -140 -156 -158 0
-118 -139 -141 -156 -158 0
-92 -139 -94 -156 -158 0
-118 -140 -141 -156 -159 0
-92 -140 -94 -156 -159 0
-92 -141 -94 -156 -160 0
-117 -139 -140 -157 -158 0
-118 -139 -141 -157 -158 0
-92 -139 -94 -157 -158 0
-118 -140 -141 -157 -159 0
-92 -140 -94 -157 -159 0
-92 -141 -94 -157 -160 0
-118 -140 -141 -158 -159 0
-92 -140 -94 -158 -159 0
-92 -141 -94 -158 -160 0
-92 -141 -94 -159 -160 0
-113 -135 -136 -161 -162 0
-114 -135 -137 -161 -162 0
-115 -135 -138 -161 -162 0
-116 -135 -139 -161 -162 0
-117 -135 -140 -161 -162 0
-118 -135 -141 -161 -162 0
-92 -135 -94 -161 -162 0
-114 -136 -137 -161 -163 0
-115 -136 -138 -161 -163 0
-116 -136 -139 -161 -163 0
-117 -136 -140 -161 -163 0
-118 -136 -141 -161 -163 0
-92 -136 -94 -161 -163 0
-115 -137 -138 -161 -164 0
-116 -137 -139 -161 -164 0
-117 -137 -140 -161 -164 0
-118 -137 -141 -161 -164 0
-92 -137 -94 -161 -164 0
-116 -138 -139 -161 -165 0
-117 -138 -140 -161 -165 0
-118 -138 -141 -161 -165 0
-92 -138 -94 -161 -165 0
-117 -139 -140 -161 -166 0
-118 -139 -141 -161 -166 0
-92 -139 -94 -161 -166 0
-118 -140 -141 -161 -167 0
-92 -140 -94 -161 -167 0
-92 -141 -94 -161 -168 0
-114 -136 -137 -162 -163 0
-115 -136 -138 -162 -163 0
-116 -136 -139 -162 -163 0
-117 -136 -140 -162 -163 0
-118 -136 -141 -162 -163 0
-92 -136 -94 -162 -163 0
-115 -137 -138 -162 -164 0
-116 -137 -139 -162 -164 0
-117 -137 -140 -162 -164 0
-118 -137 -141 -162 -164 0
-92 -137 -94 -162 -164 0
-116 -138 -139 -162 -165 0
-117 -138 -140 -162 -165 0
-118 -138 -141 -162 -165 0
-92 -138 -94 -162 -165 0
-117 -139 -140 -162 -166 0
-118 -139 -141 -162 -166 0
-92 -139 -94 -162 -166 0
-118 -140 -141 -162 -167 0
-92 -140 -94 -162 -167 0
-92 -141 -94 -162 -168 0
-115 -137 -138 -163 -164 0
-116 -137 -139 -163 -164 0
-117 -137 -140 -163 -164 0
-118 -137 -141 -163 -164 0
-92 -137 -94 -163 -164 0
-116 -138 -139 -163 -165 0
-117 -138 -140 -163 -165 0
-118 -138 -141 -163 -165 0
-92 -138 -94 -163 -165 0
-117 -139 -140 -163 -166 0
-118 -139 -141 -163 -166 0
-92 -139 -94 -163 -166 0
-118 -140 -141 -163 -167 0
-92 -140 -94 -163 -167 0
-92 -141 -94 -163 -168 0
-116 -138 -139 -164 -165 0
-117 -138 -140 -164 -165 0
-118 -138 -141 -164 -165 0
-92 -138 -94 -164 -165 0
-117 -139 -140 -164 -166 0
-118 -139 -141 -164 -166 0
-92 -139 -94 -164 -166 0
-118 -140 -141 -164 -167 0
-92 -140 -94 -164 -167 0
-92 -141 -94 -164 -168 0
-117 -139 -140 -165 -166 0
-118 -139 -141 -165 -166 0
-92 -139 -94 -165 -166 0
-118 -140 -141 -165 -167 0
-92 -140 -94 -165 -167 0
-92 -141 -94 -165 -168 0
-118 -140 -141 -166 -167 0
-92 -140 -94 -166 -167 0
-92 -141 -94 -166 -168 0
-92 -141 -94 -167 -168 0
-114 -136 -137 -169 -170 0
-115 -136 -138 -169 -170 0
-116 -136 -139 -169 -170 0
-117 -136 -140 -169 -170 0
-118 -136 -141 -169 -170 0
-92 -136 -94 -169 -170 0
-115 -137 -138 -169 -171 0
-116 -137 -139 -169 -171 0
-117 -137 -140 -169 -171 0
-118 -137 -141 -169 -171 0
-92 -137 -94 -169 -171 0
-116 -138 -139 -169 -172 0
-117 -138 -140 -169 -172 0
-118 -138 -141 -169 -172 0
-92 -138 -94 -169 -172 0
-117 -139 -140 -169 -173 0
-118 -139 -141 -169 -173 0
-92 -139 -94 -169 -173 0
-118 -140 -141 -169 -174 0
-92 -140 -94 -169 -174 0
-92 -141 -94 -169 -175 0
-115 -137 -138 -170 -171 0
-116 -137 -139 -170 -171 0
-117 -137 -140 -170 -171 0
-118 -137 -141 -170 -171 0
-92 -137 -94 -170 -171 0
-116 -138 -139 -170 -172 0
-117 -138 -140 -170 -172 0
-118 -138 -141 -170 -172 0
-92 -138 -94 -170 -172 0
-117 -139 -140 -170 -173 0
-118 -139 -141 -170 -173 0
-92 -139 -94 -170 -173 0
-118 -140 -141 -170 -174 0
-92 -140 -94 -170 -174 0
-92 -141 -94 -170 -175 0
-116 -138 -139 -171 -172 0
-117 -138 -140 -171 -172 0
-118 -138 -141 -171 -172 0
-92 -138 -94 -171 -172 0
-117 -139 -140 -171 -173 0
-118 -139 -141 -171 -173 0
-92 -139 -94 -171 -173 0
-118 -140 -141 -171 -174 0
-92 -140 -94 -171 -174 0
-92 -141 -94 -171 -175 0
-117 -139 -140 -172 -173 0
-118 -139 -141 -172 -173 0
-92 -139 -94 -172 -173 0
-118 -140 -141 -172 -174 0
-92 -140 -94 -172 -174 0
-92 -141 -94 -172 -175 0
-118 -140 -141 -173 -174 0
-92 -140 -94 -173 -174 0
-92 -141 -94 -173 -175 0
-92 -141 -94 -174 -175 0
-115 -137 -138 -176 -177 0
-116 -137 -139 -176 -177 0
-117 -137 -140 -176 -177 0
-118 -137 -141 -176 -177 0
-92 -137 -94 -176 -177 0
-116 -138 -139 -176 -178 0
-117 -138 -140 -176 -178 0
-118 -138 -141 -176 -178 0
-92 -138 -94 -176 -178 0
-117 -139 -140 -176 -179 0
-118 -139 -141 -176 -179 0
-92 -139 -94 -176 -179 0
-118 -140 -141 -176 -180 0
-92 -140 -94 -176 -180 0
-92 -141 -94 -176 -181 0
-116 -138 -139 -177 -178 0
-117 -138 -140 -177 -178 0
-118 -138 -141 -177 -178 0
-92 -138 -94 -177 -178 0
-117 -139 -140 -177 -179 0
-118 -139 -141 -177 -179 0
-92 -139 -94 -177 -179 0
-118 -140 -141 -177 -180 0
-92 -140 -94 -177 -180 0
-92 -141 -94 -177 -181 0
-117 -139 -140 -178 -179 0
-118 -139 -141 -178 -179 0
-92 -139 -94 -178 -179 0
-118 -140 -141 -178 -180 0
-92 -140 -94 -178 -180 0
-92 -141 -94 -178 -181 0
-118 -140 -141 -179 -180 0
-92 -140 -94 -179 -180 0
-92 -141 -94 -179 -181 0
-92 -141 -94 -180 -181 0
-116 -138 -139 -182 -183 0
-117 -138 -140 -182 -183 0
-118 -138 -141 -182 -183 0
-92 -138 -94 -182 -183 0
-117 -139 -140 -182 -184 0
-118 -139 -141 -182 -184 0
-92 -139 -94 -182 -184 0
-118 -140 -141 -182 -185 0
-92 -140 -94 -182 -185 0
-92 -141 -94 -182 -186 0
-117 -139 -140 -183 -184 0
-118 -139 -141 -183 -184 0
-92 -139 -94 -183 -184 0
-118 -140 -141 -183 -185 0
-92 -140 -94 -183 -185 0
-92 -141 -94 -183 -186 0
-118 -140 -141 -184 -185 0
-92 -140 -94 -184 -185 0
-92 -141 -94 -184 -186 0
-92 -141 -94 -185 -186 0
-117 -139 -140 -187 -188 0
-118 -139 -141 -187 -188 0
-92 -139 -94 -187 -188 0
-118 -140 -141 -187 -189 0
-92 -140 -94 -187 -189 0
-92 -141 -94 -187 -190 0
-118 -140 -141 -188 -189 0
-92 -140 -94 -188 -189 0
-92 -141 -94 -188 -190 0
-92 -141 -94 -189 -190 0
-118 -140 -141 -191 -192 0
-92 -140 -94 -191 -192 0
-92 -141 -94 -191 -193 0
-92 -141 -94 -192 -193 0
-92 -141 -94 -194 -195 0
-112 -144 -145 -152 -153 0
-113 -144 -146 -152 -153 0
-114 -144 -147 -152 -153 0
-115 -144 -148 -152 -153 0
-116 -144 -149 -152 -153 0
-117 -144 -150 -152 -153 0
-118 -144 -151 -152 -153 0
-92 -144 -95 -152 -153 0
-113 -145 -146 -152 -154 0
-114 -145 -147 -152 -154 0
-115 -145 -148 -152 -154 0
-116 -145 -149 -152 -154 0
-117 -145 -150 -152 -154 0
-118 -145 -151 -152 -154 0
-92 -145 -95 -152 -154 0
-114 -146 -147 -152 -155 0
-115 -146 -148 -152 -155 0
-116 -146 -149 -152 -155 0
-117 -146 -150 -152 -155 0
-118 -146 -151 -152 -155 0
-92 -146 -95 -152 -155 0
-115 -147 -148 -152 -156 0
-116 -147 -149 -152 -156 0
-117 -147 -150 -152 -156 0
-118 -147 -151 -152 -156 0
-92 -147 -95 -152 -156 0
-116 -148 -149 -152 -157 0
-117 -148 -150 -152 -157 0
-118 -148 -151 -152 -157 0
-92 -148 -95 -152 -157 0
-117 -149 -150 -152 -158 0
-118 -149 -151 -152 -158 0
-92 -149 -95 -152 -158 0
-118 -150 -151 -152 -159 0
-92 -150 -95 -152 -159 0
-92 -151 -95 -152 -160 0
-113 -145 -146 -153 -154 0
-114 -145 -147 -153 -154 0
-115 -145 -148 -153 -154 0
-116 -145 -149 -153 -154 0
-117 -145 -150 -153 -154 0
-118 -145 -151 -153 -154 0
-92 -145 -95 -153 -154 0
-114 -146 -147 -153 -155 0
-115 -146 -148 -153 -155 0
-116 -146 -149 -153 -155 0
-117 -146 -150 -153 -155 0
-118 -146 -151 -153 -155 0
-92 -146 -95 -153 -155 0
-115 -147 -148 -153 -156 0
-116 -147 -149 -153 -156 0
-117 -147 -150 -153 -156 0
-118 -147 -151 -153 -156 0
-92 -147 -95 -153 -156 0
-116 -148 -149 -153 -157 0
-117 -148 -150 -153 -157 0
-118 -148 -151 -153 -157 0
-92 -148 -95 -153 -157 0
-117 -149 -150 -153 -158 0
-118 -149 -151 -153 -158 0
-92 -149 -95 -153 -158 0
-118 -150 -151 -153 -159 0
-92 -150 -95 -153 -159 0
-92 -151 -95 -153 -160 0
-114 -146 -147 -154 -155 0
-115 -146 -148 -154 -155 0
-116 -146 -149 -154 -155 0
-117 -146 -150 -154 -155 0
-118 -146 -151 -154 -155 0
-92 -146 -95 -154 -155 0
-115 -147 -148 -154 -156 0
-116 -147 -149 -154 -156 0
-117 -147 -150 -154 -156 0
-118 -147 -151 -154 -156 0
-92 -147 -95 -154 -156 0
-116 -148 -149 -154 -157 0
-117 -148 -150 -154 -157 0
-118 -148 -151 -154 -157 0
-92 -148 -95 -154 -157 0
-117 -149 -150 -154 -158 0
-118 -149 -151 -154 -158 0
-92 -149 -95 -154 -158 0
-118 -150 -151 -154 -159 0
-92 -150 -95 -154 -159 0
-92 -151 -95 -154 -160 0
-115 -147 -148 -155 -156 0
-116 -147 -149 -155 -156 0
-117 -147 -150 -155 -156 0
-118 -147 -151 -155 -156 0
-92 -147 -95 -155 -156 0
-116 -148 -149 -155 -157 0
-117 -148 -150 -155 -157 0
-118 -148 -151 -155 -157 0
-92 -148 -95 -155 -157 0
-117 -149 -150 -155 -158 0
-118 -149 -151 -155 -158 0
-92 -149 -95 -155 -158 0
-118 -150 -151 -155 -159 0
-92 -150 -95 -155 -159 0
-92 -151 -95 -155 -160 0
-116 -148 -149 -156 -157 0
-117 -148 -150 -156 -157 0
-118 -148 -151 -156 -157 0
-92 -148 -95 -156 -157 0
-117 -149 -150 -156 -158 0
-118 -149 -151 -156 -158 0
-92 -149 -95 -156 -158 0
-118 -150 -151 -156 -159 0
-92 -150 -95 -156 -159 0
-92 -151 -95 -156 -160 0
-117 -149 -150 -157 -158 0
-118 -149 -151 -157 -158 0
-92 -149 -95 -157 -158 0
-118 -150 -151 -157 -159 0
-92 -150 -95 -157 -159 0
-92 -151 -95 -157 -160 0
-118 -150 -151 -158 -159 0
-92 -150 -95 -158 -159 0
-92 -151 -95 -158 -160 0
-92 -151 -95 -159 -160 0
-113 -145 -146 -161 -162 0
-114 -145 -147 -161 -162 0
-115 -145 -148 -161 -162 0
-116 -145 -149 -161 -162 0
-117 -145 -150 -161 -162 0
-118 -145 -151 -161 -162 0
-92 -145 -95 -161 -162 0
-114 -146 -147 -161 -163 0
-115 -146 -148 -161 -163 0
-116 -146 -149 -161 -163 0
-117 -146 -150 -161 -163 0
-118 -146 -151 -161 -163 0
-92 -146 -95 -161 -163 0
-115 -147 -148 -161 -164 0
-116 -147 -149 -161 -164 0
-117 -147 -150 -161 -164 0
-118 -147 -151 -161 -164 0
-92 -147 -95 -161 -164 0
-116 -148 -149 -161 -165 0
-117 -148 -150 -161 -165 0
-118 -148 -151 -161 -165 0
-92 -148 -95 -161 -165 0
-117 -149 -150 -161 -166 0
-118 -149 -151 -161 -166 0
-92 -149 -95 -161 -166 0
-118 -150 -151 -161 -167 0
-92 -150 -95 -161 -167 0
-92 -151 -95 -161 -168 0
-114 -146 -147 -162 -163 0
-115 -146 -148 -162 -163 0
-116 -146 -149 -162 -163 0
-117 -146 -150 -162 -163 0
-118 -146 -151 -162 -163 0
-92 -146 -95 -162 -163 0
-115 -147 -148 -162 -164 0
-116 -147 -149 -162 -164 0
-117 -147 -150 -162 -164 0
-118 -147 -151 -162 -164 0
-92 -147 -95 -162 -164 0
-116 -148 -149 -162 -165 0
-117 -148 -150 -162 -165 0
-118 -148 -151 -162 -165 0
-92 -148 -95 -162 -165 0
-117 -149 -150 -162 -166 0
-118 -149 -151 -162 -166 0
-92 -149 -95 -162 -166 0
-118 -150 -151 -162 -167 0
-92 -150 -95 -162 -167 0
-92 -151 -95 -162 -168 0
-115 -147 -148 -163 -164 0
-116 -147 -149 -163 -164 0
-117 -147 -150 -163 -164 0
-118 -147 -151 -163 -164 0
-92 -147 -95 -163 -164 0
-116 -148 -149 -163 -165 0
-117 -148 -150 -163 -165 0
-118 -148 -151 -163 -165 0
-92 -148 -95 -163 -165 0
-117 -149 -150 -163 -166 0
-118 -149 -151 -163 -166 0
-92 -149 -95 -163 -166 0
-118 -150 -151 -163 -167 0
-92 -150 -95 -163 -167 0
-92 -151 -95 -163 -168 0
-116 -148 -149 -164 -165 0
-117 -148 -150 -164 -165 0
-118 -148 -151 -164 -165 0
-92 -148 -95 -164 -165 0
-117 -149 -150 -164 -166 0
-118 -149 -151 -164 -166 0
-92 -149 -95 -164 -166 0
-118 -150 -151 -164 -167 0
-92 -150 -95 -164 -167 0
-92 -151 -95 -164 -168 0
-117 -149 -150 -165 -166 0
-118 -149 -151 -165 -166 0
-92 -149 -95 -165 -166 0
-118 -150 -151 -165 -167 0
-92 -150 -95 -165 -167 0
-92 -151 -95 -165 -168 0
-118 -150 -151 -166 -167 0
-92 -150 -95 -166 -167 0
-92 -151 -95 -166 -168 0
-92 -151 -95 -167 -168 0
-114 -146 -147 -169 -170 0
-115 -146 -148 -169 -170 0
-116 -146 -149 -169 -170 0
-117 -146 -150 -169 -170 0
-118 -146 -151 -169 -170 0
-92 -146 -95 -169 -170 0
-115 -147 -148 -169 -171 0
-116 -147 -149 -169 -171 0
-117 -147 -150 -169 -171 0
-118 -147 -151 -169 -171 0
-92 -147 -95 -169 -171 0
-116 -148 -149 -169 -172 0
-117 -148 -150 -169 -172 0
-118 -148 -151 -169 -172 0
-92 -148 -95 -169 -172 0
-117 -149 -150 -169 -173 0
-118 -149 -151 -169 -173 0
-92 -149 -95 -169 -173 0
-118 -150 -151 -169 -174 0
-92 -150 -95 -169 -174 0
-92 -151 -95 -169 -175 0
-115 -147 -148 -170 -171 0
-116 -147 -149 -170 -171 0
-117 -147 -150 -170 -171 0
-118 -147 -151 -170 -171 0
-92 -147 -95 -170 -171 0
-116 -148 -149 -170 -172 0
-117 -148 -150 -170 -172 0
-118 -148 -151 -170 -172 0
-92 -148 -95 -170 -172 0
-117 -149 -150 -170 -173 0
-118 -149 -151 -170 -173 0
-92 -149 -95 -170 -173 0
-118 -150 -151 -170 -174 0
-92 -150 -95 -170 -174 0
-92 -151 -95 -170 -175 0
-116 -148 -149 -171 -172 0
-117 -148 -150 -171 -172 0
-118 -148 -151 -171 -172 0
-92 -148 -95 -171 -172 0
-117 -149 -150 -171 -173 0
-118 -149 -151 -171 -173 0
-92 -149 -95 -171 -173 0
-118 -150 -151 -171 -174 0
-92 -150 -95 -171 -174 0
-92 -151 -95 -171 -175 0
-117 -149 -150 -172 -173 0
-118 -149 -151 -172 -173 0
-92 -149 -95 -172 -173 0
-118 -150 -151 -172 -174 0
-92 -150 -95 -172 -174 0
-92 -151 -95 -172 -175 0
-118 -150 -151 -173 -174 0
-92 -150 -95 -173 -174 0
-92 -151 -95 -173 -175 0
-92 -151 -95 -174 -175 0
-115 -147 -148 -176 -177 0
-116 -147 -149 -176 -177 0
-117 -147 -150 -176 -177 0
-118 -147 -151 -176 -177 0
-92 -147 -95 -176 -177 0
-116 -148 -149 -176 -178 0
-117 -148 -150 -176 -178 0
-118 -148 -151 -176 -178 0
-92 -148 -95 -176 -178 0
-117 -149 -150 -176 -179 0
-118 -149 -151 -176 -179 0
-92 -149 -95 -176 -179 0
-118 -150 -151 -176 -180 0
-92 -150 -95 -176 -180 0
-92 -151 -95 -176 -181 0
-116 -148 -149 -177 -178 0
-117 -148 -150 -177 -178 0
-118 -148 -151 -177 -178 0
-92 -148 -95 -177 -178 0
-117 -149 -150 -177 -179 0
-118 -149 -151 -177 -179 0
-92 -149 -95 -177 -179 0
-118 -150 -151 -177 -180 0
-92 -150 -95 -177 -180 0
-92 -151 -95 -177 -181 0
-117 -149 -150 -178 -179 0
-118 -149 -151 -178 -179 0
-92 -149 -95 -178 -179 0
-118 -150 -151 -178 -180 0
-92 -150 -95 -178 -180 0
-92 -151 -95 -178 -181 0
-118 -150 -151 -179 -180 0
-92 -150 -95 -179 -180 0
-92 -151 -95 -179 -181 0
-92 -151 -95 -180 -181 0
-116 -148 -149 -182 -183 0
-117 -148 -150 -182 -183 0
-118 -148 -151 -182 -183 0
-92 -148 -95 -182 -183 0
-117 -149 -150 -182 -184 0
-118 -149 -151 -182 -184 0
-92 -149 -95 -182 -184 0
-118 -150 -151 -182 -185 0
-92 -150 -95 -182 -185 0
-92 -151 -95 -182 -186 0
-117 -149 -150 -183 -184 0
-118 -149 -151 -183 -184 0
-92 -149 -95 -183 -184 0
-118 -150 -151 -183 -185 0
-92 -150 -95 -183 -185 0
-92 -151 -95 -183 -186 0
-118 -150 -151 -184 -185 0
-92 -150 -95 -184 -185 0
-92 -151 -95 -184 -186 0
-92 -151 -95 -185 -186 0
-117 -149 -150 -187 -188 0
-118 -149 -151 -187 -188 0
-92 -149 -95 -187 -188 0
-118 -150 -151 -187 -189 0
-92 -150 -95 -187 -189 0
-92 -151 -95 -187 -190 0
-118 -150 -151 -188 -189 0
-92 -150 -95 -188 -189 0
-92 -151 -95 -188 -190 0
-92 -151 -95 -189 -190 0
-118 -150 -151 -191 -192 0
-92 -150 -95 -191 -192 0
-92 -151 -95 -191 -193 0
-92 -151 -95 -192 -193 0
-92 -151 -95 -194 -195 0
-113 -154 -155 -161 -162 0
-114 -154 -156 -161 -162 0
-115 -154 -157 -161 -162 0
-116 -154 -158 -161 -162 0
-117 -154 -159 -161 -162 0
-118 -154 -160 -161 -162 0
-92 -154 -96 -161 -162 0
-114 -155 -156 -161 -163 0
-115 -155 -157 -161 -163 0
-116 -155 -158 -161 -163 0
-117 -155 -159 -161 -163 0
-118 -155 -160 -161 -163 0
-92 -155 -96 -161 -163 0
-115 -156 -157 -161 -164 0
-116 -156 -158 -161 -164 0
-117 -156 -159 -161 -164 0
-118 -156 -160 -161 -164 0
-92 -156 -96 -161 -164 0
-116 -157 -158 -161 -165 0
-117 -157 -159 -161 -165 0
-118 -157 -160 -161 -165 0
-92 -157 -96 -161 -165 0
-117 -158 -159 -161 -166 0
-118 -158 -160 -161 -166 0
-92 -158 -96 -161 -166 0
-118 -159 -160 -161 -167 0
-92 -159 -96 -161 -167 0
-92 -160 -96 -161 -168 0
-114 -155 -156 -162 -163 0
-115 -155 -157 -162 -163 0
-116 -155 -158 -162 -163 0
-117 -155 -159 -162 -163 0
-118 -155 -160 -162 -163 0
-92 -155 -96 -162 -163 0
-115 -156 -157 -162 -164 0
-116 -156 -158 -162 -164 0
-117 -156 -159 -162 -164 0
-118 -156 -160 -162 -164 0
-92 -156 -96 -162 -164 0
-116 -157 -158 -162 -165 0
-117 -157 -159 -162 -165 0
-118 -157 -160 -162 -165 0
-92 -157 -96 -162 -165 0
-117 -158 -159 -162 -166 0
-118 -158 -160 -162 -166 0
-92 -158 -96 -162 -166 0
-118 -159 -160 -162 -167 0
-92 -159 -96 -162 -167 0
-92 -160 -96 -162 -168 0
-115 -156 -157 -163 -164 0
-116 -156 -158 -163 -164 0
-117 -156 -159 -163 -164 0
-118 -156 -160 -163 -164 0
-92 -156 -96 -163 -164 0
-116 -157 -158 -163 -165 0
-117 -157 -159 -163 -165 0
-118 -157 -160 -163 -165 0
-92 -157 -96 -163 -165 0
-117 -158 -159 -163 -166 0
-118 -158 -160 -163 -166 0
-92 -158 -96 -163 -166 0
-118 -159 -160 -163 -167 0
-92 -159 -96 -163 -167 0
-92 -160 -96 -163 -168 0
-116 -157 -158 -164 -165 0
-117 -157 -159 -164 -165 0
-118 -157 -160 -164 -165 0
-92 -157 -96 -164 -165 0
-117 -158 -159 -164 -166 0
-118 -158 -160 -164 -166 0
-92 -158 -96 -164 -166 0
-118 -159 -160 -164 -167 0
-92 -159 -96 -164 -167 0
-92 -160 -96 -164 -168 0
-117 -158 -159 -165 -166 0
-118 -158 -160 -165 -166 0
-92 -158 -96 -165 -166 0
-118 -159 -160 -165 -167 0
-92 -159 -96 -165 -167 0
-92 -160 -96 -165 -168 0
-118 -159 -160 -166 -167 0
-92 -159 -96 -166 -167 0
-92 -160 -96 -166 -168 0
-92 -160 -96 -167 -168 0
-114 -155 -156 -169 -170 0
-115 -155 -157 -169 -170 0
-116 -155 -158 -169 -170 0
-117 -155 -159 -169 -170 0
-118 -155 -160 -169 -170 0
-92 -155 -96 -169 -170 0
-115 -156 -157 -169 -171 0
-116 -156 -158 -169 -171 0
-117 -156 -159 -169 -171 0
-118 -156 -160 -169 -171 0
-92 -156 -96 -169 -171 0
-116 -157 -158 -169 -172 0
-117 -157 -159 -169 -172 0
-118 -157 -160 -169 -172 0
-92 -157 -96 -169 -172 0
-117 -158 -159 -169 -173 0
-118 -158 -160 -169 -173 0
-92 -158 -96 -169 -173 0
-118 -159 -160 -169 -174 0
-92 -159 -96 -169 -174 0
-92 -160 -96 -169 -175 0
-115 -156 -157 -170 -171 0
-116 -156 -158 -170 -171 0
-117 -156 -159 -170 -171 0
-118 -156 -160 -170 -171 0
-92 -156 -96 -170 -171 0
-116 -157 -158 -170 -172 0
-117 -157 -159 -170 -172 0
-118 -157 -160 -170 -172 0
-92 -157 -96 -170 -172 0
-117 -158 -159 -170 -173 0
-118 -158 -160 -170 -173 0
-92 -158 -96 -170 -173 0
-118 -159 -160 -170 -174 0
-92 -159 -96 -170 -174 0
-92 -160 -96 -170 -175 0
-116 -157 -158 -171 -172 0
-117 -157 -159 -171 -172 0
-118 -157 -160 -171 -172 0
-92 -157 -96 -171 -172 0
-117 -158 -159 -171 -173 0
-118 -158 -160 -171 -173 0
-92 -158 -96 -171 -173 0
-118 -159 -160 -171 -174 0
-92 -159 -96 -171 -174 0
-92 -160 -96 -171 -175 0
-117 -158 -159 -172 -173 0
-118 -158 -160 -172 -173 0
-92 -158 -96 -172 -173 0
-118 -159 -160 -172 -174 0
-92 -159 -96 -172 -174 0
-92 -160 -96 -172 -175 0
-118 -159 -160 -173 -174 0
-92 -159 -96 -173 -174 0
-92 -160 -96 -173 -175 0
-92 -160 -96 -174 -175 0
-115 -156 -157 -176 -177 0
-116 -156 -158 -176 -177 0
-117 -156 -159 -176 -177 0
-118 -156 -160 -176 -177 0
-92 -156 -96 -176 -177 0
-116 -157 -158 -176 -178 0
-117 -157 -159 -176 -178 0
-118 -157 -160 -176 -178 0
-92 -157 -96 -176 -178 0
-117 -158 -159 -176 -179 0
-118 -158 -160 -176 -179 0
-92 -158 -96 -176 -179 0
-118 -159 -160 -176 -180 0
-92 -159 -96 -176 -180 0
-92 -160 -96 -176 -181 0
-116 -157 -158 -177 -178 0
-117 -157 -159 -177 -178 0
-118 -157 -160 -177 -178 0
-92 -157 -96 -177 -178 0
-117 -158 -159 -177 -179 0
-118 -158 -160 -177 -179 0
-92 -158 -96 -177 -179 0
-118 -159 -160 -177 -180 0
-92 -159 -96 -177 -180 0
-92 -160 -96 -177 -181 0
-117 -158 -159 -178 -179 0
-118 -158 -160 -178 -179 0
-92 -158 -96 -178 -179 0
-118 -159 -160 -178 -180 0
-92 -159 -96 -178 -180 0
-92 -160 -96 -178 -181 0
-118 -159 -160 -179 -180 0
-92 -159 -96 -179 -180 0
-92 -160 -96 -179 -181 0
-92 -160 -96 -180 -181 0
-116 -157 -158 -182 -183 0
-117 -157 -159 -182 -183 0
-118 -157 -160 -182 -183 0
-92 -157 -96 -182 -183 0
-117 -158 -159 -182 -184 0
-118 -158 -160 -182 -184 0
-92 -158 -96 -182 -184 0
-118 -159 -160 -182 -185 0
-92 -159 -96 -182 -185 0
-92 -160 -96 -182 -186 0
-117 -158 -159 -183 -184 0
-118 -158 -160 -183 -184 0
-92 -158 -96 -183 -184 0
-118 -159 -160 -183 -185 0
-92 -159 -96 -183 -185 0
-92 -160 -96 -183 -186 0
-118 -159 -160 -184 -185 0
-92 -159 -96 -184 -185 0
-92 -160 -96 -184 -186 0
-92 -160 -96 -185 -186 0
-117 -158 -159 -187 -188 0
-118 -158 -160 -187 -188 0
-92 -158 -96 -187 -188 0
-118 -159 -160 -187 -189 0
-92 -159 -96 -187 -189 0
-92 -160 -96 -187 -190 0
-118 -159 -160 -188 -189 0
-92 -159 -96 -188 -189 0
-92 -160 -96 -188 -190 0
-92 -160 -96 -189 -190 0
-118 -159 -160 -191 -192 0
-92 -159 -96 -191 -192 0
-92 -160 -96 -191 -193 0
-92 -160 -96 -192 -193 0
-92 -160 -96 -194 -195 0
-114 -163 -164 -169 -170 0
-115 -163 -165 -169 -170 0
-116 -163 -166 -169 -170 0
-117 -163 -167 -169 -170 0
-118 -163 -168 -169 -170 0
-92 -163 -97 -169 -170 0
-115 -164 -165 -169 -171 0
-116 -164 -166 -169 -171 0
-117 -164 -167 -169 -171 0
-118 -164 -168 -169 -171 0
-92 -164 -97 -169 -171 0
-116 -165 -166 -169 -172 0
-117 -165 -167 -169 -172 0
-118 -165 -168 -169 -172 0
-92 -165 -97 -169 -172 0
-117 -166 -167 -169 -173 0
-118 -166 -168 -169 -173 0
-92 -166 -97 -169 -173 0
-118 -167 -168 -169 -174 0
-92 -167 -97 -169 -174 0
-92 -168 -97 -169 -175 0
-115 -164 -165 -170 -171 0
-116 -164 -166 -170 -171 0
-117 -164 -167 -170 -171 0
-118 -164 -168 -170 -171 0
-92 -164 -97 -170 -171 0
-116 -165 -166 -170 -172 0
-117 -165 -167 -170 -172 0
-118 -165 -168 -170 -172 0
-92 -165 -97 -170 -172 0
-117 -166 -167 -170 -173 0
-118 -166 -168 -170 -173 0
-92 -166 -97 -170 -173 0
-118 -167 -168 -170 -174 0
-92 -167 -97 -170 -174 0
-92 -168 -97 -170 -175 0
-116 -165 -166 -171 -172 0
-117 -165 -167 -171 -172 0
-118 -165 -168 -171 -172 0
-92 -165 -97 -171 -172 0
-117 -166 -167 -171 -173 0
-118 -166 -168 -171 -173 0
-92 -166 -97 -171 -173 0
-118 -167 -168 -171 -174 0
-92 -167 -97 -171 -174 0
-92 -168 -97 -171 -175 0
-117 -166 -167 -172 -173 0
-118 -166 -168 -172 -173 0
-92 -166 -97 -172 -173 0
-118 -167 -168 -172 -174 0
-92 -167 -97 -172 -174 0
-92 -168 -97 -172 -175 0
-118 -167 -168 -173 -174 0
-92 -167 -97 -173 -174 0
-92 -168 -97 -173 -175 0
-92 -168 -97 -174 -175 0
-115 -164 -165 -176 -177 0
-116 -164 -166 -176 -177 0
-117 -164 -167 -176 -177 0
-118 -164 -168 -176 -177 0
-92 -164 -97 -176 -177 0
-116 -165 -166 -176 -178 0
-117 -165 -167 -176 -178 0
-118 -165 -168 -176 -178 0
-92 -165 -97 -176 -178 0
-117 -166 -167 -176 -179 0
-118 -166 -168 -176 -179 0
-92 -166 -97 -176 -179 0
-118 -167 -168 -176 -180 0
-92 -167 -97 -176 -180 0
-92 -168 -97 -176 -181 0
-116 -165 -166 -177 -178 0
-117 -165 -167 -177 -178 0
-118 -165 -168 -177 -178 0
-92 -165 -97 -177 -178 0
-117 -166 -167 -177 -179 0
-118 -166 -168 -177 -179 0
-92 -166 -97 -177 -179 0
-118 -167 -168 -177 -180 0
-92 -167 -97 -177 -180 0
-92 -168 -97 -177 -181 0
-117 -166 -167 -178 -179 0
-118 -166 -168 -178 -179 0
-92 -166 -97 -178 -179 0
-118 -167 -168 -178 -180 0
-92 -167 -97 -178 -180 0
-92 -168 -97 -178 -181 0
-118 -167 -168 -179 -180 0
-92 -167 -97 -179 -180 0
-92 -168 -97 -179 -181 0
-92 -168 -97 -180 -181 0
-116 -165 -166 -182 -183 0
-117 -165 -167 -182 -183 0
-118 -165 -168 -182 -183 0
-92 -165 -97 -182 -183 0
-117 -166 -167 -182 -184 0
-118 -166 -168 -182 -184 0
-92 -166 -97 -182 -184 0
-118 -167 -168 -182 -185 0
-92 -167 -97 -182 -185 0
-92 -168 -97 -182 -186 0
-117 -166 -167 -183 -184 0
-118 -166 -168 -183 -184 0
-92 -166 -97 -183 -184 0
-118 -167 -168 -183 -185 0
-92 -167 -97 -183 -185 0
-92 -168 -97 -183 -186 0
-118 -167 -168 -184 -185 0
-92 -167 -97 -184 -185 0
-92 -168 -97 -184 -186 0
-92 -168 -97 -185 -186 0
-117 -166 -167 -187 -188 0
-118 -166 -168 -187 -188 0
-92 -166 -97 -187 -188 0
-118 -167 -168 -187 -189 0
-92 -167 -97 -187 -189 0
-92 -168 -97 -187 -190 0
-118 -167 -168 -188 -189 0
-92 -167 -97 -188 -189 0
-92 -168 -97 -188 -190 0
-92 -168 -97 -189 -190 0
-118 -167 -168 -191 -192 0
-92 -167 -97 -191 -192 0
-92 -168 -97 -191 -193 0
-92 -168 -97 -192 -193 0
-92 -168 -97 -194 -195 0
-115 -171 -172 -176 -177 0
-116 -171 -173 -176 -177 0
-117 -171 -174 -176 -177 0
-118 -171 -175 -176 -177 0
-92 -171 -98 -176 -177 0
-116 -172 -173 -176 -178 0
-117 -172 -174 -176 -178 0
-118 -172 -175 -176 -178 0
-92 -172 -98 -176 -178 0
-117 -173 -174 -176 -179 0
-118 -173 -175 -176 -179 0
-92 -173 -98 -176 -179 0
-118 -174 -175 -176 -180 0
-92 -174 -98 -176 -180 0
-92 -175 -98 -176 -181 0
-116 -172 -173 -177 -178 0
-117 -172 -174 -177 -178 0
-118 -172 -175 -177 -178 0
-92 -172 -98 -177 -178 0
-117 -173 -174 -177 -179 0
-118 -173 -175 -177 -179 0
-92 -173 -98 -177 -179 0
-118 -174 -175 -177 -180 0
-92 -174 -98 -177 -180 0
-92 -175 -98 -177 -181 0
-117 -173 -174 -178 -179 0
-118 -173 -175 -178 -179 0
-92 -173 -98 -178 -179 0
-118 -174 -175 -178 -180 0
-92 -174 -98 -178 -180 0
-92 -175 -98 -178 -181 0
-118 -174 -175 -179 -180 0
-92 -174 -98 -179 -180 0
-92 -175 -98 -179 -181 0
-92 -175 -98 -180 -181 0
-116 -172 -173 -182 -183 0
-117 -172 -174 -182 -183 0
-118 -172 -175 -182 -183 0
-92 -172 -98 -182 -183 0
-117 -173 -174 -182 -184 0
-118 -173 -175 -182 -184 0
-92 -173 -98 -182 -184 0
-118 -174 -175 -182 -185 0
-92 -174 -98 -182 -185 0
-92 -175 -98 -182 -186 0
-117 -173 -174 -183 -184 0
-118 -173 -175 -183 -184 0
-92 -173 -98 -183 -184 0
-118 -174 -175 -183 -185 0
-92 -174 -98 -183 -185 0
-92 -175 -98 -183 -186 0
-118 -174 -175 -184 -185 0
-92 -174 -98 -184 -185 0
-92 -175 -98 -184 -186 0
-92 -175 -98 -185 -186 0
-117 -173 -174 -187 -188 0
-118 -173 -175 -187 -188 0
-92 -173 -98 -187 -188 0
-118 -174 -175 -187 -189 0
-92 -174 -98 -187 -189 0
-92 -175 -98 -187 -190 0
-118 -174 -175 -188 -189 0
-92 -174 -98 -188 -189 0
-92 -175 -98 -188 -190 0
-92 -175 -98 -189 -190 0
-118 -174 -175 -191 -192 0
-92 -174 -98 -191 -192 0
-92 -175 -98 -191 -193 0
-92 -175 -98 -192 -193 0
-92 -175 -98 -194 -195 0
-116 -178 -179 -182 -183 0
-117 -178 -180 -182 -183 0
-118 -178 -181 -182 -183 0
-92 -178 -99 -182 -183 0
-117 -179 -180 -182 -184 0
-118 -179 -181 -182 -184 0
-92 -179 -99 -182 -184 0
-118 -180 -181 -182 -185 0
-92 -180 -99 -182 -185 0
-92 -181 -99 -182 -186 0
-117 -179 -180 -183 -184 0
-118 -179 -181 -183 -184 0
-92 -179 -99 -183 -184 0
-118 -180 -181 -183 -185 0
-92 -180 -99 -183 -185 0
-92 -181 -99 -183 -186 0
-118 -180 -181 -184 -185 0
-92 -180 -99 -184 -185 0
-92 -181 -99 -184 -186 0
-92 -181 -99 -185 -186 0
-117 -179 -180 -187 -188 0
-118 -179 -181 -187 -188 0
-92 -179 -99 -187 -188 0
-118 -180 -181 -187 -189 0
-92 -180 -99 -187 -189 0
-92 -181 -99 -187 -190 0
-118 -180 -181 -188 -189 0
-92 -180 -99 -188 -189 0
-92 -181 -99 -188 -190 0
-92 -181 -99 -189 -190 0
-118 -180 -181 -191 -192 0
-92 -180 -99 -191 -192 0
-92 -181 -99 -191 -193 0
-92 -181 -99 -192 -193 0
-92 -181 -99 -194 -195 0
-117 -184 -185 -187 -188 0
-118 -184 -186 -187 -188 0
-92 -184 -100 -187 -188 0
-118 -185 -186 -187 -189 0
-92 -185 -100 -187 -189 0
-92 -186 -100 -187 -190 0
-118 -185 -186 -188 -189 0
-92 -185 -100 -188 -189 0
-92 -186 -100 -188 -190 0
-92 -186 -100 -189 -190 0
-118 -185 -186 -191 -192 0
-92 -185 -100 -191 -192 0
-92 -186 -100 -191 -193 0
-92 -186 -100 -192 -193 0
-92 -186 -100 -194 -195 0
-118 -189 -190 -191 -192 0
-92 -189 -101 -191 -192 0
-92 -190 -101 -191 -193 0
-92 -190 -101 -192 -193 0
-92 -190 -101 -194 -195 0
-92 -193 -102 -194 -195 0
-123 -133 -134 -142 -143 0
-124 -133 -135 -142 -143 0
-125 -133 -136 -142 -143 0
-126 -133 -137 -142 -143 0
-127 -133 -138 -142 -143 0
-128 -133 -139 -142 -143 0
-129 -133 -140 -142 -143 0
-130 -133 -141 -142 -143 0
-93 -133 -94 -142 -143 0
-106 -133 -107 -142 -143 0
-124 -134 -135 -142 -144 0
-125 -134 -136 -142 -144 0
-126 -134 -137 -142 -144 0
-127 -134 -138 -142 -144 0
-128 -134 -139 -142 -144 0
-129 -134 -140 -142 -144 0
-130 -134 -141 -142 -144 0
-93 -134 -94 -142 -144 0
-106 -134 -107 -142 -144 0
-125 -135 -136 -142 -145 0
-126 -135 -137 -142 -145 0
-127 -135 -138 -142 -145 0
-128 -135 -139 -142 -145 0
-129 -135 -140 -142 -145 0
-130 -135 -141 -142 -145 0
-93 -135 -94 -142 -145 0
-106 -135 -107 -142 -145 0
-126 -136 -137 -142 -146 0
-127 -136 -138 -142 -146 0
-128 -136 -139 -142 -146 0
-129 -136 -140 -142 -146 0
-130 -136 -141 -142 -146 0
-93 -136 -94 -142 -146 0
-106 -136 -107 -142 -146 0
-127 -137 -138 -142 -147 0
-128 -137 -139 -142 -147 0
-129 -137 -140 -142 -147 0
-130 -137 -141 -142 -147 0
-93 -137 -94 -142 -147 0
-106 -137 -107 -142 -147 0
-128 -138 -139 -142 -148 0
-129 -138 -140 -142 -148 0
-130 -138 -141 -142 -148 0
-93 -138 -94 -142 -148 0
-106 -138 -107 -142 -148 0
-129 -139 -140 -142 -149 0
-130 -139 -141 -142 -149 0
-93 -139 -94 -142 -149 0
-106 -139 -107 -142 -149 0
-130 -140 -141 -142 -150 0
-93 -140 -94 -142 -150 0
-106 -140 -107 -142 -150 0
-93 -141 -94 -142 -151 0
-106 -141 -107 -142 -151 0
-106 -94 -107 -142 -95 0
-124 -134 -135 -143 -144 0
-125 -134 -136 -143 -144 0
-126 -134 -137 -143 -144 0
-127 -134 -138 -143 -144 0
-128 -134 -139 -143 -144 0
-129 -134 -140 -143 -144 0
-130 -134 -141 -143 -144 0
-93 -134 -94 -143 -144 0
-106 -134 -107 -143 -144 0
-125 -135 -136 -143 -145 0
-126 -135 -137 -143 -145 0
-127 -135 -138 -143 -145 0
-128 -135 -139 -143 -145 0
-129 -135 -140 -143 -145 0
-130 -135 -141 -143 -145 0
-93 -135 -94 -143 -145 0
-106 -135 -107 -143 -145 0
-126 -136 -137 -143 -146 0
-127 -136 -138 -143 -146 0
-128 -136 -139 -143 -146 0
-129 -136 -140 -143 -146 0
-130 -136 -141 -143 -146 0
-93 -136 -94 -143 -146 0
-106 -136 -107 -143 -146 0
-127 -137 -138 -143 -147 0
-128 -137 -139 -143 -147 0
-129 -137 -140 -143 -147 0
-130 -137 -141 -143 -147 0
-93 -137 -94 -143 -147 0
-106 -137 -107 -143 -147 0
-128 -138 -139 -143 -148 0
-129 -138 -140 -143 -148 0
-130 -138 -141 -143 -148 0
-93 -138 -94 -143 -148 0
-106 -138 -107 -143 -148 0
-129 -139 -140 -143 -149 0
-130 -139 -141 -143 -149 0
-93 -139 -94 -143 -149 0
-106 -139 -107 -143 -149 0
-130 -140 -141 -143 -150 0
-93 -140 -94 -143 -150 0
-106 -140 -107 -143 -150 0
-93 -141 -94 -143 -151 0
-106 -141 -107 -143 -151 0
-106 -94 -107 -143 -95 0
-125 -135 -136 -144 -145 0
-126 -135 -137 -144 -145 0
-127 -135 -138 -144 -145 0
-128 -135 -139 -144 -145 0
-129 -135 -140 -144 -145 0
-130 -135 -141 -144 -145 0
-93 -135 -94 -144 -145 0
-106 -135 -107 -144 -145 0
-126 -136 -137 -144 -146 0
-127 -136 -138 -144 -146 0
-128 -136 -139 -144 -146 0
-129 -136 -140 -144 -146 0
-130 -136 -141 -144 -146 0
-93 -136 -94 -144 -146 0
-106 -136 -107 -144 -146 0
-127 -137 -138 -144 -147 0
-128 -137 -139 -144 -147 0
-129 -137 -140 -144 -147 0
-130 -137 -141 -144 -147 0
-93 -137 -94 -144 -147 0
-106 -137 -107 -144 -147 0
-128 -138 -139 -144 -148 0
-129 -138 -140 -144 -148 0
-130 -138 -141 -144 -148 0
-93 -138 -94 -144 -148 0
-106 -138 -107 -144 -148 0
-129 -139 -140 -144 -149 0
-130 -139 -141 -144 -149 0
-93 -139 -94 -144 -149 0
-106 -139 -107 -144 -149 0
-130 -140 -141 -144 -150 0
-93 -140 -94 -144 -150 0
-106 -140 -107 -144 -150 0
-93 -141 -94 -144 -151 0
-106 -141 -107 -144 -151 0
-106 -94 -107 -144 -95 0
-126 -136 -137 -145 -146 0
-127 -136 -138 -145 -146 0
-128 -136 -139 -145 -146 0
-129 -136 -140 -145 -146 0
-130 -136 -141 -145 -146 0
-93 -136 -94 -145 -146 0
-106 -136 -107 -145 -146 0
-127 -137 -138 -145 -147 0
-128 -137 -139 -145 -147 0
-129 -137 -140 -145 -147 0
-130 -137 -141 -145 -147 0
-93 -137 -94 -145 -147 0
-106 -137 -107 -145 -147 0
-128 -138 -139 -145 -148 0
-129 -138 -140 -145 -148 0
-130 -138 -141 -145 -148 0
-93 -138 -94 -145 -148 0
-106 -138 -107 -145 -148 0
-129 -139 -140 -145 -149 0
-130 -139 -141 -145 -149 0
-93 -139 -94 -145 -149 0
-106 -139 -107 -145 -149 0
-130 -140 -141 -145 -150 0
-93 -140 -94 -145 -150 0
-106 -140 -107 -145 -150 0
-93 -141 -94 -145 -151 0
-106 -141 -107 -145 -151 0
-106 -94 -107 -145 -95 0
-127 -137 -138 -146 -147 0
-128 -137 -139 -146 -147 0
-129 -137 -140 -146 -147 0
-130 -137 -141 -146 -147 0
-93 -137 -94 -146 -147 0
-106 -137 -107 -146 -147 0
-128 -138 -139 -146 -148 0
-129 -138 -140 -146 -148 0
-130 -138 -141 -146 -148 0
-93 -138 -94 -146 -148 0
-106 -138 -107 -146 -148 0
-129 -139 -140 -146 -149 0
-130 -139 -141 -146 -149 0
-93 -139 -94 -146 -149 0
-106 -139 -107 -146 -149 0
-130 -140 -141 -146 -150 0
-93 -140 -94 -146 -150 0
-106 -140 -107 -146 -150 0
-93 -141 -94 -146 -151 0
-106 -141 -107 -146 -151 0
-106 -94 -107 -146 -95 0
-128 -138 -139 -147 -148 0
-129 -138 -140 -147 -148 0
-130 -138 -141 -147 -148 0
-93 -138 -94 -147 -148 0
-106 -138 -107 -147 -148 0
-129 -139 -140 -147 -149 0
-130 -139 -141 -147 -149 0
-93 -139 -94 -147 -149 0
-106 -139 -107 -147 -149 0
-130 -140 -141 -147 -150 0
-93 -140 -94 -147 -150 0
-106 -140 -107 -147 -150 0
-93 -141 -94 -147 -151 0
-106 -141 -107 -147 -151 0
-106 -94 -107 -147 -95 0
-129 -139 -140 -148 -149 0
-130 -139 -141 -148 -149 0
-93 -139 -94 -148 -149 0
-106 -139 -107 -148 -149 0
-130 -140 -141 -148 -150 0
-93 -140 -94 -148 -150 0
-106 -140 -107 -148 -150 0
-93 -141 -94 -148 -151 0
-106 -141 -107 -148 -151 0
-106 -94 -107 -148 -95 0
-130 -140 -141 -149 -150 0
-93 -140 -94 -149 -150 0
-106 -140 -107 -149 -150 0
-93 -141 -94 -149 -151 0
-106 -141 -107 -149 -151 0
-106 -94 -107 -149 -95 0
-93 -141 -94 -150 -151 0
-106 -141 -107 -150 -151 0
-106 -94 -107 -150 -95 0
-106 -94 -107 -151 -95 0
-124 -134 -135 -152 -153 0
-125 -134 -136 -152 -153 0
-126 -134 -137 -152 -153 0
-127 -134 -138 -152 -153 0
-128 -134 -139 -152 -153 0
-129 -134 -140 -152 -153 0
-130 -134 -141 -152 -153 0
-93 -134 -94 -152 -153 0
-106 -134 -107 -152 -153 0
-125 -135 -136 -152 -154 0
-126 -135 -137 -152 -154 0
-127 -135 -138 -152 -154 0
-128 -135 -139 -152 -154 0
-129 -135 -140 -152 -154 0
-130 -135 -141 -152 -154 0
-93 -135 -94 -152 -154 0
-106 -135 -107 -152 -154 0
-126 -136 -137 -152 -155 0
-127 -136 -138 -152 -155 0
-128 -136 -139 -152 -155 0
-129 -136 -140 -152 -155 0
-130 -136 -141 -152 -155 0
-93 -136 -94 -152 -155 0
-106 -136 -107 -152 -155 0
-127 -137 -138 -152 -156 0
-128 -137 -139 -152 -156 0
-129 -137 -140 -152 -156 0
-130 -137 -141 -152 -156 0
-93 -137 -94 -152 -156 0
-106 -137 -107 -152 -156 0
-128 -138 -139 -152 -157 0
-129 -138 -140 -152 -157 0
-130 -138 -141 -152 -157 0
-93 -138 -94 -152 -157 0
-106 -138 -107 -152 -157 0
-129 -139 -140 -152 -158 0
-130 -139 -141 -152 -158 0
-93 -139 -94 -152 -158 0
-106 -139 -107 -152 -158 0
-130 -140 -141 -152 -159 0
-93 -140 -94 -152 -159 0
-106 -140 -107 -152 -159 0
-93 -141 -94 -152 -160 0
-106 -141 -107 -152 -160 0
-106 -94 -107 -152 -96 0
-125 -135 -136 -153 -154 0
-126 -135 -137 -153 -154 0
-127 -135 -138 -153 -154 0
-128 -135 -139 -153 -154 0
-129 -135 -140 -153 -154 0
-130 -135 -141 -153 -154 0
-93 -135 -94 -153 -154 0
-106 -135 -107 -153 -154 0
-126 -136 -137 -153 -155 0
-127 -136 -138 -153 -155 0
-128 -136 -139 -153 -155 0
-129 -136 -140 -153 -155 0
-130 -136 -141 -153 -155 0
-93 -136 -94 -153 -155 0
-106 -136 -107 -153 -155 0
-127 -137 -138 -153 -156 0
-128 -137 -139 -153 -156 0
-129 -137 -140 -153 -156 0
-130 -137 -141 -153 -156 0
-93 -137 -94 -153 -156 0
-106 -137 -107 -153 -156 0
-128 -138 -139 -153 -157 0
-129 -138 -140 -153 -157 0
-130 -138 -141 -153 -157 0
-93 -138 -94 -153 -157 0
-106 -138 -107 -153 -157 0
-129 -139 -140 -153 -158 0
-130 -139 -141 -153 -158 0
-93 -139 -94 -153 -158 0
-106 -139 -107 -153 -158 0
-130 -140 -141 -153 -159 0
-93 -140 -94 -153 -159 0
-106 -140 -107 -153 -159 0
-93 -141 -94 -153 -160 0
-106 -141 -107 -153 -160 0
-106 -94 -107 -153 -96 0
-126 -136 -137 -154 -155 0
-127 -136 -138 -154 -155 0
-128 -136 -139 -154 -155 0
-129 -136 -140 -154 -155 0
-130 -136 -141 -154 -155 0
-93 -136 -94 -154 -155 0
-106 -136 -107 -154 -155 0
-127 -137 -138 -154 -156 0
-128 -137 -139 -154 -156 0
-129 -137 -140 -154 -156 0
-130 -137 -141 -154 -156 0
-93 -137 -94 -154 -156 0
-106 -137 -107 -154 -156 0
-128 -138 -139 -154 -157 0
-129 -138 -140 -154 -157 0
-130 -138 -141 -154 -157 0
-93 -138 -94 -154 -157 0
-106 -138 -107 -154 -157 0
-129 -139 -140 -154 -158 0
-130 -139 -141 -154 -158 0
-93 -139 -94 -154 -158 0
-106 -139 -107 -154 -158 0
-130 -140 -141 -154 -159 0
-93 -140 -94 -154 -159 0
-106 -140 -107 -154 -159 0
-93 -141 -94 -154 -160 0
-106 -141 -107 -154 -160 0
-106 -94 -107 -154 -96 0
-127 -137 -138 -155 -156 0
-128 -137 -139 -155 -156 0
-129 -137 -140 -155 -156 0
-130 -137 -141 -155 -156 0
-93 -137 -94 -155 -156 0
-106 -137 -107 -155 -156 0
-128 -138 -139 -155 -157 0
-129 -138 -140 -155 -157 0
-130 -138 -141 -155 -157 0
-93 -138 -94 -155 -157 0
-106 -138 -107 -155 -157 0
-129 -139 -140 -155 -158 0
-130 -139 -141 -155 -158 0
-93 -139 -94 -155 -158 0
-106 -139 -107 -155 -158 0
-130 -140 -141 -155 -159 0
-93 -140 -94 -155 -159 0
-106 -140 -107 -155 -159 0
-93 -141 -94 -155 -160 0
-106 -141 -107 -155 -160 0
-106 -94 -107 -155 -96 0
-128 -138 -139 -156 -157 0
-129 -138 -140 -156 -157 0
-130 -138 -141 -156 -157 0
-93 -138 -94 -156 -157 0
-106 -138 -107 -156 -157 0
-129 -139 -140 -156 -158 0
-130 -139 -141 -156 -158 0
-93 -139 -94 -156 -158 0
-106 -139 -107 -156 -158 0
-130 -140 -141 -156 -159 0
-93 -140 -94 -156 -159 0
-106 -140 -107 -156 -159 0
-93 -141 -94 -156 -160 0
-106 -141 -107 -156 -160 0
-106 -94 -107 -156 -96 0
-129 -139 -140 -157 -158 0
-130 -139 -141 -157 -158 0
-93 -139 -94 -157 -158 0
-106 -139 -107 -157 -158 0
-130 -140 -141 -157 -159 0
-93 -140 -94 -157 -159 0
-106 -140 -107 -157 -159 0
-93 -141 -94 -157 -160 0
-106 -141 -107 -157 -160 0
-106 -94 -107 -157 -96 0
-130 -140 -141 -158 -159 0
-93 -140 -94 -158 -159 0
-106 -140 -107 -158 -159 0
-93 -141 -94 -158 -160 0
-106 -141 -107 -158 -160 0
-106 -94 -107 -158 -96 0
-93 -141 -94 -159 -160 0
-106 -141 -107 -159 -160 0
-106 -94 -107 -159 -96 0
-106 -94 -107 -160 -96 0
-125 -135 -136 -161 -162 0
-126 -135 -137 -161 -162 0
-127 -135 -138 -161 -162 0
-128 -135 -139 -161 -162 0
-129 -135 -140 -161 -162 0
-130 -135 -141 -161 -162 0
-93 -135 -94 -161 -162 0
-106 -135 -107 -161 -162 0
-126 -136 -137 -161 -163 0
-127 -136 -138 -161 -163 0
-128 -136 -139 -161 -163 0
-129 -136 -140 -161 -163 0
-130 -136 -141 -161 -163 0
-93 -136 -94 -161 -163 0
-106 -136 -107 -161 -163 0
-127 -137 -138 -161 -164 0
-128 -137 -139 -161 -164 0
-129 -137 -140 -161 -164 0
-130 -137 -141 -161 -164 0
-93 -137 -94 -161 -164 0
-106 -137 -107 -161 -164 0
-128 -138 -139 -161 -165 0
-129 -138 -140 -161 -165 0
-130 -138 -141 -161 -165 0
-93 -138 -94 -161 -165 0
-106 -138 -107 -161 -165 0
-129 -139 -140 -161 -166 0
-130 -139 -141 -161 -166 0
-93 -139 -94 -161 -166 0
-106 -139 -107 -161 -166 0
-130 -140 -141 -161 -167 0
-93 -140 -94 -161 -167 0
-106 -140 -107 -161 -167 0
-93 -141 -94 -161 -168 0
-106 -141 -107 -161 -168 0
-106 -94 -107 -161 -97 0
-126 -136 -137 -162 -163 0
-127 -136 -138 -162 -163 0
-128 -136 -139 -162 -163 0
-129 -136 -140 -162 -163 0
-130 -136 -141 -162 -163 0
-93 -136 -94 -162 -163 0
-106 -136 -107 -162 -163 0
-127 -137 -138 -162 -164 0
-128 -137 -139 -162 -164 0
-129 -137 -140 -162 -164 0
-130 -137 -141 -162 -164 0
-93 -137 -94 -162 -164 0
-106 -137 -107 -162 -164 0
-128 -138 -139 -162 -165 0
-129 -138 -140 -162 -165 0
-130 -138 -141 -162 -165 0
-93 -138 -94 -162 -165 0
-106 -138 -107 -162 -165 0
-129 -139 -140 -162 -166 0
-130 -139 -141 -162 -166 0
-93 -139 -94 -162 -166 0
-106 -139 -107 -162 -166 0
-130 -140 -141 -162 -167 0
-93 -140 -94 -162 -167 0
-106 -140 -107 -162 -167 0
-93 -141 -94 -162 -168 0
-106 -141 -107 -162 -168 0
-106 -94 -107 -162 -97 0
-127 -137 -138 -163 -164 0
-128 -137 -139 -163 -164 0
-129 -137 -140 -163 -164 0
-130 -137 -141 -163 -164 0
-93 -137 -94 -163 -164 0
-106 -137 -107 -163 -164 0
-128 -138 -139 -163 -165 0
-129 -138 -140 -163 -165 0
-130 -138 -141 -163 -165 0
-93 -138 -94 -163 -165 0
-106 -138 -107 -163 -165 0
-129 -139 -140 -163 -166 0
-130 -139 -141 -163 -166 0
-93 -139 -94 -163 -166 0
-106 -139 -107 -163 -166 0
-130 -140 -141 -163 -167 0
-93 -140 -94 -163 -167 0
-106 -140 -107 -163 -167 0
-93 -141 -94 -163 -168 0
-106 -141 -107 -163 -168 0
-106 -94 -107 -163 -97 0
-128 -138 -139 -164 -165 0
-129 -138 -140 -164 -165 0
-130 -138 -141 -164 -165 0
-93 -138 -94 -164 -165 0
-106 -138 -107 -164 -165 0
-129 -139 -140 -164 -166 0
-130 -139 -141 -164 -166 0
-93 -139 -94 -164 -166 0
-106 -139 -107 -164 -166 0
-130 -140 -141 -164 -167 0
-93 -140 -94 -164 -167 0
-106 -140 -107 -164 -167 0
-93 -141 -94 -164 -168 0
-106 -141 -107 -164 -168 0
-106 -94 -107 -164 -97 0
-129 -139 -140 -165 -166 0
-130 -139 -141 -165 -166 0
-93 -139 -94 -165 -166 0
-106 -139 -107 -165 -166 0
-130 -140 -141 -165 -167 0
-93 -140 -94 -165 -167 0
-106 -140 -107 -165 -167 0
-93 -141 -94 -165 -168 0
-106 -141 -107 -165 -168 0
-106 -94 -107 -165 -97 0
-130 -140 -141 -166 -167 0
-93 -140 -94 -166 -167 0
-106 -140 -107 -166 -167 0
-93 -141 -94 -166 -168 0
-106 -141 -107 -166 -168 0
-106 -94 -107 -166 -97 0
-93 -141 -94 -167 -168 0
-106 -141 -107 -167 -168 0
-106 -94 -107 -167 -97 0
-106 -94 -107 -168 -97 0
-126 -136 -137 -169 -170 0
-127 -136 -138 -169 -170 0
-128 -136 -139 -169 -170 0
-129 -136 -140 -169 -170 0
-130 -136 -141 -169 -170 0
-93 -136 -94 -169 -170 0
-106 -136 -107 -169 -170 0
-127 -137 -138 -169 -171 0
-128 -137 -139 -169 -171 0
-129 -137 -140 -169 -171 0
-130 -137 -141 -169 -171 0
-93 -137 -94 -169 -171 0
-106 -137 -107 -169 -171 0
-128 -138 -139 -169 -172 0
-129 -138 -140 -169 -172 0
-130 -138 -141 -169 -172 0
-93 -138 -94 -169 -172 0
-106 -138 -107 -169 -172 0
-129 -139 -140 -169 -173 0
-130 -139 -141 -169 -173 0
-93 -139 -94 -169 -173 0
-106 -139 -107 -169 -173 0
-130 -140 -141 -169 -174 0
-93 -140 -94 -169 -174 0
-106 -140 -107 -169 -174 0
-93 -141 -94 -169 -175 0
-106 -141 -107 -169 -175 0
-106 -94 -107 -169 -98 0
-127 -137 -138 -170 -171 0
-128 -137 -139 -170 -171 0
-129 -137 -140 -170 -171 0
-130 -137 -141 -170 -171 0
-93 -137 -94 -170 -171 0
-106 -137 -107 -170 -171 0
-128 -138 -139 -170 -172 0
-129 -138 -140 -170 -172 0
-130 -138 -141 -170 -172 0
-93 -138 -94 -170 -172 0
-106 -138 -107 -170 -172 0
-129 -139 -140 -170 -173 0
-130 -139 -141 -170 -173 0
-93 -139 -94 -170 -173 0
-106 -139 -107 -170 -173 0
-130 -140 -141 -170 -174 0
-93 -140 -94 -170 -174 0
-106 -140 -107 -170 -174 0
-93 -141 -94 -170 -175 0
-106 -141 -107 -170 -175 0
-106 -94 -107 -170 -98 0
-128 -138 -139 -171 -172 0
-129 -138 -140 -171 -172 0
-130 -138 -141 -171 -172 0
-93 -138 -94 -171 -172 0
-106 -138 -107 -171 -172 0
-129 -139 -140 -171 -173 0
-130 -139 -141 -171 -173 0
-93 -139 -94 -171 -173 0
-106 -139 -107 -171 -173 0
-130 -140 -141 -171 -174 0
-93 -140 -94 -171 -174 0
-106 -140 -107 -171 -174 0
-93 -141 -94 -171 -175 0
-106 -141 -107 -171 -175 0
-106 -94 -107 -171 -98 0
-129 -139 -140 -172 -173 0
-130 -139 -141 -172 -173 0
-93 -139 -94 -172 -173 0
-106 -139 -107 -172 -173 0
-130 -140 -141 -172 -174 0
-93 -140 -94 -172 -174 0
-106 -140 -107 -172 -174 0
-93 -141 -94 -172 -175 0
-106 -141 -107 -172 -175 0
-106 -94 -107 -172 -98 0
-130 -140 -141 -173 -174 0
-93 -140 -94 -173 -174 0
-106 -140 -107 -173 -174 0
-93 -141 -94 -173 -175 0
-106 -141 -107 -173 -175 0
-106 -94 -107 -173 -98 0
-93 -141 -94 -174 -175 0
-106 -141 -107 -174 -175 0
-106 -94 -107 -174 -98 0
-106 -94 -107 -175 -98 0
-127 -137 -138 -176 -177 0
-128 -137 -139 -176 -177 0
-129 -137 -140 -176 -177 0
-130 -137 -141 -176 -177 0
-93 -137 -94 -176 -177 0
-106 -137 -107 -176 -177 0
-128 -138 -139 -176 -178 0
-129 -138 -140 -176 -178 0
-130 -138 -141 -176 -178 0
-93 -138 -94 -176 -178 0
-106 -138 -107 -176 -178 0
-129 -139 -140 -176 -179 0
-130 -139 -141 -176 -179 0
-93 -139 -94 -176 -179 0
-106 -139 -107 -176 -179 0
-130 -140 -141 -176 -180 0
-93 -140 -94 -176 -180 0
-106 -140 -107 -176 -180 0
-93 -141 -94 -176 -181 0
-106 -141 -107 -176 -181 0
-106 -94 -107 -176 -99 0
-128 -138 -139 -177 -178 0
-129 -138 -140 -177 -178 0
-130 -138 -141 -177 -178 0
-93 -138 -94 -177 -178 0
-106 -138 -107 -177 -178 0
-129 -139 -140 -177 -179 0
-130 -139 -141 -177 -179 0
-93 -139 -94 -177 -179 0
-106 -139 -107 -177 -179 0
-130 -140 -141 -177 -180 0
-93 -140 -94 -177 -180 0
-106 -140 -107 -177 -180 0
-93 -141 -94 -177 -181 0
-106 -141 -107 -177 -181 0
-106 -94 -107 -177 -99 0
-129 -139 -140 -178 -179 0
-130 -139 -141 -178 -179 0
-93 -139 -94 -178 -179 0
-106 -139 -107 -178 -179 0
-130 -140 -141 -178 -180 0
-93 -140 -94 -178 -180 0
-106 -140 -107 -178 -180 0
-93 -141 -94 -178 -181 0
-106 -141 -107 -178 -181 0
-106 -94 -107 -178 -99 0
-130 -140 -141 -179 -180 0
-93 -140 -94 -179 -180 0
-106 -140 -107 -179 -180 0
-93 -141 -94 -179 -181 0
-106 -141 -107 -179 -181 0
-106 -94 -107 -179 -99 0
-93 -141 -94 -180 -181 0
-106 -141 -107 -180 -181 0
-106 -94 -107 -180 -99 0
-106 -94 -107 -181 -99 0
-128 -138 -139 -182 -183 0
-129 -138 -140 -182 -183 0
-130 -138 -141 -182 -183 0
-93 -138 -94 -182 -183 0
-106 -138 -107 -182 -183 0
-129 -139 -140 -182 -184 0
-130 -139 -141 -182 -184 0
-93 -139 -94 -182 -184 0
-106 -139 -107 -182 -184 0
-130 -140 -141 -182 -185 0
-93 -140 -94 -182 -185 0
-106 -140 -107 -182 -185 0
-93 -141 -94 -182 -186 0
-106 -141 -107 -182 -186 0
-106 -94 -107 -182 -100 0
-129 -139 -140 -183 -184 0
-130 -139 -141 -183 -184 0
-93 -139 -94 -183 -184 0
-106 -139 -107 -183 -184 0
-130 -140 -141 -183 -185 0
-93 -140 -94 -183 -185 0
-106 -140 -107 -183 -185 0
-93 -141 -94 -183 -186 0
-106 -141 -107 -183 -186 0
-106 -94 -107 -183 -100 0
-130 -140 -141 -184 -185 0
-93 -140 -94 -184 -185 0
-106 -140 -107 -184 -185 0
-93 -141 -94 -184 -186 0
-106 -141 -107 -184 -186 0
-106 -94 -107 -184 -100 0
-93 -141 -94 -185 -186 0
-106 -141 -107 -185 -186 0
-106 -94 -107 -185 -100 0
-106 -94 -107 -186 -100 0
-129 -139 -140 -187 -188 0
-130 -139 -141 -187 -188 0
-93 -139 -94 -187 -188 0
-106 -139 -107 -187 -188 0
-130 -140 -141 -187 -189 0
-93 -140 -94 -187 -189 0
-106 -140 -107 -187 -189 0
-93 -141 -94 -187 -190 0
-106 -141 -107 -187 -190 0
-106 -94 -107 -187 -101 0
-130 -140 -141 -188 -189 0
-93 -140 -94 -188 -189 0
-106 -140 -107 -188 -189 0
-93 -141 -94 -188 -190 0
-106 -141 -107 -188 -190 0
-106 -94 -107 -188 -101 0
-93 -141 -94 -189 -190 0
-106 -141 -107 -189 -190 0
-106 -94 -107 -189 -101 0
-106 -94 -107 -190 -101 0
-130 -140 -141 -191 -192 0
-93 -140 -94 -191 -192 0
-106 -140 -107 -191 -192 0
-93 -141 -94 -191 -193 0
-106 -141 -107 -191 -193 0
-106 -94 -107 -191 -102 0
-93 -141 -94 -192 -193 0
-106 -141 -107 -192 -193 0
-106 -94 -107 -192 -102 0
-106 -94 -107 -193 -102 0
-93 -141 -94 -194 -195 0
-106 -141 -107 -194 -195 0
-106 -94 -107 -194 -103 0
-106 -94 -107 -195 -103 0
-106 -94 -107 -196 -104 0
-124 -144 -145 -152 -153 0
-125 -144 -146 -152 -153 0
-126 -144 -147 -152 -153 0
-127 -144 -148 -152 -153 0
-128 -144 -149 -152 -153 0
-129 -144 -150 -152 -153 0
-130 -144 -151 -152 -153 0
-93 -144 -95 -152 -153 0
-106 -144 -108 -152 -153 0
-125 -145 -146 -152 -154 0
-126 -145 -147 -152 -154 0
-127 -145 -148 -152 -154 0
-128 -145 -149 -152 -154 0
-129 -145 -150 -152 -154 0
-130 -145 -151 -152 -154 0
-93 -145 -95 -152 -154 0
-106 -145 -108 -152 -154 0
-126 -146 -147 -152 -155 0
-127 -146 -148 -152 -155 0
-128 -146 -149 -152 -155 0
-129 -146 -150 -152 -155 0
-130 -146 -151 -152 -155 0
-93 -146 -95 -152 -155 0
-106 -146 -108 -152 -155 0
-127 -147 -148 -152 -156 0
-128 -147 -149 -152 -156 0
-129 -147 -150 -152 -156 0
-130 -147 -151 -152 -156 0
-93 -147 -95 -152 -156 0
-106 -147 -108 -152 -156 0
-128 -148 -149 -152 -157 0
-129 -148 -150 -152 -157 0
-130 -148 -151 -152 -157 0
-93 -148 -95 -152 -157 0
-106 -148 -108 -152 -157 0
-129 -149 -150 -152 -158 0
-130 -149 -151 -152 -158 0
-93 -149 -95 -152 -158 0
-106 -149 -108 -152 -158 0
-130 -150 -151 -152 -159 0
-93 -150 -95 -152 -159 0
-106 -150 -108 -152 -159 0
-93 -151 -95 -152 -160 0
-106 -151 -108 -152 -160 0
-106 -95 -108 -152 -96 0
-125 -145 -146 -153 -154 0
-126 -145 -147 -153 -154 0
-127 -145 -148 -153 -154 0
-128 -145 -149 -153 -154 0
-129 -145 -150 -153 -154 0
-130 -145 -151 -153 -154 0
-93 -145 -95 -153 -154 0
-106 -145 -108 -153 -154 0
-126 -146 -147 -153 -155 0
-127 -146 -148 -153 -155 0
-128 -146 -149 -153 -155 0
-129 -146 -150 -153 -155 0
-130 -146 -151 -153 -155 0
-93 -146 -95 -153 -155 0
-106 -146 -108 -153 -155 0
-127 -147 -148 -153 -156 0
-128 -147 -149 -153 -156 0
-129 -147 -150 -153 -156 0
-130 -147 -151 -153 -156 0
-93 -147 -95 -153 -156 0
-106 -147 -108 -153 -156 0
-128 -148 -149 -153 -157 0
-129 -148 -150 -153 -157 0
-130 -148 -151 -153 -157 0
-93 -148 -95 -153 -157 0
-106 -148 -108 -153 -157 0
-129 -149 -150 -153 -158 0
-130 -149 -151 -153 -158 0
-93 -149 -95 -153 -158 0
-106 -149 -108 -153 -158 0
-130 -150 -151 -153 -159 0
-93 -150 -95 -153 -159 0
-106 -150 -108 -153 -159 0
-93 -151 -95 -153 -160 0
-106 -151 -108 -153 -160 0
-106 -95 -108 -153 -96 0
-126 -146 -147 -154 -155 0
-127 -146 -148 -154 -155 0
-128 -146 -149 -154 -155 0
-129 -146 -150 -154 -155 0
-130 -146 -151 -154 -155 0
-93 -146 -95 -154 -155 0
-106 -146 -108 -154 -155 0
-127 -147 -148 -154 -156 0
-128 -147 -149 -154 -156 0
-129 -147 -150 -154 -156 0
-130 -147 -151 -154 -156 0
-93 -147 -95 -154 -156 0
-106 -147 -108 -154 -156 0
-128 -148 -149 -154 -157 0
-129 -148 -150 -154 -157 0
-130 -148 -151 -154 -157 0
-93 -148 -95 -154 -157 0
-106 -148 -108 -154 -157 0
-129 -149 -150 -154 -158 0
-130 -149 -151 -154 -158 0
-93 -149 -95 -154 -158 0
-106 -149 -108 -154 -158 0
-130 -150 -151 -154 -159 0
-93 -150 -95 -154 -159 0
-106 -150 -108 -154 -159 0
-93 -151 -95 -154 -160 0
-106 -151 -108 -154 -160 0
-106 -95 -108 -154 -96 0
-127 -147 -148 -155 -156 0
-128 -147 -149 -155 -156 0
-129 -147 -150 -155 -156 0
-130 -147 -151 -155 -156 0
-93 -147 -95 -155 -156 0
-106 -147 -108 -155 -156 0
-128 -148 -149 -155 -157 0
-129 -148 -150 -155 -157 0
-130 -148 -151 -155 -157 0
-93 -148 -95 -155 -157 0
-106 -148 -108 -155 -157 0
-129 -149 -150 -155 -158 0
-130 -149 -151 -155 -158 0
-93 -149 -95 -155 -158 0
-106 -149 -108 -155 -158 0
-130 -150 -151 -155 -159 0
-93 -150 -95 -155 -159 0
-106 -150 -108 -155 -159 0
-93 -151 -95 -155 -160 0
-106 -151 -108 -155 -160 0
-106 -95 -108 -155 -96 0
-128 -148 -149 -156 -157 0
-129 -148 -150 -156 -157 0
-130 -148 -151 -156 -157 0
-93 -148 -95 -156 -157 0
-106 -148 -108 -156 -157 0
-129 -149 -150 -156 -158 0
-130 -149 -151 -156 -158 0
-93 -149 -95 -156 -158 0
-106 -149 -108 -156 -158 0
-130 -150 -151 -156 -159 0
-93 -150 -95 -156 -159 0
-106 -150 -108 -156 -159 0
-93 -151 -95 -156 -160 0
-106 -151 -108 -156 -160 0
-106 -95 -108 -156 -96 0
-129 -149 -150 -157 -158 0
-130 -149 -151 -157 -158 0
-93 -149 -95 -157 -158 0
-106 -149 -108 -157 -158 0
-130 -150 -151 -157 -159 0
-93 -150 -95 -157 -159 0
-106 -150 -108 -157 -159 0
-93 -151 -95 -157 -160 0
-106 -151 -108 -157 -160 0
-106 -95 -108 -157 -96 0
-130 -150 -151 -158 -159 0
-93 -150 -95 -158 -159 0
-106 -150 -108 -158 -159 0
-93 -151 -95 -158 -160 0
-106 -151 -108 -158 -160 0
-106 -95 -108 -158 -96 0
-93 -151 -95 -159 -160 0
-106 -151 -108 -159 -160 0
-106 -95 -108 -159 -96 0
-106 -95 -108 -160 -96 0
-125 -145 -146 -161 -162 0
-126 -145 -147 -161 -162 0
-127 -145 -148 -161 -162 0
-128 -145 -149 -161 -162 0
-129 -145 -150 -161 -162 0
-130 -145 -151 -161 -162 0
-93 -145 -95 -161 -162 0
-106 -145 -108 -161 -162 0
-126 -146 -147 -161 -163 0
-127 -146 -148 -161 -163 0
-128 -146 -149 -161 -163 0
-129 -146 -150 -161 -163 0
-130 -146 -151 -161 -163 0
-93 -146 -95 -161 -163 0
-106 -146 -108 -161 -163 0
-127 -147 -148 -161 -164 0
-128 -147 -149 -161 -164 0
-129 -147 -150 -161 -164 0
-130 -147 -151 -161 -164 0
-93 -147 -95 -161 -164 0
-106 -147 -108 -161 -164 0
-128 -148 -149 -161 -165 0
-129 -148 -150 -161 -165 0
-130 -148 -151 -161 -165 0
-93 -148 -95 -161 -165 0
-106 -148 -108 -161 -165 0
-129 -149 -150 -161 -166 0
-130 -149 -151 -161 -166 0
-93 -149 -95 -161 -166 0
-106 -149 -108 -161 -166 0
-130 -150 -151 -161 -167 0
-93 -150 -95 -161 -167 0
-106 -150 -108 -161 -167 0
-93 -151 -95 -161 -168 0
-106 -151 -108 -161 -168 0
-106 -95 -108 -161 -97 0
-126 -146 -147 -162 -163 0
-127 -146 -148 -162 -163 0
-128 -146 -149 -162 -163 0
-129 -146 -150 -162 -163 0
-130 -146 -151 -162 -163 0
-93 -146 -95 -162 -163 0
-106 -146 -108 -162 -163 0
-127 -147 -148 -162 -164 0
-128 -147 -149 -162 -164 0
-129 -147 -150 -162 -164 0
-130 -147 -151 -162 -164 0
-93 -147 -95 -162 -164 0
-106 -147 -108 -162 -164 0
-128 -148 -149 -162 -165 0
-129 -148 -150 -162 -165 0
-130 -148 -151 -162 -165 0
-93 -148 -95 -162 -165 0
-106 -148 -108 -162 -165 0
-129 -149 -150 -162 -166 0
-130 -149 -151 -162 -166 0
-93 -149 -95 -162 -166 0
-106 -149 -108 -162 -166 0
-130 -150 -151 -162 -167 0
-93 -150 -95 -162 -167 0
-106 -150 -108 -162 -167 0
-93 -151 -95 -162 -168 0
-106 -151 -108 -162 -168 0
-106 -95 -108 -162 -97 0
-127 -147 -148 -163 -164 0
-128 -147 -149 -163 -164 0
-129 -147 -150 -163 -164 0
-130 -147 -151 -163 -164 0
-93 -147 -95 -163 -164 0
-106 -147 -108 -163 -164 0
-128 -148 -149 -163 -165 0
-129 -148 -150 -163 -165 0
-130 -148 -151 -163 -165 0
-93 -148 -95 -163 -165 0
-106 -148 -108 -163 -165 0
-129 -149 -150 -163 -166 0
-130 -149 -151 -163 -166 0
-93 -149 -95 -163 -166 0
-106 -149 -108 -163 -166 0
-130 -150 -151 -163 -167 0
-93 -150 -95 -163 -167 0
-106 -150 -108 -163 -167 0
-93 -151 -95 -163 -168 0
-106 -151 -108 -163 -168 0
-106 -95 -108 -163 -97 0
-128 -148 -149 -164 -165 0
-129 -148 -150 -164 -165 0
-130 -148 -151 -164 -165 0
-93 -148 -95 -164 -165 0
-106 -148 -108 -164 -165 0
-129 -149 -150 -164 -166 0
-130 -149 -151 -164 -166 0
-93 -149 -95 -164 -166 0
-106 -149 -108 -164 -166 0
-130 -150 -151 -164 -167 0
-93 -150 -95 -164 -167 0
-106 -150 -108 -164 -167 0
-93 -151 -95 -164 -168 0
-106 -151 -108 -164 -168 0
-106 -95 -108 -164 -97 0
-129 -149 -150 -165 -166 0
-130 -149 -151 -165 -166 0
-93 -149 -95 -165 -166 0
-106 -149 -108 -165 -166 0
-130 -150 -151 -165 -167 0
-93 -150 -95 -165 -167 0
-106 -150 -108 -165 -167 0
-93 -151 -95 -165 -168 0
-106 -151 -108 -165 -168 0
-106 -95 -108 -165 -97 0
-130 -150 -151 -166 -167 0
-93 -150 -95 -166 -167 0
-106 -150 -108 -166 -167 0
-93 -151 -95 -166 -168 0
-106 -151 -108 -166 -168 0
-106 -95 -108 -166 -97 0
-93 -151 -95 -167 -168 0
-106 -151 -108 -167 -168 0
-106 -95 -108 -167 -97 0
-106 -95 -108 -168 -97 0
-126 -146 -147 -169 -170 0
-127 -146 -148 -169 -170 0
-128 -146 -149 -169 -170 0
-129 -146 -150 -169 -170 0
-130 -146 -151 -169 -170 0
-93 -146 -95 -169 -170 0
-106 -146 -108 -169 -170 0
-127 -147 -148 -169 -171 0
-128 -147 -149 -169 -171 0
-129 -147 -150 -169 -171 0
-130 -147 -151 -169 -171 0
-93 -147 -95 -169 -171 0
-106 -147 -108 -169 -171 0
-128 -148 -149 -169 -172 0
-129 -148 -150 -169 -172 0
-130 -148 -151 -169 -172 0
-93 -148 -95 -169 -172 0
-106 -148 -108 -169 -172 0
-129 -149 -150 -169 -173 0
-130 -149 -151 -169 -173 0
-93 -149 -95 -169 -173 0
-106 -149 -108 -169 -173 0
-130 -150 -151 -169 -174 0
-93 -150 -95 -169 -174 0
-106 -150 -108 -169 -174 0
-93 -151 -95 -169 -175 0
-106 -151 -108 -169 -175 0
-106 -95 -108 -169 -98 0
-127 -147 -148 -170 -171 0
-128 -147 -149 -170 -171 0
-129 -147 -150 -170 -171 0
-130 -147 -151 -170 -171 0
-93 -147 -95 -170 -171 0
-106 -147 -108 -170 -171 0
-128 -148 -149 -170 -172 0
-129 -148 -150 -170 -172 0
-130 -148 -151 -170 -172 0
-93 -148 -95 -170 -172 0
-106 -148 -108 -170 -172 0
-129 -149 -150 -170 -173 0
-130 -149 -151 -170 -173 0
-93 -149 -95 -170 -173 0
-106 -149 -108 -170 -173 0
-130 -150 -151 -170 -174 0
-93 -150 -95 -170 -174 0
-106 -150 -108 -170 -174 0
-93 -151 -95 -170 -175 0
-106 -151 -108 -170 -175 0
-106 -95 -108 -170 -98 0
-128 -148 -149 -171 -172 0
-129 -148 -150 -171 -172 0
-130 -148 -151 -171 -172 0
-93 -148 -95 -171 -172 0
-106 -148 -108 -171 -172 0
-129 -149 -150 -171 -173 0
-130 -149 -151 -171 -173 0
-93 -149 -95 -171 -173 0
-106 -149 -108 -171 -173 0
-130 -150 -151 -171 -174 0
-93 -150 -95 -171 -174 0
-106 -150 -108 -171 -174 0
-93 -151 -95 -171 -175 0
-106 -151 -108 -171 -175 0
-106 -95 -108 -171 -98 0
-129 -149 -150 -172 -173 0
-130 -149 -151 -172 -173 0
-93 -149 -95 -172 -173 0
-106 -149 -108 -172 -173 0
-130 -150 -151 -172 -174 0
-93 -150 -95 -172 -174 0
-106 -150 -108 -172 -174 0
-93 -151 -95 -172 -175 0
-106 -151 -108 -172 -175 0
-106 -95 -108 -172 -98 0
-130 -150 -151 -173 -174 0
-93 -150 -95 -173 -174 0
-106 -150 -108 -173 -174 0
-93 -151 -95 -173 -175 0
-106 -151 -108 -173 -175 0
-106 -95 -108 -173 -98 0
-93 -151 -95 -174 -175 0
-106 -151 -108 -174 -175 0
-106 -95 -108 -174 -98 0
-106 -95 -108 -175 -98 0
-127 -147 -148 -176 -177 0
-128 -147 -149 -176 -177 0
-129 -147 -150 -176 -177 0
-130 -147 -151 -176 -177 0
-93 -147 -95 -176 -177 0
-106 -147 -108 -176 -177 0
-128 -148 -149 -176 -178 0
-129 -148 -150 -176 -178 0
-130 -148 -151 -176 -178 0
-93 -148 -95 -176 -178 0
-106 -148 -108 -176 -178 0
-129 -149 -150 -176 -179 0
-130 -149 -151 -176 -179 0
-93 -149 -95 -176 -179 0
-106 -149 -108 -176 -179 0
-130 -150 -151 -176 -180 0
-93 -150 -95 -176 -180 0
-106 -150 -108 -176 -180 0
-93 -151 -95 -176 -181 0
-106 -151 -108 -176 -181 0
-106 -95 -108 -176 -99 0
-128 -148 -149 -177 -178 0
-129 -148 -150 -177 -178 0
-130 -148 -151 -177 -178 0
-93 -148 -95 -177 -178 0
-106 -148 -108 -177 -178 0
-129 -149 -150 -177 -179 0
-130 -149 -151 -177 -179 0
-93 -149 -95 -177 -179 0
-106 -149 -108 -177 -179 0
-130 -150 -151 -177 -180 0
-93 -150 -95 -177 -180 0
-106 -150 -108 -177 -180 0
-93 -151 -95 -177 -181 0
-106 -151 -108 -177 -181 0
-106 -95 -108 -177 -99 0
-129 -149 -150 -178 -179 0
-130 -149 -151 -178 -179 0
-93 -149 -95 -178 -179 0
-106 -149 -108 -178 -179 0
-130 -150 -151 -178 -180 0
-93 -150 -95 -178 -180 0
-106 -150 -108 -178 -180 0
-93 -151 -95 -178 -181 0
-106 -151 -108 -178 -181 0
-106 -95 -108 -178 -99 0
-130 -150 -151 -179 -180 0
-93 -150 -95 -179 -180 0
-106 -150 -108 -179 -180 0
-93 -151 -95 -179 -181 0
-106 -151 -108 -179 -181 0
-106 -95 -108 -179 -99 0
-93 -151 -95 -180 -181 0
-106 -151 -108 -180 -181 0
-106 -95 -108 -180 -99 0
-106 -95 -108 -181 -99 0
-128 -148 -149 -182 -183 0
-129 -148 -150 -182 -183 0
-130 -148 -151 -182 -183 0
-93 -148 -95 -182 -183 0
-106 -148 -108 -182 -183 0
-129 -149 -150 -182 -184 0
-130 -149 -151 -182 -184 0
-93 -149 -95 -182 -184 0
-106 -149 -108 -182 -184 0
-130 -150 -151 -182 -185 0
-93 -150 -95 -182 -185 0
-106 -150 -108 -182 -185 0
-93 -151 -95 -182 -186 0
-106 -151 -108 -182 -186 0
-106 -95 -108 -182 -100 0
-129 -149 -150 -183 -184 0
-130 -149 -151 -183 -184 0
-93 -149 -95 -183 -184 0
-106 -149 -108 -183 -184 0
-130 -150 -151 -183 -185 0
-93 -150 -95 -183 -185 0
-106 -150 -108 -183 -185 0
-93 -151 -95 -183 -186 0
-106 -151 -108 -183 -186 0
-106 -95 -108 -183 -100 0
-130 -150 -151 -184 -185 0
-93 -150 -95 -184 -185 0
-106 -150 -108 -184 -185 0
-93 -151 -95 -184 -186 0
-106 -151 -108 -184 -186 0
-106 -95 -108 -184 -100 0
-93 -151 -95 -185 -186 0
-106 -151 -108 -185 -186 0
-106 -95 -108 -185 -100 0
-106 -95 -108 -186 -100 0
-129 -149 -150 -187 -188 0
-130 -149 -151 -187 -188 0
-93 -149 -95 -187 -188 0
-106 -149 -108 -187 -188 0
-130 -150 -151 -187 -189 0
-93 -150 -95 -187 -189 0
-106 -150 -108 -187 -189 0
-93 -151 -95 -187 -190 0
-106 -151 -108 -187 -190 0
-106 -95 -108 -187 -101 0
-130 -150 -151 -188 -189 0
-93 -150 -95 -188 -189 0
-106 -150 -108 -188 -189 0
-93 -151 -95 -188 -190 0
-106 -151 -108 -188 -190 0
-106 -95 -108 -188 -101 0
-93 -151 -95 -189 -190 0
-106 -151 -108 -189 -190 0
-106 -95 -108 -189 -101 0
-106 -95 -108 -190 -101 0
-130 -150 -151 -191 -192 0
-93 -150 -95 -191 -192 0
-106 -150 -108 -191 -192 0
-93 -151 -95 -191 -193 0
-106 -151 -108 -191 -193 0
-106 -95 -108 -191 -102 0
-93 -151 -95 -192 -193 0
-106 -151 -108 -192 -193 0
-106 -95 -108 -192 -102 0
-106 -95 -108 -193 -102 0
-93 -151 -95 -194 -195 0
-106 -151 -108 -194 -195 0
-106 -95 -108 -194 -103 0
-106 -95 -108 -195 -103 0
-106 -95 -108 -196 -104 0
-125 -154 -155 -161 -162 0
-126 -154 -156 -161 -162 0
-127 -154 -157 -161 -162 0
-128 -154 -158 -161 -162 0
-129 -154 -159 -161 -162 0
-130 -154 -160 -161 -162 0
-93 -154 -96 -161 -162 0
-106 -154 -109 -161 -162 0
-126 -155 -156 -161 -163 0
-127 -155 -157 -161 -163 0
-128 -155 -158 -161 -163 0
-129 -155 -159 -161 -163 0
-130 -155 -160 -161 -163 0
-93 -155 -96 -161 -163 0
-106 -155 -109 -161 -163 0
-127 -156 -157 -161 -164 0
-128 -156 -158 -161 -164 0
-129 -156 -159 -161 -164 0
-130 -156 -160 -161 -164 0
-93 -156 -96 -161 -164 0
-106 -156 -109 -161 -164 0
-128 -157 -158 -161 -165 0
-129 -157 -159 -161 -165 0
-130 -157 -160 -161 -165 0
-93 -157 -96 -161 -165 0
-106 -157 -109 -161 -165 0
-129 -158 -159 -161 -166 0
-130 -158 -160 -161 -166 0
-93 -158 -96 -161 -166 0
-106 -158 -109 -161 -166 0
-130 -159 -160 -161 -167 0
-93 -159 -96 -161 -167 0
-106 -159 -109 -161 -167 0
-93 -160 -96 -161 -168 0
-106 -160 -109 -161 -168 0
-106 -96 -109 -161 -97 0
-126 -155 -156 -162 -163 0
-127 -155 -157 -162 -163 0
-128 -155 -158 -162 -163 0
-129 -155 -159 -162 -163 0
-130 -155 -160 -162 -163 0
-93 -155 -96 -162 -163 0
-106 -155 -109 -162 -163 0
-127 -156 -157 -162 -164 0
-128 -156 -158 -162 -164 0
-129 -156 -159 -162 -164 0
-130 -156 -160 -162 -164 0
-93 -156 -96 -162 -164 0
-106 -156 -109 -162 -164 0
-128 -157 -158 -162 -165 0
-129 -157 -159 -162 -165 0
-130 -157 -160 -162 -165 0
-93 -157 -96 -162 -165 0
-106 -157 -109 -162 -165 0
-129 -158 -159 -162 -166 0
-130 -158 -160 -162 -166 0
-93 -158 -96 -162 -166 0
-106 -158 -109 -162 -166 0
-130 -159 -160 -162 -167 0
-93 -159 -96 -162 -167 0
-106 -159 -109 -162 -167 0
-93 -160 -96 -162 -168 0
-106 -160 -109 -162 -168 0
-106 -96 -109 -162 -97 0
-127 -156 -157 -163 -164 0
-128 -156 -158 -163 -164 0
-129 -156 -159 -163 -164 0
-130 -156 -160 -163 -164 0
-93 -156 -96 -163 -164 0
-106 -156 -109 -163 -164 0
-128 -157 -158 -163 -165 0
-129 -157 -159 -163 -165 0
-130 -157 -160 -163 -165 0
-93 -157 -96 -163 -165 0
-106 -157 -109 -163 -165 0
-129 -158 -159 -163 -166 0
-130 -158 -160 -163 -166 0
-93 -158 -96 -163 -166 0
-106 -158 -109 -163 -166 0
-130 -159 -160 -163 -167 0
-93 -159 -96 -163 -167 0
-106 -159 -109 -163 -167 0
-93 -160 -96 -163 -168 0
-106 -160 -109 -163 -168 0
-106 -96 -109 -163 -97 0
-128 -157 -158 -164 -165 0
-129 -157 -159 -164 -165 0
-130 -157 -160 -164 -165 0
-93 -157 -96 -164 -165 0
-106 -157 -109 -164 -165 0
-129 -158 -159 -164 -166 0
-130 -158 -160 -164 -166 0
-93 -158 -96 -164 -166 0
-106 -158 -109 -164 -166 0
-130 -159 -160 -164 -167 0
-93 -159 -96 -164 -167 0
-106 -159 -109 -164 -167 0
-93 -160 -96 -164 -168 0
-106 -160 -109 -164 -168 0
-106 -96 -109 -164 -97 0
-129 -158 -159 -165 -166 0
-130 -158 -160 -165 -166 0
-93 -158 -96 -165 -166 0
-106 -158 -109 -165 -166 0
-130 -159 -160 -165 -167 0
-93 -159 -96 -165 -167 0
-106 -159 -109 -165 -167 0
-93 -160 -96 -165 -168 0
-106 -160 -109 -165 -168 0
-106 -96 -109 -165 -97 0
-130 -159 -160 -166 -167 0
-93 -159 -96 -166 -167 0
-106 -159 -109 -166 -167 0
-93 -160 -96 -166 -168 0
-106 -160 -109 -166 -168 0
-106 -96 -109 -166 -97 0
-93 -160 -96 -167 -168 0
-106 -160 -109 -167 -168 0
-106 -96 -109 -167 -97 0
-106 -96 -109 -168 -97 0
-126 -155 -156 -169 -170 0
-127 -155 -157 -169 -170 0
-128 -155 -158 -169 -170 0
-129 -155 -159 -169 -170 0
-130 -155 -160 -169 -170 0
-93 -155 -96 -169 -170 0
-106 -155 -109 -169 -170 0
-127 -156 -157 -169 -171 0
-128 -156 -158 -169 -171 0
-129 -156 -159 -169 -171 0
-130 -156 -160 -169 -171 0
-93 -156 -96 -169 -171 0
-106 -156 -109 -169 -171 0
-128 -157 -158 -169 -172 0
-129 -157 -159 -169 -172 0
-130 -157 -160 -169 -172 0
-93 -157 -96 -169 -172 0
-106 -157 -109 -169 -172 0
-129 -158 -159 -169 -173 0
-130 -158 -160 -169 -173 0
-93 -158 -96 -169 -173 0
-106 -158 -109 -169 -173 0
-130 -159 -160 -169 -174 0
-93 -159 -96 -169 -174 0
-106 -159 -109 -169 -174 0
-93 -160 -96 -169 -175 0
-106 -160 -109 -169 -175 0
-106 -96 -109 -169 -98 0
-127 -156 -157 -170 -171 0
-128 -156 -158 -170 -171 0
-129 -156 -159 -170 -171 0
-130 -156 -160 -170 -171 0
-93 -156 -96 -170 -171 0
-106 -156 -109 -170 -171 0
-128 -157 -158 -170 -172 0
-129 -157 -159 -170 -172 0
-130 -157 -160 -170 -172 0
-93 -157 -96 -170 -172 0
-106 -157 -109 -170 -172 0
-129 -158 -159 -170 -173 0
-130 -158 -160 -170 -173 0
-93 -158 -96 -170 -173 0
-106 -158 -109 -170 -173 0
-130 -159 -160 -170 -174 0
-93 -159 -96 -170 -174 0
-106 -159 -109 -170 -174 0
-93 -160 -96 -170 -175 0
-106 -160 -109 -170 -175 0
-106 -96 -109 -170 -98 0
-128 -157 -158 -171 -172 0
-129 -157 -159 -171 -172 0
-130 -157 -160 -171 -172 0
-93 -157 -96 -171 -172 0
-106 -157 -109 -171 -172 0
-129 -158 -159 -171 -173 0
-130 -158 -160 -171 -173 0
-93 -158 -96 -171 -173 0
-106 -158 -109 -171 -173 0
-130 -159 -160 -171 -174 0
-93 -159 -96 -171 -174 0
-106 -159 -109 -171 -174 0
-93 -160 -96 -171 -175 0
-106 -160 -109 -171 -175 0
-106 -96 -109 -171 -98 0
-129 -158 -159 -172 -173 0
-130 -158 -160 -172 -173 0
-93 -158 -96 -172 -173 0
-106 -158 -109 -172 -173 0
-130 -159 -160 -172 -174 0
-93 -159 -96 -172 -174 0
-106 -159 -109 -172 -174 0
-93 -160 -96 -172 -175 0
-106 -160 -109 -172 -175 0
-106 -96 -109 -172 -98 0
-130 -159 -160 -173 -174 0
-93 -159 -96 -173 -174 0
-106 -159 -109 -173 -174 0
-93 -160 -96 -173 -175 0
-106 -160 -109 -173 -175 0
-106 -96 -109 -173 -98 0
-93 -160 -96 -174 -175 0
-106 -160 -109 -174 -175 0
-106 -96 -109 -174 -98 0
-106 -96 -109 -175 -98 0
-127 -156 -157 -176 -177 0
-128 -156 -158 -176 -177 0
-129 -156 -159 -176 -177 0
-130 -156 -160 -176 -177 0
-93 -156 -96 -176 -177 0
-106 -156 -109 -176 -177 0
-128 -157 -158 -176 -178 0
-129 -157 -159 -176 -178 0
-130 -157 -160 -176 -178 0
-93 -157 -96 -176 -178 0
-106 -157 -109 -176 -178 0
-129 -158 -159 -176 -179 0
-130 -158 -160 -176 -179 0
-93 -158 -96 -176 -179 0
-106 -158 -109 -176 -179 0
-130 -159 -160 -176 -180 0
-93 -159 -96 -176 -180 0
-106 -159 -109 -176 -180 0
-93 -160 -96 -176 -181 0
-106 -160 -109 -176 -181 0
-106 -96 -109 -176 -99 0
-128 -157 -158 -177 -178 0
-129 -157 -159 -177 -178 0
-130 -157 -160 -177 -178 0
-93 -157 -96 -177 -178 0
-106 -157 -109 -177 -178 0
-129 -158 -159 -177 -179 0
-130 -158 -160 -177 -179 0
-93 -158 -96 -177 -179 0
-106 -158 -109 -177 -179 0
-130 -159 -160 -177 -180 0
-93 -159 -96 -177 -180 0
-106 -159 -109 -177 -180 0
-93 -160 -96 -177 -181 0
-106 -160 -109 -177 -181 0
-106 -96 -109 -177 -99 0
-129 -158 -159 -178 -179 0
-130 -158 -160 -178 -179 0
-93 -158 -96 -178 -179 0
-106 -158 -109 -178 -179 0
-130 -159 -160 -178 -180 0
-93 -159 -96 -178 -180 0
-106 -159 -109 -178 -180 0
-93 -160 -96 -178 -181 0
-106 -160 -109 -178 -181 0
-106 -96 -109 -178 -99 0
-130 -159 -160 -179 -180 0
-93 -159 -96 -179 -180 0
-106 -159 -109 -179 -180 0
-93 -160 -96 -179 -181 0
-106 -160 -109 -179 -181 0
-106 -96 -109 -179 -99 0
-93 -160 -96 -180 -181 0
-106 -160 -109 -180 -181 0
-106 -96 -109 -180 -99 0
-106 -96 -109 -181 -99 0
-128 -157 -158 -182 -183 0
-129 -157 -159 -182 -183 0
-130 -157 -160 -182 -183 0
-93 -157 -96 -182 -183 0
-106 -157 -109 -182 -183 0
-129 -158 -159 -182 -184 0
-130 -158 -160 -182 -184 0
-93 -158 -96 -182 -184 0
-106 -158 -109 -182 -184 0
-130 -159 -160 -182 -185 0
-93 -159 -96 -182 -185 0
-106 -159 -109 -182 -185 0
-93 -160 -96 -182 -186 0
-106 -160 -109 -182 -186 0
-106 -96 -109 -182 -100 0
-129 -158 -159 -183 -184 0
-130 -158 -160 -183 -184 0
-93 -158 -96 -183 -184 0
-106 -158 -109 -183 -184 0
-130 -159 -160 -183 -185 0
-93 -159 -96 -183 -185 0
-106 -159 -109 -183 -185 0
-93 -160 -96 -183 -186 0
-106 -160 -109 -183 -186 0
-106 -96 -109 -183 -100 0
-130 -159 -160 -184 -185 0
-93 -159 -96 -184 -185 0
-106 -159 -109 -184 -185 0
-93 -160 -96 -184 -186 0
-106 -160 -109 -184 -186 0
-106 -96 -109 -184 -100 0
-93 -160 -96 -185 -186 0
-106 -160 -109 -185 -186 0
-106 -96 -109 -185 -100 0
-106 -96 -109 -186 -100 0
-129 -158 -159 -187 -188 0
-130 -158 -160 -187 -188 0
-93 -158 -96 -187 -188 0
-106 -158 -109 -187 -188 0
-130 -159 -160 -187 -189 0
-93 -159 -96 -187 -189 0
-106 -159 -109 -187 -189 0
-93 -160 -96 -187 -190 0
-106 -160 -109 -187 -190 0
-106 -96 -109 -187 -101 0
-130 -159 -160 -188 -189 0
-93 -159 -96 -188 -189 0
-106 -159 -109 -188 -189 0
-93 -160 -96 -188 -190 0
-106 -160 -109 -188 -190 0
-106 -96 -109 -188 -101 0
-93 -160 -96 -189 -190 0
-106 -160 -109 -189 -190 0
-106 -96 -109 -189 -101 0
-106 -96 -109 -190 -101 0
-130 -159 -160 -191 -192 0
-93 -159 -96 -191 -192 0
-106 -159 -109 -191 -192 0
-93 -160 -96 -191 -193 0
-106 -160 -109 -191 -193 0
-106 -96 -109 -191 -102 0
-93 -160 -96 -192 -193 0
-106 -160 -109 -192 -193 0
-106 -96 -109 -192 -102 0
-106 -96 -109 -193 -102 0
-93 -160 -96 -194 -195 0
-106 -160 -109 -194 -195 0
-106 -96 -109 -194 -103 0
-106 -96 -109 -195 -103 0
-106 -96 -109 -196 -104 0
-126 -163 -164 -169 -170 0
-127 -163 -165 -169 -170 0
-128 -163 -166 -169 -170 0
-129 -163 -167 -169 -170 0
-130 -163 -168 -169 -170 0
-93 -163 -97 -169 -170 0
-106 -163 -110 -169 -170 0
-127 -164 -165 -169 -171 0
-128 -164 -166 -169 -171 0
-129 -164 -167 -169 -171 0
-130 -164 -168 -169 -171 0
-93 -164 -97 -169 -171 0
-106 -164 -110 -169 -171 0
-128 -165 -166 -169 -172 0
-129 -165 -167 -169 -172 0
-130 -165 -168 -169 -172 0
-93 -165 -97 -169 -172 0
-106 -165 -110 -169 -172 0
-129 -166 -167 -169 -173 0
-130 -166 -168 -169 -173 0
-93 -166 -97 -169 -173 0
-106 -166 -110 -169 -173 0
-130 -167 -168 -169 -174 0
-93 -167 -97 -169 -174 0
-106 -167 -110 -169 -174 0
-93 -168 -97 -169 -175 0
-106 -168 -110 -169 -175 0
-106 -97 -110 -169 -98 0
-127 -164 -165 -170 -171 0
-128 -164 -166 -170 -171 0
-129 -164 -167 -170 -171 0
-130 -164 -168 -170 -171 0
-93 -164 -97 -170 -171 0
-106 -164 -110 -170 -171 0
-128 -165 -166 -170 -172 0
-129 -165 -167 -170 -172 0
-130 -165 -168 -170 -172 0
-93 -165 -97 -170 -172 0
-106 -165 -110 -170 -172 0
-129 -166 -167 -170 -173 0
-130 -166 -168 -170 -173 0
-93 -166 -97 -170 -173 0
-106 -166 -110 -170 -173 0
-130 -167 -168 -170 -174 0
-93 -167 -97 -170 -174 0
-106 -167 -110 -170 -174 0
-93 -168 -97 -170 -175 0
-106 -168 -110 -170 -175 0
-106 -97 -110 -170 -98 0
-128 -165 -166 -171 -172 0
-129 -165 -167 -171 -172 0
-130 -165 -168 -171 -172 0
-93 -165 -97 -171 -172 0
-106 -165 -110 -171 -172 0
-129 -166 -167 -171 -173 0
-130 -166 -168 -171 -173 0
-93 -166 -97 -171 -173 0
-106 -166 -110 -171 -173 0
-130 -167 -168 -171 -174 0
-93 -167 -97 -171 -174 0
-106 -167 -110 -171 -174 0
-93 -168 -97 -171 -175 0
-106 -168 -110 -171 -175 0
-106 -97 -110 -171 -98 0
-129 -166 -167 -172 -173 0
-130 -166 -168 -172 -173 0
-93 -166 -97 -172 -173 0
-106 -166 -110 -172 -173 0
-130 -167 -168 -172 -174 0
-93 -167 -97 -172 -174 0
-106 -167 -110 -172 -174 0
-93 -168 -97 -172 -175 0
-106 -168 -110 -172 -175 0
-106 -97 -110 -172 -98 0
-130 -167 -168 -173 -174 0
-93 -167 -97 -173 -174 0
-106 -167 -110 -173 -174 0
-93 -168 -97 -173 -175 0
-106 -168 -110 -173 -175 0
-106 -97 -110 -173 -98 0
-93 -168 -97 -174 -175 0
-106 -168 -110 -174 -175 0
-106 -97 -110 -174 -98 0
-106 -97 -110 -175 -98 0
-127 -164 -165 -176 -177 0
-128 -164 -166 -176 -177 0
-129 -164 -167 -176 -177 0
-130 -164 -168 -176 -177 0
-93 -164 -97 -176 -177 0
-106 -164 -110 -176 -177 0
-128 -165 -166 -176 -178 0
-129 -165 -167 -176 -178 0
-130 -165 -168 -176 -178 0
-93 -165 -97 -176 -178 0
-106 -165 -110 -176 -178 0
-129 -166 -167 -176 -179 0
-130 -166 -168 -176 -179 0
-93 -166 -97 -176 -179 0
-106 -166 -110 -176 -179 0
-130 -167 -168 -176 -180 0
-93 -167 -97 -176 -180 0
-106 -167 -110 -176 -180 0
-93 -168 -97 -176 -181 0
-106 -168 -110 -176 -181 0
-106 -97 -110 -176 -99 0
-128 -165 -166 -177 -178 0
-129 -165 -167 -177 -178 0
-130 -165 -168 -177 -178 0
-93 -165 -97 -177 -178 0
-106 -165 -110 -177 -178 0
-129 -166 -167 -177 -179 0
-130 -166 -168 -177 -179 0
-93 -166 -97 -177 -179 0
-106 -166 -110 -177 -179 0
-130 -167 -168 -177 -180 0
-93 -167 -97 -177 -180 0
-106 -167 -110 -177 -180 0
-93 -168 -97 -177 -181 0
-106 -168 -110 -177 -181 0
-106 -97 -110 -177 -99 0
-129 -166 -167 -178 -179 0
-130 -166 -168 -178 -179 0
-93 -166 -97 -178 -179 0
-106 -166 -110 -178 -179 0
-130 -167 -168 -178 -180 0
-93 -167 -97 -178 -180 0
-106 -167 -110 -178 -180 0
-93 -168 -97 -178 -181 0
-106 -168 -110 -178 -181 0
-106 -97 -110 -178 -99 0
-130 -167 -168 -179 -180 0
-93 -167 -97 -179 -180 0
-106 -167 -110 -179 -180 0
-93 -168 -97 -179 -181 0
-106 -168 -110 -179 -181 0
-106 -97 -110 -179 -99 0
-93 -168 -97 -180 -181 0
-106 -168 -110 -180 -181 0
-106 -97 -110 -180 -99 0
-106 -97 -110 -181 -99 0
-128 -165 -166 -182 -183 0
-129 -165 -167 -182 -183 0
-130 -165 -168 -182 -183 0
-93 -165 -97 -182 -183 0
-106 -165 -110 -182 -183 0
-129 -166 -167 -182 -184 0
-130 -166 -168 -182 -184 0
-93 -166 -97 -182 -184 0
-106 -166 -110 -182 -184 0
-130 -167 -168 -182 -185 0
-93 -167 -97 -182 -185 0
-106 -167 -110 -182 -185 0
-93 -168 -97 -182 -186 0
-106 -168 -110 -182 -186 0
-106 -97 -110 -182 -100 0
-129 -166 -167 -183 -184 0
-130 -166 -168 -183 -184 0
-93 -166 -97 -183 -184 0
-106 -166 -110 -183 -184 0
-130 -167 -168 -183 -185 0
-93 -167 -97 -183 -185 0
-106 -167 -110 -183 -185 0
-93 -168 -97 -183 -186 0
-106 -168 -110 -183 -186 0
-106 -97 -110 -183 -100 0
-130 -167 -168 -184 -185 0
-93 -167 -97 -184 -185 0
-106 -167 -110 -184 -185 0
-93 -168 -97 -184 -186 0
-106 -168 -110 -184 -186 0
-106 -97 -110 -184 -100 0
-93 -168 -97 -185 -186 0
-106 -168 -110 -185 -186 0
-106 -97 -110 -185 -100 0
-106 -97 -110 -186 -100 0
-129 -166 -167 -187 -188 0
-130 -166 -168 -187 -188 0
-93 -166 -97 -187 -188 0
-106 -166 -110 -187 -188 0
-130 -167 -168 -187 -189 0
-93 -167 -97 -187 -189 0
-106 -167 -110 -187 -189 0
-93 -168 -97 -187 -190 0
-106 -168 -110 -187 -190 0
-106 -97 -110 -187 -101 0
-130 -167 -168 -188 -189 0
-93 -167 -97 -188 -189 0
-106 -167 -110 -188 -189 0
-93 -168 -97 -188 -190 0
-106 -168 -110 -188 -190 0
-106 -97 -110 -188 -101 0
-93 -168 -97 -189 -190 0
-106 -168 -110 -189 -190 0
-106 -97 -110 -189 -101 0
-106 -97 -110 -190 -101 0
-130 -167 -168 -191 -192 0
-93 -167 -97 -191 -192 0
-106 -167 -110 -191 -192 0
-93 -168 -97 -191 -193 0
-106 -168 -110 -191 -193 0
-106 -97 -110 -191 -102 0
-93 -168 -97 -192 -193 0
-106 -168 -110 -192 -193 0
-106 -97 -110 -192 -102 0
-106 -97 -110 -193 -102 0
-93 -168 -97 -194 -195 0
-106 -168 -110 -194 -195 0
-106 -97 -110 -194 -103 0
-106 -97 -110 -195 -103 0
-106 -97 -110 -196 -104 0
-127 -171 -172 -176 -177 0
-128 -171 -173 -176 -177 0
-129 -171 -174 -176 -177 0
-130 -171 -175 -176 -177 0
-93 -171 -98 -176 -177 0
-106 -171 -111 -176 -177 0
-128 -172 -173 -176 -178 0
-129 -172 -174 -176 -178 0
-130 -172 -175 -176 -178 0
-93 -172 -98 -176 -178 0
-106 -172 -111 -176 -178 0
-129 -173 -174 -176 -179 0
-130 -173 -175 -176 -179 0
-93 -173 -98 -176 -179 0
-106 -173 -111 -176 -179 0
-130 -174 -175 -176 -180 0
-93 -174 -98 -176 -180 0
-106 -174 -111 -176 -180 0
-93 -175 -98 -176 -181 0
-106 -175 -111 -176 -181 0
-106 -98 -111 -176 -99 0
-128 -172 -173 -177 -178 0
-129 -172 -174 -177 -178 0
-130 -172 -175 -177 -178 0
-93 -172 -98 -177 -178 0
-106 -172 -111 -177 -178 0
-129 -173 -174 -177 -179 0
-130 -173 -175 -177 -179 0
-93 -173 -98 -177 -179 0
-106 -173 -111 -177 -179 0
-130 -174 -175 -177 -180 0
-93 -174 -98 -177 -180 0
-106 -174 -111 -177 -180 0
-93 -175 -98 -177 -181 0
-106 -175 -111 -177 -181 0
-106 -98 -111 -177 -99 0
-129 -173 -174 -178 -179 0
-130 -173 -175 -178 -179 0
-93 -173 -98 -178 -179 0
-106 -173 -111 -178 -179 0
-130 -174 -175 -178 -180 0
-93 -174 -98 -178 -180 0
-106 -174 -111 -178 -180 0
-93 -175 -98 -178 -181 0
-106 -175 -111 -178 -181 0
-106 -98 -111 -178 -99 0
-130 -174 -175 -179 -180 0
-93 -174 -98 -179 -180 0
-106 -174 -111 -179 -180 0
-93 -175 -98 -179 -181 0
-106 -175 -111 -179 -181 0
-106 -98 -111 -179 -99 0
-93 -175 -98 -180 -181 0
-106 -175 -111 -180 -181 0
-106 -98 -111 -180 -99 0
-106 -98 -111 -181 -99 0
-128 -172 -173 -182 -183 0
-129 -172 -174 -182 -183 0
-130 -172 -175 -182 -183 0
-93 -172 -98 -182 -183 0
-106 -172 -111 -182 -183 0
-129 -173 -174 -182 -184 0
-130 -173 -175 -182 -184 0
-93 -173 -98 -182 -184 0
-106 -173 -111 -182 -184 0
-130 -174 -175 -182 -185 0
-93 -174 -98 -182 -185 0
-106 -174 -111 -182 -185 0
-93 -175 -98 -182 -186 0
-106 -175 -111 -182 -186 0
-106 -98 -111 -182 -100 0
-129 -173 -174 -183 -184 0
-130 -173 -175 -183 -184 0
-93 -173 -98 -183 -184 0
-106 -173 -111 -183 -184 0
-130 -174 -175 -183 -185 0
-93 -174 -98 -183 -185 0
-106 -174 -111 -183 -185 0
-93 -175 -98 -183 -186 0
-106 -175 -111 -183 -186 0
-106 -98 -111 -183 -100 0
-130 -174 -175 -184 -185 0
-93 -174 -98 -184 -185 0
-106 -174 -111 -184 -185 0
-93 -175 -98 -184 -186 0
-106 -175 -111 -184 -186 0
-106 -98 -111 -184 -100 0
-93 -175 -98 -185 -186 0
-106 -175 -111 -185 -186 0
-106 -98 -111 -185 -100 0
-106 -98 -111 -186 -100 0
-129 -173 -174 -187 -188 0
-130 -173 -175 -187 -188 0
-93 -173 -98 -187 -188 0
-106 -173 -111 -187 -188 0
-130 -174 -175 -187 -189 0
-93 -174 -98 -187 -189 0
-106 -174 -111 -187 -189 0
-93 -175 -98 -187 -190 0
-106 -175 -111 -187 -190 0
-106 -98 -111 -187 -101 0
-130 -174 -175 -188 -189 0
-93 -174 -98 -188 -189 0
-106 -174 -111 -188 -189 0
-93 -175 -98 -188 -190 0
-106 -175 -111 -188 -190 0
-106 -98 -111 -188 -101 0
-93 -175 -98 -189 -190 0
-106 -175 -111 -189 -190 0
-106 -98 -111 -189 -101 0
-106 -98 -111 -190 -101 0
-130 -174 -175 -191 -192 0
-93 -174 -98 -191 -192 0
-106 -174 -111 -191 -192 0
-93 -175 -98 -191 -193 0
-106 -175 -111 -191 -193 0
-106 -98 -111 -191 -102 0
-93 -175 -98 -192 -193 0
-106 -175 -111 -192 -193 0
-106 -98 -111 -192 -102 0
-106 -98 -111 -193 -102 0
-93 -175 -98 -194 -195 0
-106 -175 -111 -194 -195 0
-106 -98 -111 -194 -103 0
-106 -98 -111 -195 -103 0
-106 -98 -111 -196 -104 0
-128 -178 -179 -182 -183 0
-129 -178 -180 -182 -183 0
-130 -178 -181 -182 -183 0
-93 -178 -99 -182 -183 0
-106 -178 -112 -182 -183 0
-129 -179 -180 -182 -184 0
-130 -179 -181 -182 -184 0
-93 -179 -99 -182 -184 0
-106 -179 -112 -182 -184 0
-130 -180 -181 -182 -185 0
-93 -180 -99 -182 -185 0
-106 -180 -112 -182 -185 0
-93 -181 -99 -182 -186 0
-106 -181 -112 -182 -186 0
-106 -99 -112 -182 -100 0
-129 -179 -180 -183 -184 0
-130 -179 -181 -183 -184 0
-93 -179 -99 -183 -184 0
-106 -179 -112 -183 -184 0
-130 -180 -181 -183 -185 0
-93 -180 -99 -183 -185 0
-106 -180 -112 -183 -185 0
-93 -181 -99 -183 -186 0
-106 -181 -112 -183 -186 0
-106 -99 -112 -183 -100 0
-130 -180 -181 -184 -185 0
-93 -180 -99 -184 -185 0
-106 -180 -112 -184 -185 0
-93 -181 -99 -184 -186 0
-106 -181 -112 -184 -186 0
-106 -99 -112 -184 -100 0
-93 -181 -99 -185 -186 0
-106 -181 -112 -185 -186 0
-106 -99 -112 -185 -100 0
-106 -99 -112 -186 -100 0
-129 -179 -180 -187 -188 0
-130 -179 -181 -187 -188 0
-93 -179 -99 -187 -188 0
-106 -179 -112 -187 -188 0
-130 -180 -181 -187 -189 0
-93 -180 -99 -187 -189 0
-106 -180 -112 -187 -189 0
-93 -181 -99 -187 -190 0
-106 -181 -112 -187 -190 0
-106 -99 -112 -187 -101 0
-130 -180 -181 -188 -189 0
-93 -180 -99 -188 -189 0
-106 -180 -112 -188 -189 0
-93 -181 -99 -188 -190 0
-106 -181 -112 -188 -190 0
-106 -99 -112 -188 -101 0
-93 -181 -99 -189 -190 0
-106 -181 -112 -189 -190 0
-106 -99 -112 -189 -101 0
-106 -99 -112 -190 -101 0
-130 -180 -181 -191 -192 0
-93 -180 -99 -191 -192 0
-106 -180 -112 -191 -192 0
-93 -181 -99 -191 -193 0
-106 -181 -112 -191 -193 0
-106 -99 -112 -191 -102 0
-93 -181 -99 -192 -193 0
-106 -181 -112 -192 -193 0
-106 -99 -112 -192 -102 0
-106 -99 -112 -193 -102 0
-93 -181 -99 -194 -195 0
-106 -181 -112 -194 -195 0
-106 -99 -112 -194 -103 0
-106 -99 -112 -195 -103 0
-106 -99 -112 -196 -104 0
-129 -184 -185 -187 -188 0
-130 -184 -186 -187 -188 0
-93 -184 -100 -187 -188 0
-106 -184 -113 -187 -188 0
-130 -185 -186 -187 -189 0
-93 -185 -100 -187 -189 0
-106 -185 -113 -187 -189 0
-93 -186 -100 -187 -190 0
-106 -186 -113 -187 -190 0
-106 -100 -113 -187 -101 0
-130 -185 -186 -188 -189 0
-93 -185 -100 -188 -189 0
-106 -185 -113 -188 -189 0
-93 -186 -100 -188 -190 0
-106 -186 -113 -188 -190 0
-106 -100 -113 -188 -101 0
-93 -186 -100 -189 -190 0
-106 -186 -113 -189 -190 0
-106 -100 -113 -189 -101 0
-106 -100 -113 -190 -101 0
-130 -185 -186 -191 -192 0
-93 -185 -100 -191 -192 0
-106 -185 -113 -191 -192 0
-93 -186 -100 -191 -193 0
-106 -186 -113 -191 -193 0
-106 -100 -113 -191 -102 0
-93 -186 -100 -192 -193 0
-106 -186 -113 -192 -193 0
-106 -100 -113 -192 -102 0
-106 -100 -113 -193 -102 0
-93 -186 -100 -194 -195 0
-106 -186 -113 -194 -195 0
-106 -100 -113 -194 -103 0
-106 -100 -113 -195 -103 0
-106 -100 -113 -196 -104 0
-130 -189 -190 -191 -192 0
-93 -189 -101 -191 -192 0
-106 -189 -114 -191 -192 0
-93 -190 -101 -191 -193 0
-106 -190 -114 -191 -193 0
-106 -101 -114 -191 -102 0
-93 -190 -101 -192 -193 0
-106 -190 -114 -192 -193 0
-106 -101 -114 -192 -102 0
-106 -101 -114 -193 -102 0
-93 -190 -101 -194 -195 0
-106 -190 -114 -194 -195 0
-106 -101 -114 -194 -103 0
-106 -101 -114 -195 -103 0
-106 -101 -114 -196 -104 0
-93 -193 -102 -194 -195 0
-106 -193 -115 -194 -195 0
-106 -102 -115 -194 -103 0
-106 -102 -115 -195 -103 0
-106 -102 -115 -196 -104 0
-106 -103 -116 -196 -104 0
-135 -144 -145 -152 -153 0
-136 -144 -146 -152 -153 0
-137 -144 -147 -152 -153 0
-138 -144 -148 -152 -153 0
-139 -144 -149 -152 -153 0
-140 -144 -150 -152 -153 0
-141 -144 -151 -152 -153 0
-94 -144 -95 -152 -153 0
-107 -144 -108 -152 -153 0
-119 -144 -120 -152 -153 0
-136 -145 -146 -152 -154 0
-137 -145 -147 -152 -154 0
-138 -145 -148 -152 -154 0
-139 -145 -149 -152 -154 0
-140 -145 -150 -152 -154 0
-141 -145 -151 -152 -154 0
-94 -145 -95 -152 -154 0
-107 -145 -108 -152 -154 0
-119 -145 -120 -152 -154 0
-137 -146 -147 -152 -155 0
-138 -146 -148 -152 -155 0
-139 -146 -149 -152 -155 0
-140 -146 -150 -152 -155 0
-141 -146 -151 -152 -155 0
-94 -146 -95 -152 -155 0
-107 -146 -108 -152 -155 0
-119 -146 -120 -152 -155 0
-138 -147 -148 -152 -156 0
-139 -147 -149 -152 -156 0
-140 -147 -150 -152 -156 0
-141 -147 -151 -152 -156 0
-94 -147 -95 -152 -156 0
-107 -147 -108 -152 -156 0
-119 -147 -120 -152 -156 0
-139 -148 -149 -152 -157 0
-140 -148 -150 -152 -157 0
-141 -148 -151 -152 -157 0
-94 -148 -95 -152 -157 0
-107 -148 -108 -152 -157 0
-119 -148 -120 -152 -157 0
-140 -149 -150 -152 -158 0
-141 -149 -151 -152 -158 0
-94 -149 -95 -152 -158 0
-107 -149 -108 -152 -158 0
-119 -149 -120 -152 -158 0
-141 -150 -151 -152 -159 0
-94 -150 -95 -152 -159 0
-107 -150 -108 -152 -159 0
-119 -150 -120 -152 -159 0
-94 -151 -95 -152 -160 0
-107 -151 -108 -152 -160 0
-119 -151 -120 -152 -160 0
-107 -95 -108 -152 -96 0
-119 -95 -120 -152 -96 0
-119 -108 -120 -152 -109 0
-136 -145 -146 -153 -154 0
-137 -145 -147 -153 -154 0
-138 -145 -148 -153 -154 0
-139 -145 -149 -153 -154 0
-140 -145 -150 -153 -154 0
-141 -145 -151 -153 -154 0
-94 -145 -95 -153 -154 0
-107 -145 -108 -153 -154 0
-119 -145 -120 -153 -154 0
-137 -146 -147 -153 -155 0
-138 -146 -148 -153 -155 0
-139 -146 -149 -153 -155 0
-140 -146 -150 -153 -155 0
-141 -146 -151 -153 -155 0
-94 -146 -95 -153 -155 0
-107 -146 -108 -153 -155 0
-119 -146 -120 -153 -155 0
-138 -147 -148 -153 -156 0
-139 -147 -149 -153 -156 0
-140 -147 -150 -153 -156 0
-141 -147 -151 -153 -156 0
-94 -147 -95 -153 -156 0
-107 -147 -108 -153 -156 0
-119 -147 -120 -153 -156 0
-139 -148 -149 -153 -157 0
-140 -148 -150 -153 -157 0
-141 -148 -151 -153 -157 0
-94 -148 -95 -153 -157 0
-107 -148 -108 -153 -157 0
-119 -148 -120 -153 -157 0
-140 -149 -150 -153 -158 0
-141 -149 -151 -153 -158 0
-94 -149 -95 -153 -158 0
-107 -149 -108 -153 -158 0
-119 -149 -120 -153 -158 0
-141 -150 -151 -153 -159 0
-94 -150 -95 -153 -159 0
-107 -150 -108 -153 -159 0
-119 -150 -120 -153 -159 0
-94 -151 -95 -153 -160 0
-107 -151 -108 -153 -160 0
-119 -151 -120 -153 -160 0
-107 -95 -108 -153 -96 0
-119 -95 -120 -153 -96 0
-119 -108 -120 -153 -109 0
-137 -146 -147 -154 -155 0
-138 -146 -148 -154 -155 0
-139 -146 -149 -154 -155 0
-140 -146 -150 -154 -155 0
-141 -146 -151 -154 -155 0
-94 -146 -95 -154 -155 0
-107 -146 -108 -154 -155 0
-119 -146 -120 -154 -155 0
-138 -147 -148 -154 -156 0
-139 -147 -149 -154 -156 0
-140 -147 -150 -154 -156 0
-141 -147 -151 -154 -156 0
-94 -147 -95 -154 -156 0
-107 -147 -108 -154 -156 0
-119 -147 -120 -154 -156 0
-139 -148 -149 -154 -157 0
-140 -148 -150 -154 -157 0
-141 -148 -151 -154 -157 0
-94 -148 -95 -154 -157 0
-107 -148 -108 -154 -157 0
-119 -148 -120 -154 -157 0
-140 -149 -150 -154 -158 0
-141 -149 -151 -154 -158 0
-94 -149 -95 -154 -158 0
-107 -149 -108 -154 -158 0
-119 -149 -120 -154 -158 0
-141 -150 -151 -154 -159 0
-94 -150 -95 -154 -159 0
-107 -150 -108 -154 -159 0
-119 -150 -120 -154 -159 0
-94 -151 -95 -154 -160 0
-107 -151 -108 -154 -160 0
-119 -151 -120 -154 -160 0
-107 -95 -108 -154 -96 0
-119 -95 -120 -154 -96 0
-119 -108 -120 -154 -109 0
-138 -147 -148 -155 -156 0
-139 -147 -149 -155 -156 0
-140 -147 -150 -155 -156 0
-141 -147 -151 -155 -156 0
-94 -147 -95 -155 -156 0
-107 -147 -108 -155 -156 0
-119 -147 -120 -155 -156 0
-139 -148 -149 -155 -157 0
-140 -148 -150 -155 -157 0
-141 -148 -151 -155 -157 0
-94 -148 -95 -155 -157 0
-107 -148 -108 -155 -157 0
-119 -148 -120 -155 -157 0
-140 -149 -150 -155 -158 0
-141 -149 -151 -155 -158 0
-94 -149 -95 -155 -158 0
-107 -149 -108 -155 -158 0
-119 -149 -120 -155 -158 0
-141 -150 -151 -155 -159 0
-94 -150 -95 -155 -159 0
-107 -150 -108 -155 -159 0
-119 -150 -120 -155 -159 0
-94 -151 -95 -155 -160 0
-107 -151 -108 -155 -160 0
-119 -151 -120 -155 -160 0
-107 -95 -108 -155 -96 0
-119 -95 -120 -155 -96 0
-119 -108 -120 -155 -109 0
-139 -148 -149 -156 -157 0
-140 -148 -150 -156 -157 0
-141 -148 -151 -156 -157 0
-94 -148 -95 -156 -157 0
-107 -148 -108 -156 -157 0
-119 -148 -120 -156 -157 0
-140 -149 -150 -156 -158 0
-141 -149 -151 -156 -158 0
-94 -149 -95 -156 -158 0
-107 -149 -108 -156 -158 0
-119 -149 -120 -156 -158 0
-141 -150 -151 -156 -159 0
-94 -150 -95 -156 -159 0
-107 -150 -108 -156 -159 0
-119 -150 -120 -156 -159 0
-94 -151 -95 -156 -160 0
-107 -151 -108 -156 -160 0
-119 -151 -120 -156 -160 0
-107 -95 -108 -156 -96 0
-119 -95 -120 -156 -96 0
-119 -108 -120 -156 -109 0
-140 -149 -150 -157 -158 0
-141 -149 -151 -157 -158 0
-94 -149 -95 -157 -158 0
-107 -149 -108 -157 -158 0
-119 -149 -120 -157 -158 0
-141 -150 -151 -157 -159 0
-94 -150 -95 -157 -159 0
-107 -150 -108 -157 -159 0
-119 -150 -120 -157 -159 0
-94 -151 -95 -157 -160 0
-107 -151 -108 -157 -160 0
-119 -151 -120 -157 -160 0
-107 -95 -108 -157 -96 0
-119 -95 -120 -157 -96 0
-119 -108 -120 -157 -109 0
-141 -150 -151 -158 -159 0
-94 -150 -95 -158 -159 0
-107 -150 -108 -158 -159 0
-119 -150 -120 -158 -159 0
-94 -151 -95 -158 -160 0
-107 -151 -108 -158 -160 0
-119 -151 -120 -158 -160 0
-107 -95 -108 -158 -96 0
-119 -95 -120 -158 -96 0
-119 -108 -120 -158 -109 0
-94 -151 -95 -159 -160 0
-107 -151 -108 -159 -160 0
-119 -151 -120 -159 -160 0
-107 -95 -108 -159 -96 0
-119 -95 -120 -159 -96 0
-119 -108 -120 -159 -109 0
-107 -95 -108 -160 -96 0
-119 -95 -120 -160 -96 0
-119 -108 -120 -160 -109 0
-119 -108 -120 -96 -109 0
-136 -145 -146 -161 -162 0
-137 -145 -147 -161 -162 0
-138 -145 -148 -161 -162 0
-139 -145 -149 -161 -162 0
-140 -145 -150 -161 -162 0
-141 -145 -151 -161 -162 0
-94 -145 -95 -161 -162 0
-107 -145 -108 -161 -162 0
-119 -145 -120 -161 -162 0
-137 -146 -147 -161 -163 0
-138 -146 -148 -161 -163 0
-139 -146 -149 -161 -163 0
-140 -146 -150 -161 -163 0
-141 -146 -151 -161 -163 0
-94 -146 -95 -161 -163 0
-107 -146 -108 -161 -163 0
-119 -146 -120 -161 -163 0
-138 -147 -148 -161 -164 0
-139 -147 -149 -161 -164 0
-140 -147 -150 -161 -164 0
-141 -147 -151 -161 -164 0
-94 -147 -95 -161 -164 0
-107 -147 -108 -161 -164 0
-119 -147 -120 -161 -164 0
-139 -148 -149 -161 -165 0
-140 -148 -150 -161 -165 0
-141 -148 -151 -161 -165 0
-94 -148 -95 -161 -165 0
-107 -148 -108 -161 -165 0
-119 -148 -120 -161 -165 0
-140 -149 -150 -161 -166 0
-141 -149 -151 -161 -166 0
-94 -149 -95 -161 -166 0
-107 -149 -108 -161 -166 0
-119 -149 -120 -161 -166 0
-141 -150 -151 -161 -167 0
-94 -150 -95 -161 -167 0
-107 -150 -108 -161 -167 0
-119 -150 -120 -161 -167 0
-94 -151 -95 -161 -168 0
-107 -151 -108 -161 -168 0
-119 -151 -120 -161 -168 0
-107 -95 -108 -161 -97 0
-119 -95 -120 -161 -97 0
-119 -108 -120 -161 -110 0
-137 -146 -147 -162 -163 0
-138 -146 -148 -162 -163 0
-139 -146 -149 -162 -163 0
-140 -146 -150 -162 -163 0
-141 -146 -151 -162 -163 0
-94 -146 -95 -162 -163 0
-107 -146 -108 -162 -163 0
-119 -146 -120 -162 -163 0
-138 -147 -148 -162 -164 0
-139 -147 -149 -162 -164 0
-140 -147 -150 -162 -164 0
-141 -147 -151 -162 -164 0
-94 -147 -95 -162 -164 0
-107 -147 -108 -162 -164 0
-119 -147 -120 -162 -164 0
-139 -148 -149 -162 -165 0
-140 -148 -150 -162 -165 0
-141 -148 -151 -162 -165 0
-94 -148 -95 -162 -165 0
-107 -148 -108 -162 -165 0
-119 -148 -120 -162 -165 0
-140 -149 -150 -162 -166 0
-141 -149 -151 -162 -166 0
-94 -149 -95 -162 -166 0
-107 -149 -108 -162 -166 0
-119 -149 -120 -162 -166 0
-141 -150 -151 -162 -167 0
-94 -150 -95 -162 -167 0
-107 -150 -108 -162 -167 0
-119 -150 -120 -162 -167 0
-94 -151 -95 -162 -168 0
-107 -151 -108 -162 -168 0
-119 -151 -120 -162 -168 0
-107 -95 -108 -162 -97 0
-119 -95 -120 -162 -97 0
-119 -108 -120 -162 -110 0
-138 -147 -148 -163 -164 0
-139 -147 -149 -163 -164 0
-140 -147 -150 -163 -164 0
-141 -147 -151 -163 -164 0
-94 -147 -95 -163 -164 0
-107 -147 -108 -163 -164 0
-119 -147 -120 -163 -164 0
-139 -148 -149 -163 -165 0
-140 -148 -150 -163 -165 0
-141 -148 -151 -163 -165 0
-94 -148 -95 -163 -165 0
-107 -148 -108 -163 -165 0
-119 -148 -120 -163 -165 0
-140 -149 -150 -163 -166 0
-141 -149 -151 -163 -166 0
-94 -149 -95 -163 -166 0
-107 -149 -108 -163 -166 0
-119 -149 -120 -163 -166 0
-141 -150 -151 -163 -167 0
-94 -150 -95 -163 -167 0
-107 -150 -108 -163 -167 0
-119 -150 -120 -163 -167 0
-94 -151 -95 -163 -168 0
-107 -151 -108 -163 -168 0
-119 -151 -120 -163 -168 0
-107 -95 -108 -163 -97 0
-119 -95 -120 -163 -97 0
-119 -108 -120 -163 -110 0
-139 -148 -149 -164 -165 0
-140 -148 -150 -164 -165 0
-141 -148 -151 -164 -165 0
-94 -148 -95 -164 -165 0
-107 -148 -108 -164 -165 0
-119 -148 -120 -164 -165 0
-140 -149 -150 -164 -166 0
-141 -149 -151 -164 -166 0
-94 -149 -95 -164 -166 0
-107 -149 -108 -164 -166 0
-119 -149 -120 -164 -166 0
-141 -150 -151 -164 -167 0
-94 -150 -95 -164 -167 0
-107 -150 -108 -164 -167 0
-119 -150 -120 -164 -167 0
-94 -151 -95 -164 -168 0
-107 -151 -108 -164 -168 0
-119 -151 -120 -164 -168 0
-107 -95 -108 -164 -97 0
-119 -95 -120 -164 -97 0
-119 -108 -120 -164 -110 0
-140 -149 -150 -165 -166 0
-141 -149 -151 -165 -166 0
-94 -149 -95 -165 -166 0
-107 -149 -108 -165 -166 0
-119 -149 -120 -165 -166 0
-141 -150 -151 -165 -167 0
-94 -150 -95 -165 -167 0
-107 -150 -108 -165 -167 0
-119 -150 -120 -165 -167 0
-94 -151 -95 -165 -168 0
-107 -151 -108 -165 -168 0
-119 -151 -120 -165 -168 0
-107 -95 -108 -165 -97 0
-119 -95 -120 -165 -97 0
-119 -108 -120 -165 -110 0
-141 -150 -151 -166 -167 0
-94 -150 -95 -166 -167 0
-107 -150 -108 -166 -167 0
-119 -150 -120 -166 -167 0
-94 -151 -95 -166 -168 0
-107 -151 -108 -166 -168 0
-119 -151 -120 -166 -168 0
-107 -95 -108 -166 -97 0
-119 -95 -120 -166 -97 0
-119 -108 -120 -166 -110 0
-94 -151 -95 -167 -168 0
-107 -151 -108 -167 -168 0
-119 -151 -120 -167 -168 0
-107 -95 -108 -167 -97 0
-119 -95 -120 -167 -97 0
-119 -108 -120 -167 -110 0
-107 -95 -108 -168 -97 0
-119 -95 -120 -168 -97 0
-119 -108 -120 -168 -110 0
-119 -108 -120 -97 -110 0
-137 -146 -147 -169 -170 0
-138 -146 -148 -169 -170 0
-139 -146 -149 -169 -170 0
-140 -146 -150 -169 -170 0
-141 -146 -151 -169 -170 0
-94 -146 -95 -169 -170 0
-107 -146 -108 -169 -170 0
-119 -146 -120 -169 -170 0
-138 -147 -148 -169 -171 0
-139 -147 -149 -169 -171 0
-140 -147 -150 -169 -171 0
-141 -147 -151 -169 -171 0
-94 -147 -95 -169 -171 0
-107 -147 -108 -169 -171 0
-119 -147 -120 -169 -171 0
-139 -148 -149 -169 -172 0
-140 -148 -150 -169 -172 0
-141 -148 -151 -169 -172 0
-94 -148 -95 -169 -172 0
-107 -148 -108 -169 -172 0
-119 -148 -120 -169 -172 0
-140 -149 -150 -169 -173 0
-141 -149 -151 -169 -173 0
-94 -149 -95 -169 -173 0
-107 -149 -108 -169 -173 0
-119 -149 -120 -169 -173 0
-141 -150 -151 -169 -174 0
-94 -150 -95 -169 -174 0
-107 -150 -108 -169 -174 0
-119 -150 -120 -169 -174 0
-94 -151 -95 -169 -175 0
-107 -151 -108 -169 -175 0
-119 -151 -120 -169 -175 0
-107 -95 -108 -169 -98 0
-119 -95 -120 -169 -98 0
-119 -108 -120 -169 -111 0
-138 -147 -148 -170 -171 0
-139 -147 -149 -170 -171 0
-140 -147 -150 -170 -171 0
-141 -147 -151 -170 -171 0
-94 -147 -95 -170 -171 0
-107 -147 -108 -170 -171 0
-119 -147 -120 -170 -171 0
-139 -148 -149 -170 -172 0
-140 -148 -150 -170 -172 0
-141 -148 -151 -170 -172 0
-94 -148 -95 -170 -172 0
-107 -148 -108 -170 -172 0
-119 -148 -120 -170 -172 0
-140 -149 -150 -170 -173 0
-141 -149 -151 -170 -173 0
-94 -149 -95 -170 -173 0
-107 -149 -108 -170 -173 0
-119 -149 -120 -170 -173 0
-141 -150 -151 -170 -174 0
-94 -150 -95 -170 -174 0
-107 -150 -108 -170 -174 0
-119 -150 -120 -170 -174 0
-94 -151 -95 -170 -175 0
-107 -151 -108 -170 -175 0
-119 -151 -120 -170 -175 0
-107 -95 -108 -170 -98 0
-119 -95 -120 -170 -98 0
-119 -108 -120 -170 -111 0
-139 -148 -149 -171 -172 0
-140 -148 -150 -171 -172 0
-141 -148 -151 -171 -172 0
-94 -148 -95 -171 -172 0
-107 -148 -108 -171 -172 0
-119 -148 -120 -171 -172 0
-140 -149 -150 -171 -173 0
-141 -149 -151 -171 -173 0
-94 -149 -95 -171 -173 0
-107 -149 -108 -171 -173 0
-119 -149 -120 -171 -173 0
-141 -150 -151 -171 -174 0
-94 -150 -95 -171 -174 0
-107 -150 -108 -171 -174 0
-119 -150 -120 -171 -174 0
-94 -151 -95 -171 -175 0
-107 -151 -108 -171 -175 0
-119 -151 -120 -171 -175 0
-107 -95 -108 -171 -98 0
-119 -95 -120 -171 -98 0
-119 -108 -120 -171 -111 0
-140 -149 -150 -172 -173 0
-141 -149 -151 -172 -173 0
-94 -149 -95 -172 -173 0
-107 -149 -108 -172 -173 0
-119 -149 -120 -172 -173 0
-141 -150 -151 -172 -174 0
-94 -150 -95 -172 -174 0
-107 -150 -108 -172 -174 0
-119 -150 -120 -172 -174 0
-94 -151 -95 -172 -175 0
-107 -151 -108 -172 -175 0
-119 -151 -120 -172 -175 0
-107 -95 -108 -172 -98 0
-119 -95 -120 -172 -98 0
-119 -108 -120 -172 -111 0
-141 -150 -151 -173 -174 0
-94 -150 -95 -173 -174 0
-107 -150 -108 -173 -174 0
-119 -150 -120 -173 -174 0
-94 -151 -95 -173 -175 0
-107 -151 -108 -173 -175 0
-119 -151 -120 -173 -175 0
-107 -95 -108 -173 -98 0
-119 -95 -120 -173 -98 0
-119 -108 -120 -173 -111 0
-94 -151 -95 -174 -175 0
-107 -151 -108 -174 -175 0
-119 -151 -120 -174 -175 0
-107 -95 -108 -174 -98 0
-119 -95 -120 -174 -98 0
-119 -108 -120 -174 -111 0
-107 -95 -108 -175 -98 0
-119 -95 -120 -175 -98 0
-119 -108 -120 -175 -111 0
-119 -108 -120 -98 -111 0
-138 -147 -148 -176 -177 0
-139 -147 -149 -176 -177 0
-140 -147 -150 -176 -177 0
-141 -147 -151 -176 -177 0
-94 -147 -95 -176 -177 0
-107 -147 -108 -176 -177 0
-119 -147 -120 -176 -177 0
-139 -148 -149 -176 -178 0
-140 -148 -150 -176 -178 0
-141 -148 -151 -176 -178 0
-94 -148 -95 -176 -178 0
-107 -148 -108 -176 -178 0
-119 -148 -120 -176 -178 0
-140 -149 -150 -176 -179 0
-141 -149 -151 -176 -179 0
-94 -149 -95 -176 -179 0
-107 -149 -108 -176 -179 0
-119 -149 -120 -176 -179 0
-141 -150 -151 -176 -180 0
-94 -150 -95 -176 -180 0
-107 -150 -108 -176 -180 0
-119 -150 -120 -176 -180 0
-94 -151 -95 -176 -181 0
-107 -151 -108 -176 -181 0
-119 -151 -120 -176 -181 0
-107 -95 -108 -176 -99 0
-119 -95 -120 -176 -99 0
-119 -108 -120 -176 -112 0
-139 -148 -149 -177 -178 0
-140 -148 -150 -177 -178 0
-141 -148 -151 -177 -178 0
-94 -148 -95 -177 -178 0
-107 -148 -108 -177 -178 0
-119 -148 -120 -177 -178 0
-140 -149 -150 -177 -179 0
-141 -149 -151 -177 -179 0
-94 -149 -95 -177 -179 0
-107 -149 -108 -177 -179 0
-119 -149 -120 -177 -179 0
-141 -150 -151 -177 -180 0
-94 -150 -95 -177 -180 0
-107 -150 -108 -177 -180 0
-119 -150 -120 -177 -180 0
-94 -151 -95 -177 -181 0
-107 -151 -108 -177 -181 0
-119 -151 -120 -177 -181 0
-107 -95 -108 -177 -99 0
-119 -95 -120 -177 -99 0
-119 -108 -120 -177 -112 0
-140 -149 -150 -178 -179 0
-141 -149 -151 -178 -179 0
-94 -149 -95 -178 -179 0
-107 -149 -108 -178 -179 0
-119 -149 -120 -178 -179 0
-141 -150 -151 -178 -180 0
-94 -150 -95 -178 -180 0
-107 -150 -108 -178 -180 0
-119 -150 -120 -178 -180 0
-94 -151 -95 -178 -181 0
-107 -151 -108 -178 -181 0
-119 -151 -120 -178 -181 0
-107 -95 -108 -178 -99 0
-119 -95 -120 -178 -99 0
-119 -108 -120 -178 -112 0
-141 -150 -151 -179 -180 0
-94 -150 -95 -179 -180 0
-107 -150 -108 -179 -180 0
-119 -150 -120 -179 -180 0
-94 -151 -95 -179 -181 0
-107 -151 -108 -179 -181 0
-119 -151 -120 -179 -181 0
-107 -95 -108 -179 -99 0
-119 -95 -120 -179 -99 0
-119 -108 -120 -179 -112 0
-94 -151 -95 -180 -181 0
-107 -151 -108 -180 -181 0
-119 -151 -120 -180 -181 0
-107 -95 -108 -180 -99 0
-119 -95 -120 -180 -99 0
-119 -108 -120 -180 -112 0
-107 -95 -108 -181 -99 0
-119 -95 -120 -181 -99 0
-119 -108 -120 -181 -112 0
-119 -108 -120 -99 -112 0
-139 -148 -149 -182 -183 0
-140 -148 -150 -182 -183 0
-141 -148 -151 -182 -183 0
-94 -148 -95 -182 -183 0
-107 -148 -108 -182 -183 0
-119 -148 -120 -182 -183 0
-140 -149 -150 -182 -184 0
-141 -149 -151 -182 -184 0
-94 -149 -95 -182 -184 0
-107 -149 -108 -182 -184 0
-119 -149 -120 -182 -184 0
-141 -150 -151 -182 -185 0
-94 -150 -95 -182 -185 0
-107 -150 -108 -182 -185 0
-119 -150 -120 -182 -185 0
-94 -151 -95 -182 -186 0
-107 -151 -108 -182 -186 0
-119 -151 -120 -182 -186 0
-107 -95 -108 -182 -100 0
-119 -95 -120 -182 -100 0
-119 -108 -120 -182 -113 0
-140 -149 -150 -183 -184 0
-141 -149 -151 -183 -184 0
-94 -149 -95 -183 -184 0
-107 -149 -108 -183 -184 0
-119 -149 -120 -183 -184 0
-141 -150 -151 -183 -185 0
-94 -150 -95 -183 -185 0
-107 -150 -108 -183 -185 0
-119 -150 -120 -183 -185 0
-94 -151 -95 -183 -186 0
-107 -151 -108 -183 -186 0
-119 -151 -120 -183 -186 0
-107 -95 -108 -183 -100 0
-119 -95 -120 -183 -100 0
-119 -108 -120 -183 -113 0
-141 -150 -151 -184 -185 0
-94 -150 -95 -184 -185 0
-107 -150 -108 -184 -185 0
-119 -150 -120 -184 -185 0
-94 -151 -95 -184 -186 0
-107 -151 -108 -184 -186 0
-119 -151 -120 -184 -186 0
-107 -95 -108 -184 -100 0
-119 -95 -120 -184 -100 0
-119 -108 -120 -184 -113 0
-94 -151 -95 -185 -186 0
-107 -151 -108 -185 -186 0
-119 -151 -120 -185 -186 0
-107 -95 -108 -185 -100 0
-119 -95 -120 -185 -100 0
-119 -108 -120 -185 -113 0
-107 -95 -108 -186 -100 0
-119 -95 -120 -186 -100 0
-119 -108 -120 -186 -113 0
-119 -108 -120 -100 -113 0
-140 -149 -150 -187 -188 0
-141 -149 -151 -187 -188 0
-94 -149 -95 -187 -188 0
-107 -149 -108 -187 -188 0
-119 -149 -120 -187 -188 0
-141 -150 -151 -187 -189 0
-94 -150 -95 -187 -189 0
-107 -150 -108 -187 -189 0
-119 -150 -120 -187 -189 0
-94 -151 -95 -187 -190 0
-107 -151 -108 -187 -190 0
-119 -151 -120 -187 -190 0
-107 -95 -108 -187 -101 0
-119 -95 -120 -187 -101 0
-119 -108 -120 -187 -114 0
-141 -150 -151 -188 -189 0
-94 -150 -95 -188 -189 0
-107 -150 -108 -188 -189 0
-119 -150 -120 -188 -189 0
-94 -151 -95 -188 -190 0
-107 -151 -108 -188 -190 0
-119 -151 -120 -188 -190 0
-107 -95 -108 -188 -101 0
-119 -95 -120 -188 -101 0
-119 -108 -120 -188 -114 0
-94 -151 -95 -189 -190 0
-107 -151 -108 -189 -190 0
-119 -151 -120 -189 -190 0
-107 -95 -108 -189 -101 0
-119 -95 -120 -189 -101 0
-119 -108 -120 -189 -114 0
-107 -95 -108 -190 -101 0
-119 -95 -120 -190 -101 0
-119 -108 -120 -190 -114 0
-119 -108 -120 -101 -114 0
-141 -150 -151 -191 -192 0
-94 -150 -95 -191 -192 0
-107 -150 -108 -191 -192 0
-119 -150 -120 -191 -192 0
-94 -151 -95 -191 -193 0
-107 -151 -108 -191 -193 0
-119 -151 -120 -191 -193 0
-107 -95 -108 -191 -102 0
-119 -95 -120 -191 -102 0
-119 -108 -120 -191 -115 0
-94 -151 -95 -192 -193 0
-107 -151 -108 -192 -193 0
-119 -151 -120 -192 -193 0
-107 -95 -108 -192 -102 0
-119 -95 -120 -192 -102 0
-119 -108 -120 -192 -115 0
-107 -95 -108 -193 -102 0
-119 -95 -120 -193 -102 0
-119 -108 -120 -193 -115 0
-119 -108 -120 -102 -115 0
-94 -151 -95 -194 -195 0
-107 -151 -108 -194 -195 0
-119 -151 -120 -194 -195 0
-107 -95 -108 -194 -103 0
-119 -95 -120 -194 -103 0
-119 -108 -120 -194 -116 0
-107 -95 -108 -195 -103 0
-119 -95 -120 -195 -103 0
-119 -108 -120 -195 -116 0
-119 -108 -120 -103 -116 0
-107 -95 -108 -196 -104 0
-119 -95 -120 -196 -104 0
-119 -108 -120 -196 -117 0
-119 -108 -120 -104 -117 0
-119 -108 -120 -105 -118 0
-136 -154 -155 -161 -162 0
-137 -154 -156 -161 -162 0
-138 -154 -157 -161 -162 0
-139 -154 -158 -161 -162 0
-140 -154 -159 -161 -162 0
-141 -154 -160 -161 -162 0
-94 -154 -96 -161 -162 0
-107 -154 -109 -161 -162 0
-119 -154 -121 -161 -162 0
-137 -155 -156 -161 -163 0
-138 -155 -157 -161 -163 0
-139 -155 -158 -161 -163 0
-140 -155 -159 -161 -163 0
-141 -155 -160 -161 -163 0
-94 -155 -96 -161 -163 0
-107 -155 -109 -161 -163 0
-119 -155 -121 -161 -163 0
-138 -156 -157 -161 -164 0
-139 -156 -158 -161 -164 0
-140 -156 -159 -161 -164 0
-141 -156 -160 -161 -164 0
-94 -156 -96 -161 -164 0
-107 -156 -109 -161 -164 0
-119 -156 -121 -161 -164 0
-139 -157 -158 -161 -165 0
-140 -157 -159 -161 -165 0
-141 -157 -160 -161 -165 0
-94 -157 -96 -161 -165 0
-107 -157 -109 -161 -165 0
-119 -157 -121 -161 -165 0
-140 -158 -159 -161 -166 0
-141 -158 -160 -161 -166 0
-94 -158 -96 -161 -166 0
-107 -158 -109 -161 -166 0
-119 -158 -121 -161 -166 0
-141 -159 -160 -161 -167 0
-94 -159 -96 -161 -167 0
-107 -159 -109 -161 -167 0
-119 -159 -121 -161 -167 0
-94 -160 -96 -161 -168 0
-107 -160 -109 -161 -168 0
-119 -160 -121 -161 -168 0
-107 -96 -109 -161 -97 0
-119 -96 -121 -161 -97 0
-119 -109 -121 -161 -110 0
-137 -155 -156 -162 -163 0
-138 -155 -157 -162 -163 0
-139 -155 -158 -162 -163 0
-140 -155 -159 -162 -163 0
-141 -155 -160 -162 -163 0
-94 -155 -96 -162 -163 0
-107 -155 -109 -162 -163 0
-119 -155 -121 -162 -163 0
-138 -156 -157 -162 -164 0
-139 -156 -158 -162 -164 0
-140 -156 -159 -162 -164 0
-141 -156 -160 -162 -164 0
-94 -156 -96 -162 -164 0
-107 -156 -109 -162 -164 0
-119 -156 -121 -162 -164 0
-139 -157 -158 -162 -165 0
-140 -157 -159 -162 -165 0
-141 -157 -160 -162 -165 0
-94 -157 -96 -162 -165 0
-107 -157 -109 -162 -165 0
-119 -157 -121 -162 -165 0
-140 -158 -159 -162 -166 0
-141 -158 -160 -162 -166 0
-94 -158 -96 -162 -166 0
-107 -158 -109 -162 -166 0
-119 -158 -121 -162 -166 0
-141 -159 -160 -162 -167 0
-94 -159 -96 -162 -167 0
-107 -159 -109 -162 -167 0
-119 -159 -121 -162 -167 0
-94 -160 -96 -162 -168 0
-107 -160 -109 -162 -168 0
-119 -160 -121 -162 -168 0
-107 -96 -109 -162 -97 0
-119 -96 -121 -162 -97 0
-119 -109 -121 -162 -110 0
-138 -156 -157 -163 -164 0
-139 -156 -158 -163 -164 0
-140 -156 -159 -163 -164 0
-141 -156 -160 -163 -164 0
-94 -156 -96 -163 -164 0
-107 -156 -109 -163 -164 0
-119 -156 -121 -163 -164 0
-139 -157 -158 -163 -165 0
-140 -157 -159 -163 -165 0
-141 -157 -160 -163 -165 0
-94 -157 -96 -163 -165 0
-107 -157 -109 -163 -165 0
-119 -157 -121 -163 -165 0
-140 -158 -159 -163 -166 0
-141 -158 -160 -163 -166 0
-94 -158 -96 -163 -166 0
-107 -158 -109 -163 -166 0
-119 -158 -121 -163 -166 0
-141 -159 -160 -163 -167 0
-94 -159 -96 -163 -167 0
-107 -159 -109 -163 -167 0
-119 -159 -121 -163 -167 0
-94 -160 -96 -163 -168 0
-107 -160 -109 -163 -168 0
-119 -160 -121 -163 -168 0
-107 -96 -109 -163 -97 0
-119 -96 -121 -163 -97 0
-119 -109 -121 -163 -110 0
-139 -157 -158 -164 -165 0
-140 -157 -159 -164 -165 0
-141 -157 -160 -164 -165 0
-94 -157 -96 -164 -165 0
-107 -157 -109 -164 -165 0
-119 -157 -121 -164 -165 0
-140 -158 -159 -164 -166 0
-141 -158 -160 -164 -166 0
-94 -158 -96 -164 -166 0
-107 -158 -109 -164 -166 0
-119 -158 -121 -164 -166 0
-141 -159 -160 -164 -167 0
-94 -159 -96 -164 -167 0
-107 -159 -109 -164 -167 0
-119 -159 -121 -164 -167 0
-94 -160 -96 -164 -168 0
-107 -160 -109 -164 -168 0
-119 -160 -121 -164 -168 0
-107 -96 -109 -164 -97 0
-119 -96 -121 -164 -97 0
-119 -109 -121 -164 -110 0
-140 -158 -159 -165 -166 0
-141 -158 -160 -165 -166 0
-94 -158 -96 -165 -166 0
-107 -158 -109 -165 -166 0
-119 -158 -121 -165 -166 0
-141 -159 -160 -165 -167 0
-94 -159 -96 -165 -167 0
-107 -159 -109 -165 -167 0
-119 -159 -121 -165 -167 0
-94 -160 -96 -165 -168 0
-107 -160 -109 -165 -168 0
-119 -160 -121 -165 -168 0
-107 -96 -109 -165 -97 0
-119 -96 -121 -165 -97 0
-119 -109 -121 -165 -110 0
-141 -159 -160 -166 -167 0
-94 -159 -96 -166 -167 0
-107 -159 -109 -166 -167 0
-119 -159 -121 -166 -167 0
-94 -160 -96 -166 -168 0
-107 -160 -109 -166 -168 0
-119 -160 -121 -166 -168 0
-107 -96 -109 -166 -97 0
-119 -96 -121 -166 -97 0
-119 -109 -121 -166 -110 0
-94 -160 -96 -167 -168 0
-107 -160 -109 -167 -168 0
-119 -160 -121 -167 -168 0
-107 -96 -109 -167 -97 0
-119 -96 -121 -167 -97 0
-119 -109 -121 -167 -110 0
-107 -96 -109 -168 -97 0
-119 -96 -121 -168 -97 0
-119 -109 -121 -168 -110 0
-119 -109 -121 -97 -110 0
-137 -155 -156 -169 -170 0
-138 -155 -157 -169 -170 0
-139 -155 -158 -169 -170 0
-140 -155 -159 -169 -170 0
-141 -155 -160 -169 -170 0
-94 -155 -96 -169 -170 0
-107 -155 -109 -169 -170 0
-119 -155 -121 -169 -170 0
-138 -156 -157 -169 -171 0
-139 -156 -158 -169 -171 0
-140 -156 -159 -169 -171 0
-141 -156 -160 -169 -171 0
-94 -156 -96 -169 -171 0
-107 -156 -109 -169 -171 0
-119 -156 -121 -169 -171 0
-139 -157 -158 -169 -172 0
-140 -157 -159 -169 -172 0
-141 -157 -160 -169 -172 0
-94 -157 -96 -169 -172 0
-107 -157 -109 -169 -172 0
-119 -157 -121 -169 -172 0
-140 -158 -159 -169 -173 0
-141 -158 -160 -169 -173 0
-94 -158 -96 -169 -173 0
-107 -158 -109 -169 -173 0
-119 -158 -121 -169 -173 0
-141 -159 -160 -169 -174 0
-94 -159 -96 -169 -174 0
-107 -159 -109 -169 -174 0
-119 -159 -121 -169 -174 0
-94 -160 -96 -169 -175 0
-107 -160 -109 -169 -175 0
-119 -160 -121 -169 -175 0
-107 -96 -109 -169 -98 0
-119 -96 -121 -169 -98 0
-119 -109 -121 -169 -111 0
-138 -156 -157 -170 -171 0
-139 -156 -158 -170 -171 0
-140 -156 -159 -170 -171 0
-141 -156 -160 -170 -171 0
-94 -156 -96 -170 -171 0
-107 -156 -109 -170 -171 0
-119 -156 -121 -170 -171 0
-139 -157 -158 -170 -172 0
-140 -157 -159 -170 -172 0
-141 -157 -160 -170 -172 0
-94 -157 -96 -170 -172 0
-107 -157 -109 -170 -172 0
-119 -157 -121 -170 -172 0
-140 -158 -159 -170 -173 0
-141 -158 -160 -170 -173 0
-94 -158 -96 -170 -173 0
-107 -158 -109 -170 -173 0
-119 -158 -121 -170 -173 0
-141 -159 -160 -170 -174 0
-94 -159 -96 -170 -174 0
-107 -159 -109 -170 -174 0
-119 -159 -121 -170 -174 0
-94 -160 -96 -170 -175 0
-107 -160 -109 -170 -175 0
-119 -160 -121 -170 -175 0
-107 -96 -109 -170 -98 0
-119 -96 -121 -170 -98 0
-119 -109 -121 -170 -111 0
-139 -157 -158 -171 -172 0
-140 -157 -159 -171 -172 0
-141 -157 -160 -171 -172 0
-94 -157 -96 -171 -172 0
-107 -157 -109 -171 -172 0
-119 -157 -121 -171 -172 0
-140 -158 -159 -171 -173 0
-141 -158 -160 -171 -173 0
-94 -158 -96 -171 -173 0
-107 -158 -109 -171 -173 0
-119 -158 -121 -171 -173 0
-141 -159 -160 -171 -174 0
-94 -159 -96 -171 -174 0
-107 -159 -109 -171 -174 0
-119 -159 -121 -171 -174 0
-94 -160 -96 -171 -175 0
-107 -160 -109 -171 -175 0
-119 -160 -121 -171 -175 0
-107 -96 -109 -171 -98 0
-119 -96 -121 -171 -98 0
-119 -109 -121 -171 -111 0
-140 -158 -159 -172 -173 0
-141 -158 -160 -172 -173 0
-94 -158 -96 -172 -173 0
-107 -158 -109 -172 -173 0
-119 -158 -121 -172 -173 0
-141 -159 -160 -172 -174 0
-94 -159 -96 -172 -174 0
-107 -159 -109 -172 -174 0
-119 -159 -121 -172 -174 0
-94 -160 -96 -172 -175 0
-107 -160 -109 -172 -175 0
-119 -160 -121 -172 -175 0
-107 -96 -109 -172 -98 0
-119 -96 -121 -172 -98 0
-119 -109 -121 -172 -111 0
-141 -159 -160 -173 -174 0
-94 -159 -96 -173 -174 0
-107 -159 -109 -173 -174 0
-119 -159 -121 -173 -174 0
-94 -160 -96 -173 -175 0
-107 -160 -109 -173 -175 0
-119 -160 -121 -173 -175 0
-107 -96 -109 -173 -98 0
-119 -96 -121 -173 -98 0
-119 -109 -121 -173 -111 0
-94 -160 -96 -174 -175 0
-107 -160 -109 -174 -175 0
-119 -160 -121 -174 -175 0
-107 -96 -109 -174 -98 0
-119 -96 -121 -174 -98 0
-119 -109 -121 -174 -111 0
-107 -96 -109 -175 -98 0
-119 -96 -121 -175 -98 0
-119 -109 -121 -175 -111 0
-119 -109 -121 -98 -111 0
-138 -156 -157 -176 -177 0
-139 -156 -158 -176 -177 0
-140 -156 -159 -176 -177 0
-141 -156 -160 -176 -177 0
-94 -156 -96 -176 -177 0
-107 -156 -109 -176 -177 0
-119 -156 -121 -176 -177 0
-139 -157 -158 -176 -178 0
-140 -157 -159 -176 -178 0
-141 -157 -160 -176 -178 0
-94 -157 -96 -176 -178 0
-107 -157 -109 -176 -178 0
-119 -157 -121 -176 -178 0
-140 -158 -159 -176 -179 0
-141 -158 -160 -176 -179 0
-94 -158 -96 -176 -179 0
-107 -158 -109 -176 -179 0
-119 -158 -121 -176 -179 0
-141 -159 -160 -176 -180 0
-94 -159 -96 -176 -180 0
-107 -159 -109 -176 -180 0
-119 -159 -121 -176 -180 0
-94 -160 -96 -176 -181 0
-107 -160 -109 -176 -181 0
-119 -160 -121 -176 -181 0
-107 -96 -109 -176 -99 0
-119 -96 -121 -176 -99 0
-119 -109 -121 -176 -112 0
-139 -157 -158 -177 -178 0
-140 -157 -159 -177 -178 0
-141 -157 -160 -177 -178 0
-94 -157 -96 -177 -178 0
-107 -157 -109 -177 -178 0
-119 -157 -121 -177 -178 0
-140 -158 -159 -177 -179 0
-141 -158 -160 -177 -179 0
-94 -158 -96 -177 -179 0
-107 -158 -109 -177 -179 0
-119 -158 -121 -177 -179 0
-141 -159 -160 -177 -180 0
-94 -159 -96 -177 -180 0
-107 -159 -109 -177 -180 0
-119 -159 -121 -177 -180 0
-94 -160 -96 -177 -181 0
-107 -160 -109 -177 -181 0
-119 -160 -121 -177 -181 0
-107 -96 -109 -177 -99 0
-119 -96 -121 -177 -99 0
-119 -109 -121 -177 -112 0
-140 -158 -159 -178 -179 0
-141 -158 -160 -178 -179 0
-94 -158 -96 -178 -179 0
-107 -158 -109 -178 -179 0
-119 -158 -121 -178 -179 0
-141 -159 -160 -178 -180 0
-94 -159 -96 -178 -180 0
-107 -159 -109 -178 -180 0
-119 -159 -121 -178 -180 0
-94 -160 -96 -178 -181 0
-107 -160 -109 -178 -181 0
-119 -160 -121 -178 -181 0
-107 -96 -109 -178 -99 0
-119 -96 -121 -178 -99 0
-119 -109 -121 -178 -112 0
-141 -159 -160 -179 -180 0
-94 -159 -96 -179 -180 0
-107 -159 -109 -179 -180 0
-119 -159 -121 -179 -180 0
-94 -160 -96 -179 -181 0
-107 -160 -109 -179 -181 0
-119 -160 -121 -179 -181 0
-107 -96 -109 -179 -99 0
-119 -96 -121 -179 -99 0
-119 -109 -121 -179 -112 0
-94 -160 -96 -180 -181 0
-107 -160 -109 -180 -181 0
-119 -160 -121 -180 -181 0
-107 -96 -109 -180 -99 0
-119 -96 -121 -180 -99 0
-119 -109 -121 -180 -112 0
-107 -96 -109 -181 -99 0
-119 -96 -121 -181 -99 0
-119 -109 -121 -181 -112 0
-119 -109 -121 -99 -112 0
-139 -157 -158 -182 -183 0
-140 -157 -159 -182 -183 0
-141 -157 -160 -182 -183 0
-94 -157 -96 -182 -183 0
-107 -157 -109 -182 -183 0
-119 -157 -121 -182 -183 0
-140 -158 -159 -182 -184 0
-141 -158 -160 -182 -184 0
-94 -158 -96 -182 -184 0
-107 -158 -109 -182 -184 0
-119 -158 -121 -182 -184 0
-141 -159 -160 -182 -185 0
-94 -159 -96 -182 -185 0
-107 -159 -109 -182 -185 0
-119 -159 -121 -182 -185 0
-94 -160 -96 -182 -186 0
-107 -160 -109 -182 -186 0
-119 -160 -121 -182 -186 0
-107 -96 -109 -182 -100 0
-119 -96 -121 -182 -100 0
-119 -109 -121 -182 -113 0
-140 -158 -159 -183 -184 0
-141 -158 -160 -183 -184 0
-94 -158 -96 -183 -184 0
-107 -158 -109 -183 -184 0
-119 -158 -121 -183 -184 0
-141 -159 -160 -183 -185 0
-94 -159 -96 -183 -185 0
-107 -159 -109 -183 -185 0
-119 -159 -121 -183 -185 0
-94 -160 -96 -183 -186 0
-107 -160 -109 -183 -186 0
-119 -160 -121 -183 -186 0
-107 -96 -109 -183 -100 0
-119 -96 -121 -183 -100 0
-119 -109 -121 -183 -113 0
-141 -159 -160 -184 -185 0
-94 -159 -96 -184 -185 0
-107 -159 -109 -184 -185 0
-119 -159 -121 -184 -185 0
-94 -160 -96 -184 -186 0
-107 -160 -109 -184 -186 0
-119 -160 -121 -184 -186 0
-107 -96 -109 -184 -100 0
-119 -96 -121 -184 -100 0
-119 -109 -121 -184 -113 0
-94 -160 -96 -185 -186 0
-107 -160 -109 -185 -186 0
-119 -160 -121 -185 -186 0
-107 -96 -109 -185 -100 0
-119 -96 -121 -185 -100 0
-119 -109 -121 -185 -113 0
-107 -96 -109 -186 -100 0
-119 -96 -121 -186 -100 0
-119 -109 -121 -186 -113 0
-119 -109 -121 -100 -113 0
-140 -158 -159 -187 -188 0
-141 -158 -160 -187 -188 0
-94 -158 -96 -187 -188 0
-107 -158 -109 -187 -188 0
-119 -158 -121 -187 -188 0
-141 -159 -160 -187 -189 0
-94 -159 -96 -187 -189 0
-107 -159 -109 -187 -189 0
-119 -159 -121 -187 -189 0
-94 -160 -96 -187 -190 0
-107 -160 -109 -187 -190 0
-119 -160 -121 -187 -190 0
-107 -96 -109 -187 -101 0
-119 -96 -121 -187 -101 0
-119 -109 -121 -187 -114 0
-141 -159 -160 -188 -189 0
-94 -159 -96 -188 -189 0
-107 -159 -109 -188 -189 0
-119 -159 -121 -188 -189 0
-94 -160 -96 -188 -190 0
-107 -160 -109 -188 -190 0
-119 -160 -121 -188 -190 0
-107 -96 -109 -188 -101 0
-119 -96 -121 -188 -101 0
-119 -109 -121 -188 -114 0
-94 -160 -96 -189 -190 0
-107 -160 -109 -189 -190 0
-119 -160 -121 -189 -190 0
-107 -96 -109 -189 -101 0
-119 -96 -121 -189 -101 0
-119 -109 -121 -189 -114 0
-107 -96 -109 -190 -101 0
-119 -96 -121 -190 -101 0
-119 -109 -121 -190 -114 0
-119 -109 -121 -101 -114 0
-141 -159 -160 -191 -192 0
-94 -159 -96 -191 -192 0
-107 -159 -109 -191 -192 0
-119 -159 -121 -191 -192 0
-94 -160 -96 -191 -193 0
-107 -160 -109 -191 -193 0
-119 -160 -121 -191 -193 0
-107 -96 -109 -191 -102 0
-119 -96 -121 -191 -102 0
-119 -109 -121 -191 -115 0
-94 -160 -96 -192 -193 0
-107 -160 -109 -192 -193 0
-119 -160 -121 -192 -193 0
-107 -96 -109 -192 -102 0
-119 -96 -121 -192 -102 0
-119 -109 -121 -192 -115 0
-107 -96 -109 -193 -102 0
-119 -96 -121 -193 -102 0
-119 -109 -121 -193 -115 0
-119 -109 -121 -102 -115 0
-94 -160 -96 -194 -195 0
-107 -160 -109 -194 -195 0
-119 -160 -121 -194 -195 0
-107 -96 -109 -194 -103 0
-119 -96 -121 -194 -103 0
-119 -109 -121 -194 -116 0
-107 -96 -109 -195 -103 0
-119 -96 -121 -195 -103 0
-119 -109 -121 -195 -116 0
-119 -109 -121 -103 -116 0
-107 -96 -109 -196 -104 0
-119 -96 -121 -196 -104 0
-119 -109 -121 -196 -117 0
-119 -109 -121 -104 -117 0
-119 -109 -121 -105 -118 0
-137 -163 -164 -169 -170 0
-138 -163 -165 -169 -170 0
-139 -163 -166 -169 -170 0
-140 -163 -167 -169 -170 0
-141 -163 -168 -169 -170 0
-94 -163 -97 -169 -170 0
-107 -163 -110 -169 -170 0
-119 -163 -122 -169 -170 0
-138 -164 -165 -169 -171 0
-139 -164 -166 -169 -171 0
-140 -164 -167 -169 -171 0
-141 -164 -168 -169 -171 0
-94 -164 -97 -169 -171 0
-107 -164 -110 -169 -171 0
-119 -164 -122 -169 -171 0
-139 -165 -166 -169 -172 0
-140 -165 -167 -169 -172 0
-141 -165 -168 -169 -172 0
-94 -165 -97 -169 -172 0
-107 -165 -110 -169 -172 0
-119 -165 -122 -169 -172 0
-140 -166 -167 -169 -173 0
-141 -166 -168 -169 -173 0
-94 -166 -97 -169 -173 0
-107 -166 -110 -169 -173 0
-119 -166 -122 -169 -173 0
-141 -167 -168 -169 -174 0
-94 -167 -97 -169 -174 0
-107 -167 -110 -169 -174 0
-119 -167 -122 -169 -174 0
-94 -168 -97 -169 -175 0
-107 -168 -110 -169 -175 0
-119 -168 -122 -169 -175 0
-107 -97 -110 -169 -98 0
-119 -97 -122 -169 -98 0
-119 -110 -122 -169 -111 0
-138 -164 -165 -170 -171 0
-139 -164 -166 -170 -171 0
-140 -164 -167 -170 -171 0
-141 -164 -168 -170 -171 0
-94 -164 -97 -170 -171 0
-107 -164 -110 -170 -171 0
-119 -164 -122 -170 -171 0
-139 -165 -166 -170 -172 0
-140 -165 -167 -170 -172 0
-141 -165 -168 -170 -172 0
-94 -165 -97 -170 -172 0
-107 -165 -110 -170 -172 0
-119 -165 -122 -170 -172 0
-140 -166 -167 -170 -173 0
-141 -166 -168 -170 -173 0
-94 -166 -97 -170 -173 0
-107 -166 -110 -170 -173 0
-119 -166 -122 -170 -173 0
-141 -167 -168 -170 -174 0
-94 -167 -97 -170 -174 0
-107 -167 -110 -170 -174 0
-119 -167 -122 -170 -174 0
-94 -168 -97 -170 -175 0
-107 -168 -110 -170 -175 0
-119 -168 -122 -170 -175 0
-107 -97 -110 -170 -98 0
-119 -97 -122 -170 -98 0
-119 -110 -122 -170 -111 0
-139 -165 -166 -171 -172 0
-140 -165 -167 -171 -172 0
-141 -165 -168 -171 -172 0
-94 -165 -97 -171 -172 0
-107 -165 -110 -171 -172 0
-119 -165 -122 -171 -172 0
-140 -166 -167 -171 -173 0
-141 -166 -168 -171 -173 0
-94 -166 -97 -171 -173 0
-107 -166 -110 -171 -173 0
-119 -166 -122 -171 -173 0
-141 -167 -168 -171 -174 0
-94 -167 -97 -171 -174 0
-107 -167 -110 -171 -174 0
-119 -167 -122 -171 -174 0
-94 -168 -97 -171 -175 0
-107 -168 -110 -171 -175 0
-119 -168 -122 -171 -175 0
-107 -97 -110 -171 -98 0
-119 -97 -122 -171 -98 0
-119 -110 -122 -171 -111 0
-140 -166 -167 -172 -173 0
-141 -166 -168 -172 -173 0
-94 -166 -97 -172 -173 0
-107 -166 -110 -172 -173 0
-119 -166 -122 -172 -173 0
-141 -167 -168 -172 -174 0
-94 -167 -97 -172 -174 0
-107 -167 -110 -172 -174 0
-119 -167 -122 -172 -174 0
-94 -168 -97 -172 -175 0
-107 -168 -110 -172 -175 0
-119 -168 -122 -172 -175 0
-107 -97 -110 -172 -98 0
-119 -97 -122 -172 -98 0
-119 -110 -122 -172 -111 0
-141 -167 -168 -173 -174 0
-94 -167 -97 -173 -174 0
-107 -167 -110 -173 -174 0
-119 -167 -122 -173 -174 0
-94 -168 -97 -173 -175 0
-107 -168 -110 -173 -175 0
-119 -168 -122 -173 -175 0
-107 -97 -110 -173 -98 0
-119 -97 -122 -173 -98 0
-119 -110 -122 -173 -111 0
-94 -168 -97 -174 -175 0
-107 -168 -110 -174 -175 0
-119 -168 -122 -174 -175 0
-107 -97 -110 -174 -98 0
-119 -97 -122 -174 -98 0
-119 -110 -122 -174 -111 0
-107 -97 -110 -175 -98 0
-119 -97 -122 -175 -98 0
-119 -110 -122 -175 -111 0
-119 -110 -122 -98 -111 0
-138 -164 -165 -176 -177 0
-139 -164 -166 -176 -177 0
-140 -164 -167 -176 -177 0
-141 -164 -168 -176 -177 0
-94 -164 -97 -176 -177 0
-107 -164 -110 -176 -177 0
-119 -164 -122 -176 -177 0
-139 -165 -166 -176 -178 0
-140 -165 -167 -176 -178 0
-141 -165 -168 -176 -178 0
-94 -165 -97 -176 -178 0
-107 -165 -110 -176 -178 0
-119 -165 -122 -176 -178 0
-140 -166 -167 -176 -179 0
-141 -166 -168 -176 -179 0
-94 -166 -97 -176 -179 0
-107 -166 -110 -176 -179 0
-119 -166 -122 -176 -179 0
-141 -167 -168 -176 -180 0
-94 -167 -97 -176 -180 0
-107 -167 -110 -176 -180 0
-119 -167 -122 -176 -180 0
-94 -168 -97 -176 -181 0
-107 -168 -110 -176 -181 0
-119 -168 -122 -176 -181 0
-107 -97 -110 -176 -99 0
-119 -97 -122 -176 -99 0
-119 -110 -122 -176 -112 0
-139 -165 -166 -177 -178 0
-140 -165 -167 -177 -178 0
-141 -165 -168 -177 -178 0
-94 -165 -97 -177 -178 0
-107 -165 -110 -177 -178 0
-119 -165 -122 -177 -178 0
-140 -166 -167 -177 -179 0
-141 -166 -168 -177 -179 0
-94 -166 -97 -177 -179 0
-107 -166 -110 -177 -179 0
-119 -166 -122 -177 -179 0
-141 -167 -168 -177 -180 0
-94 -167 -97 -177 -180 0
-107 -167 -110 -177 -180 0
-119 -167 -122 -177 -180 0
-94 -168 -97 -177 -181 0
-107 -168 -110 -177 -181 0
-119 -168 -122 -177 -181 0
-107 -97 -110 -177 -99 0
-119 -97 -122 -177 -99 0
-119 -110 -122 -177 -112 0
-140 -166 -167 -178 -179 0
-141 -166 -168 -178 -179 0
-94 -166 -97 -178 -179 0
-107 -166 -110 -178 -179 0
-119 -166 -122 -178 -179 0
-141 -167 -168 -178 -180 0
-94 -167 -97 -178 -180 0
-107 -167 -110 -178 -180 0
-119 -167 -122 -178 -180 0
-94 -168 -97 -178 -181 0
-107 -168 -110 -178 -181 0
-119 -168 -122 -178 -181 0
-107 -97 -110 -178 -99 0
-119 -97 -122 -178 -99 0
-119 -110 -122 -178 -112 0
-141 -167 -168 -179 -180 0
-94 -167 -97 -179 -180 0
-107 -167 -110 -179 -180 0
-119 -167 -122 -179 -180 0
-94 -168 -97 -179 -181 0
-107 -168 -110 -179 -181 0
-119 -168 -122 -179 -181 0
-107 -97 -110 -179 -99 0
-119 -97 -122 -179 -99 0
-119 -110 -122 -179 -112 0
-94 -168 -97 -180 -181 0
-107 -168 -110 -180 -181 0
-119 -168 -122 -180 -181 0
-107 -97 -110 -180 -99 0
-119 -97 -122 -180 -99 0
-119 -110 -122 -180 -112 0
-107 -97 -110 -181 -99 0
-119 -97 -122 -181 -99 0
-119 -110 -122 -181 -112 0
-119 -110 -122 -99 -112 0
-139 -165 -166 -182 -183 0
-140 -165 -167 -182 -183 0
-141 -165 -168 -182 -183 0
-94 -165 -97 -182 -183 0
-107 -165 -110 -182 -183 0
-119 -165 -122 -182 -183 0
-140 -166 -167 -182 -184 0
-141 -166 -168 -182 -184 0
-94 -166 -97 -182 -184 0
-107 -166 -110 -182 -184 0
-119 -166 -122 -182 -184 0
-141 -167 -168 -182 -185 0
-94 -167 -97 -182 -185 0
-107 -167 -110 -182 -185 0
-119 -167 -122 -182 -185 0
-94 -168 -97 -182 -186 0
-107 -168 -110 -182 -186 0
-119 -168 -122 -182 -186 0
-107 -97 -110 -182 -100 0
-119 -97 -122 -182 -100 0
-119 -110 -122 -182 -113 0
-140 -166 -167 -183 -184 0
-141 -166 -168 -183 -184 0
-94 -166 -97 -183 -184 0
-107 -166 -110 -183 -184 0
-119 -166 -122 -183 -184 0
-141 -167 -168 -183 -185 0
-94 -167 -97 -183 -185 0
-107 -167 -110 -183 -185 0
-119 -167 -122 -183 -185 0
-94 -168 -97 -183 -186 0
-107 -168 -110 -183 -186 0
-119 -168 -122 -183 -186 0
-107 -97 -110 -183 -100 0
-119 -97 -122 -183 -100 0
-119 -110 -122 -183 -113 0
-141 -167 -168 -184 -185 0
-94 -167 -97 -184 -185 0
-107 -167 -110 -184 -185 0
-119 -167 -122 -184 -185 0
-94 -168 -97 -184 -186 0
-107 -168 -110 -184 -186 0
-119 -168 -122 -184 -186 0
-107 -97 -110 -184 -100 0
-119 -97 -122 -184 -100 0
-119 -110 -122 -184 -113 0
-94 -168 -97 -185 -186 0
-107 -168 -110 -185 -186 0
-119 -168 -122 -185 -186 0
-107 -97 -110 -185 -100 0
-119 -97 -122 -185 -100 0
-119 -110 -122 -185 -113 0
-107 -97 -110 -186 -100 0
-119 -97 -122 -186 -100 0
-119 -110 -122 -186 -113 0
-119 -110 -122 -100 -113 0
-140 -166 -167 -187 -188 0
-141 -166 -168 -187 -188 0
-94 -166 -97 -187 -188 0
-107 -166 -110 -187 -188 0
-119 -166 -122 -187 -188 0
-141 -167 -168 -187 -189 0
-94 -167 -97 -187 -189 0
-107 -167 -110 -187 -189 0
-119 -167 -122 -187 -189 0
-94 -168 -97 -187 -190 0
-107 -168 -110 -187 -190 0
-119 -168 -122 -187 -190 0
-107 -97 -110 -187 -101 0
-119 -97 -122 -187 -101 0
-119 -110 -122 -187 -114 0
-141 -167 -168 -188 -189 0
-94 -167 -97 -188 -189 0
-107 -167 -110 -188 -189 0
-119 -167 -122 -188 -189 0
-94 -168 -97 -188 -190 0
-107 -168 -110 -188 -190 0
-119 -168 -122 -188 -190 0
-107 -97 -110 -188 -101 0
-119 -97 -122 -188 -101 0
-119 -110 -122 -188 -114 0
-94 -168 -97 -189 -190 0
-107 -168 -110 -189 -190 0
-119 -168 -122 -189 -190 0
-107 -97 -110 -189 -101 0
-119 -97 -122 -189 -101 0
-119 -110 -122 -189 -114 0
-107 -97 -110 -190 -101 0
-119 -97 -122 -190 -101 0
-119 -110 -122 -190 -114 0
-119 -110 -122 -101 -114 0
-141 -167 -168 -191 -192 0
-94 -167 -97 -191 -192 0
-107 -167 -110 -191 -192 0
-119 -167 -122 -191 -192 0
-94 -168 -97 -191 -193 0
-107 -168 -110 -191 -193 0
-119 -168 -122 -191 -193 0
-107 -97 -110 -191 -102 0
-119 -97 -122 -191 -102 0
-119 -110 -122 -191 -115 0
-94 -168 -97 -192 -193 0
-107 -168 -110 -192 -193 0
-119 -168 -122 -192 -193 0
-107 -97 -110 -192 -102 0
-119 -97 -122 -192 -102 0
-119 -110 -122 -192 -115 0
-107 -97 -110 -193 -102 0
-119 -97 -122 -193 -102 0
-119 -110 -122 -193 -115 0
-119 -110 -122 -102 -115 0
-94 -168 -97 -194 -195 0
-107 -168 -110 -194 -195 0
-119 -168 -122 -194 -195 0
-107 -97 -110 -194 -103 0
-119 -97 -122 -194 -103 0
-119 -110 -122 -194 -116 0
-107 -97 -110 -195 -103 0
-119 -97 -122 -195 -103 0
-119 -110 -122 -195 -116 0
-119 -110 -122 -103 -116 0
-107 -97 -110 -196 -104 0
-119 -97 -122 -196 -104 0
-119 -110 -122 -196 -117 0
-119 -110 -122 -104 -117 0
-119 -110 -122 -105 -118 0
-138 -171 -172 -176 -177 0
-139 -171 -173 -176 -177 0
-140 -171 -174 -176 -177 0
-141 -171 -175 -176 -177 0
-94 -171 -98 -176 -177 0
-107 -171 -111 -176 -177 0
-119 -171 -123 -176 -177 0
-139 -172 -173 -176 -178 0
-140 -172 -174 -176 -178 0
-141 -172 -175 -176 -178 0
-94 -172 -98 -176 -178 0
-107 -172 -111 -176 -178 0
-119 -172 -123 -176 -178 0
-140 -173 -174 -176 -179 0
-141 -173 -175 -176 -179 0
-94 -173 -98 -176 -179 0
-107 -173 -111 -176 -179 0
-119 -173 -123 -176 -179 0
-141 -174 -175 -176 -180 0
-94 -174 -98 -176 -180 0
-107 -174 -111 -176 -180 0
-119 -174 -123 -176 -180 0
-94 -175 -98 -176 -181 0
-107 -175 -111 -176 -181 0
-119 -175 -123 -176 -181 0
-107 -98 -111 -176 -99 0
-119 -98 -123 -176 -99 0
-119 -111 -123 -176 -112 0
-139 -172 -173 -177 -178 0
-140 -172 -174 -177 -178 0
-141 -172 -175 -177 -178 0
-94 -172 -98 -177 -178 0
-107 -172 -111 -177 -178 0
-119 -172 -123 -177 -178 0
-140 -173 -174 -177 -179 0
-141 -173 -175 -177 -179 0
-94 -173 -98 -177 -179 0
-107 -173 -111 -177 -179 0
-119 -173 -123 -177 -179 0
-141 -174 -175 -177 -180 0
-94 -174 -98 -177 -180 0
-107 -174 -111 -177 -180 0
-119 -174 -123 -177 -180 0
-94 -175 -98 -177 -181 0
-107 -175 -111 -177 -181 0
-119 -175 -123 -177 -181 0
-107 -98 -111 -177 -99 0
-119 -98 -123 -177 -99 0
-119 -111 -123 -177 -112 0
-140 -173 -174 -178 -179 0
-141 -173 -175 -178 -179 0
-94 -173 -98 -178 -179 0
-107 -173 -111 -178 -179 0
-119 -173 -123 -178 -179 0
-141 -174 -175 -178 -180 0
-94 -174 -98 -178 -180 0
-107 -174 -111 -178 -180 0
-119 -174 -123 -178 -180 0
-94 -175 -98 -178 -181 0
-107 -175 -111 -178 -181 0
-119 -175 -123 -178 -181 0
-107 -98 -111 -178 -99 0
-119 -98 -123 -178 -99 0
-119 -111 -123 -178 -112 0
-141 -174 -175 -179 -180 0
-94 -174 -98 -179 -180 0
-107 -174 -111 -179 -180 0
-119 -174 -123 -179 -180 0
-94 -175 -98 -179 -181 0
-107 -175 -111 -179 -181 0
-119 -175 -123 -179 -181 0
-107 -98 -111 -179 -99 0
-119 -98 -123 -179 -99 0
-119 -111 -123 -179 -112 0
-94 -175 -98 -180 -181 0
-107 -175 -111 -180 -181 0
-119 -175 -123 -180 -181 0
-107 -98 -111 -180 -99 0
-119 -98 -123 -180 -99 0
-119 -111 -123 -180 -112 0
-107 -98 -111 -181 -99 0
-119 -98 -123 -181 -99 0
-119 -111 -123 -181 -112 0
-119 -111 -123 -99 -112 0
-139 -172 -173 -182 -183 0
-140 -172 -174 -182 -183 0
-141 -172 -175 -182 -183 0
-94 -172 -98 -182 -183 0
-107 -172 -111 -182 -183 0
-119 -172 -123 -182 -183 0
-140 -173 -174 -182 -184 0
-141 -173 -175 -182 -184 0
-94 -173 -98 -182 -184 0
-107 -173 -111 -182 -184 0
-119 -173 -123 -182 -184 0
-141 -174 -175 -182 -185 0
-94 -174 -98 -182 -185 0
-107 -174 -111 -182 -185 0
-119 -174 -123 -182 -185 0
-94 -175 -98 -182 -186 0
-107 -175 -111 -182 -186 0
-119 -175 -123 -182 -186 0
-107 -98 -111 -182 -100 0
-119 -98 -123 -182 -100 0
-119 -111 -123 -182 -113 0
-140 -173 -174 -183 -184 0
-141 -173 -175 -183 -184 0
-94 -173 -98 -183 -184 0
-107 -173 -111 -183 -184 0
-119 -173 -123 -183 -184 0
-141 -174 -175 -183 -185 0
-94 -174 -98 -183 -185 0
-107 -174 -111 -183 -185 0
-119 -174 -123 -183 -185 0
-94 -175 -98 -183 -186 0
-107 -175 -111 -183 -186 0
-119 -175 -123 -183 -186 0
-107 -98 -111 -183 -100 0
-119 -98 -123 -183 -100 0
-119 -111 -123 -183 -113 0
-141 -174 -175 -184 -185 0
-94 -174 -98 -184 -185 0
-107 -174 -111 -184 -185 0
-119 -174 -123 -184 -185 0
-94 -175 -98 -184 -186 0
-107 -175 -111 -184 -186 0
-119 -175 -123 -184 -186 0
-107 -98 -111 -184 -100 0
-119 -98 -123 -184 -100 0
-119 -111 -123 -184 -113 0
-94 -175 -98 -185 -186 0
-107 -175 -111 -185 -186 0
-119 -175 -123 -185 -186 0
-107 -98 -111 -185 -100 0
-119 -98 -123 -185 -100 0
-119 -111 -123 -185 -113 0
-107 -98 -111 -186 -100 0
-119 -98 -123 -186 -100 0
-119 -111 -123 -186 -113 0
-119 -111 -123 -100 -113 0
-140 -173 -174 -187 -188 0
-141 -173 -175 -187 -188 0
-94 -173 -98 -187 -188 0
-107 -173 -111 -187 -188 0
-119 -173 -123 -187 -188 0
-141 -174 -175 -187 -189 0
-94 -174 -98 -187 -189 0
-107 -174 -111 -187 -189 0
-119 -174 -123 -187 -189 0
-94 -175 -98 -187 -190 0
-107 -175 -111 -187 -190 0
-119 -175 -123 -187 -190 0
-107 -98 -111 -187 -101 0
-119 -98 -123 -187 -101 0
-119 -111 -123 -187 -114 0
-141 -174 -175 -188 -189 0
-94 -174 -98 -188 -189 0
-107 -174 -111 -188 -189 0
-119 -174 -123 -188 -189 0
-94 -175 -98 -188 -190 0
-107 -175 -111 -188 -190 0
-119 -175 -123 -188 -190 0
-107 -98 -111 -188 -101 0
-119 -98 -123 -188 -101 0
-119 -111 -123 -188 -114 0
-94 -175 -98 -189 -190 0
-107 -175 -111 -189 -190 0
-119 -175 -123 -189 -190 0
-107 -98 -111 -189 -101 0
-119 -98 -123 -189 -101 0
-119 -111 -123 -189 -114 0
-107 -98 -111 -190 -101 0
-119 -98 -123 -190 -101 0
-119 -111 -123 -190 -114 0
-119 -111 -123 -101 -114 0
-141 -174 -175 -191 -192 0
-94 -174 -98 -191 -192 0
-107 -174 -111 -191 -192 0
-119 -174 -123 -191 -192 0
-94 -175 -98 -191 -193 0
-107 -175 -111 -191 -193 0
-119 -175 -123 -191 -193 0
-107 -98 -111 -191 -102 0
-119 -98 -123 -191 -102 0
-119 -111 -123 -191 -115 0
-94 -175 -98 -192 -193 0
-107 -175 -111 -192 -193 0
-119 -175 -123 -192 -193 0
-107 -98 -111 -192 -102 0
-119 -98 -123 -192 -102 0
-119 -111 -123 -192 -115 0
-107 -98 -111 -193 -102 0
-119 -98 -123 -193 -102 0
-119 -111 -123 -193 -115 0
-119 -111 -123 -102 -115 0
-94 -175 -98 -194 -195 0
-107 -175 -111 -194 -195 0
-119 -175 -123 -194 -195 0
-107 -98 -111 -194 -103 0
-119 -98 -123 -194 -103 0
-119 -111 -123 -194 -116 0
-107 -98 -111 -195 -103 0
-119 -98 -123 -195 -103 0
-119 -111 -123 -195 -116 0
-119 -111 -123 -103 -116 0
-107 -98 -111 -196 -104 0
-119 -98 -123 -196 -104 0
-119 -111 -123 -196 -117 0
-119 -111 -123 -104 -117 0
-119 -111 -123 -105 -118 0
-139 -178 -179 -182 -183 0
-140 -178 -180 -182 -183 0
-141 -178 -181 -182 -183 0
-94 -178 -99 -182 -183 0
-107 -178 -112 -182 -183 0
-119 -178 -124 -182 -183 0
-140 -179 -180 -182 -184 0
-141 -179 -181 -182 -184 0
-94 -179 -99 -182 -184 0
-107 -179 -112 -182 -184 0
-119 -179 -124 -182 -184 0
-141 -180 -181 -182 -185 0
-94 -180 -99 -182 -185 0
-107 -180 -112 -182 -185 0
-119 -180 -124 -182 -185 0
-94 -181 -99 -182 -186 0
-107 -181 -112 -182 -186 0
-119 -181 -124 -182 -186 0
-107 -99 -112 -182 -100 0
-119 -99 -124 -182 -100 0
-119 -112 -124 -182 -113 0
-140 -179 -180 -183 -184 0
-141 -179 -181 -183 -184 0
-94 -179 -99 -183 -184 0
-107 -179 -112 -183 -184 0
-119 -179 -124 -183 -184 0
-141 -180 -181 -183 -185 0
-94 -180 -99 -183 -185 0
-107 -180 -112 -183 -185 0
-119 -180 -124 -183 -185 0
-94 -181 -99 -183 -186 0
-107 -181 -112 -183 -186 0
-119 -181 -124 -183 -186 0
-107 -99 -112 -183 -100 0
-119 -99 -124 -183 -100 0
-119 -112 -124 -183 -113 0
-141 -180 -181 -184 -185 0
-94 -180 -99 -184 -185 0
-107 -180 -112 -184 -185 0
-119 -180 -124 -184 -185 0
-94 -181 -99 -184 -186 0
-107 -181 -112 -184 -186 0
-119 -181 -124 -184 -186 0
-107 -99 -112 -184 -100 0
-119 -99 -124 -184 -100 0
-119 -112 -124 -184 -113 0
-94 -181 -99 -185 -186 0
-107 -181 -112 -185 -186 0
-119 -181 -124 -185 -186 0
-107 -99 -112 -185 -100 0
-119 -99 -124 -185 -100 0
-119 -112 -124 -185 -113 0
-107 -99 -112 -186 -100 0
-119 -99 -124 -186 -100 0
-119 -112 -124 -186 -113 0
-119 -112 -124 -100 -113 0
-140 -179 -180 -187 -188 0
-141 -179 -181 -187 -188 0
-94 -179 -99 -187 -188 0
-107 -179 -112 -187 -188 0
-119 -179 -124 -187 -188 0
-141 -180 -181 -187 -189 0
-94 -180 -99 -187 -189 0
-107 -180 -112 -187 -189 0
-119 -180 -124 -187 -189 0
-94 -181 -99 -187 -190 0
-107 -181 -112 -187 -190 0
-119 -181 -124 -187 -190 0
-107 -99 -112 -187 -101 0
-119 -99 -124 -187 -101 0
-119 -112 -124 -187 -114 0
-141 -180 -181 -188 -189 0
-94 -180 -99 -188 -189 0
-107 -180 -112 -188 -189 0
-119 -180 -124 -188 -189 0
-94 -181 -99 -188 -190 0
-107 -181 -112 -188 -190 0
-119 -181 -124 -188 -190 0
-107 -99 -112 -188 -101 0
-119 -99 -124 -188 -101 0
-119 -112 -124 -188 -114 0
-94 -181 -99 -189 -190 0
-107 -181 -112 -189 -190 0
-119 -181 -124 -189 -190 0
-107 -99 -112 -189 -101 0
-119 -99 -124 -189 -101 0
-119 -112 -124 -189 -114 0
-107 -99 -112 -190 -101 0
-119 -99 -124 -190 -101 0
-119 -112 -124 -190 -114 0
-119 -112 -124 -101 -114 0
-141 -180 -181 -191 -192 0
-94 -180 -99 -191 -192 0
-107 -180 -112 -191 -192 0
-119 -180 -124 -191 -192 0
-94 -181 -99 -191 -193 0
-107 -181 -112 -191 -193 0
-119 -181 -124 -191 -193 0
-107 -99 -112 -191 -102 0
-119 -99 -124 -191 -102 0
-119 -112 -124 -191 -115 0
-94 -181 -99 -192 -193 0
-107 -181 -112 -192 -193 0
-119 -181 -124 -192 -193 0
-107 -99 -112 -192 -102 0
-119 -99 -124 -192 -102 0
-119 -112 -124 -192 -115 0
-107 -99 -112 -193 -102 0
-119 -99 -124 -193 -102 0
-119 -112 -124 -193 -115 0
-119 -112 -124 -102 -115 0
-94 -181 -99 -194 -195 0
-107 -181 -112 -194 -195 0
-119 -181 -124 -194 -195 0
-107 -99 -112 -194 -103 0
-119 -99 -124 -194 -103 0
-119 -112 -124 -194 -116 0
-107 -99 -112 -195 -103 0
-119 -99 -124 -195 -103 0
-119 -112 -124 -195 -116 0
-119 -112 -124 -103 -116 0
-107 -99 -112 -196 -104 0
-119 -99 -124 -196 -104 0
-119 -112 -124 -196 -117 0
-119 -112 -124 -104 -117 0
-119 -112 -124 -105 -118 0
-140 -184 -185 -187 -188 0
-141 -184 -186 -187 -188 0
-94 -184 -100 -187 -188 0
-107 -184 -113 -187 -188 0
-119 -184 -125 -187 -188 0
-141 -185 -186 -187 -189 0
-94 -185 -100 -187 -189 0
-107 -185 -113 -187 -189 0
-119 -185 -125 -187 -189 0
-94 -186 -100 -187 -190 0
-107 -186 -113 -187 -190 0
-119 -186 -125 -187 -190 0
-107 -100 -113 -187 -101 0
-119 -100 -125 -187 -101 0
-119 -113 -125 -187 -114 0
-141 -185 -186 -188 -189 0
-94 -185 -100 -188 -189 0
-107 -185 -113 -188 -189 0
-119 -185 -125 -188 -189 0
-94 -186 -100 -188 -190 0
-107 -186 -113 -188 -190 0
-119 -186 -125 -188 -190 0
-107 -100 -113 -188 -101 0
-119 -100 -125 -188 -101 0
-119 -113 -125 -188 -114 0
-94 -186 -100 -189 -190 0
-107 -186 -113 -189 -190 0
-119 -186 -125 -189 -190 0
-107 -100 -113 -189 -101 0
-119 -100 -125 -189 -101 0
-119 -113 -125 -189 -114 0
-107 -100 -113 -190 -101 0
-119 -100 -125 -190 -101 0
-119 -113 -125 -190 -114 0
-119 -113 -125 -101 -114 0
-141 -185 -186 -191 -192 0
-94 -185 -100 -191 -192 0
-107 -185 -113 -191 -192 0
-119 -185 -125 -191 -192 0
-94 -186 -100 -191 -193 0
-107 -186 -113 -191 -193 0
-119 -186 -125 -191 -193 0
-107 -100 -113 -191 -102 0
-119 -100 -125 -191 -102 0
-119 -113 -125 -191 -115 0
-94 -186 -100 -192 -193 0
-107 -186 -113 -192 -193 0
-119 -186 -125 -192 -193 0
-107 -100 -113 -192 -102 0
-119 -100 -125 -192 -102 0
-119 -113 -125 -192 -115 0
-107 -100 -113 -193 -102 0
-119 -100 -125 -193 -102 0
-119 -113 -125 -193 -115 0
-119 -113 -125 -102 -115 0
-94 -186 -100 -194 -195 0
-107 -186 -113 -194 -195 0
-119 -186 -125 -194 -195 0
-107 -100 -113 -194 -103 0
-119 -100 -125 -194 -103 0
-119 -113 -125 -194 -116 0
-107 -100 -113 -195 -103 0
-119 -100 -125 -195 -103 0
-119 -113 -125 -195 -116 0
-119 -113 -125 -103 -116 0
-107 -100 -113 -196 -104 0
-119 -100 -125 -196 -104 0
-119 -113 -125 -196 -117 0
-119 -113 -125 -104 -117 0
-119 -113 -125 -105 -118 0
-141 -189 -190 -191 -192 0
-94 -189 -101 -191 -192 0
-107 -189 -114 -191 -192 0
-119 -189 -126 -191 -192 0
-94 -190 -101 -191 -193 0
-107 -190 -114 -191 -193 0
-119 -190 -126 -191 -193 0
-107 -101 -114 -191 -102 0
-119 -101 -126 -191 -102 0
-119 -114 -126 -191 -115 0
-94 -190 -101 -192 -193 0
-107 -190 -114 -192 -193 0
-119 -190 -126 -192 -193 0
-107 -101 -114 -192 -102 0
-119 -101 -126 -192 -102 0
-119 -114 -126 -192 -115 0
-107 -101 -114 -193 -102 0
-119 -101 -126 -193 -102 0
-119 -114 -126 -193 -115 0
-119 -114 -126 -102 -115 0
-94 -190 -101 -194 -195 0
-107 -190 -114 -194 -195 0
-119 -190 -126 -194 -195 0
-107 -101 -114 -194 -103 0
-119 -101 -126 -194 -103 0
-119 -114 -126 -194 -116 0
-107 -101 -114 -195 -103 0
-119 -101 -126 -195 -103 0
-119 -114 -126 -195 -116 0
-119 -114 -126 -103 -116 0
-107 -101 -114 -196 -104 0
-119 -101 -126 -196 -104 0
-119 -114 -126 -196 -117 0
-119 -114 -126 -104 -117 0
-119 -114 -126 -105 -118 0
-94 -193 -102 -194 -195 0
-107 -193 -115 -194 -195 0
-119 -193 -127 -194 -195 0
-107 -102 -115 -194 -103 0
-119 -102 -127 -194 -103 0
-119 -115 -127 -194 -116 0
-107 -102 -115 -195 -103 0
-119 -102 -127 -195 -103 0
-119 -115 -127 -195 -116 0
-119 -115 -127 -103 -116 0
-107 -102 -115 -196 -104 0
-119 -102 -127 -196 -104 0
-119 -115 -127 -196 -117 0
-119 -115 -127 -104 -117 0
-119 -115 -127 -105 -118 0
-107 -103 -116 -196 -104 0
-119 -103 -128 -196 -104 0
-119 -116 -128 -196 -117 0
-119 -116 -128 -104 -117 0
-119 -116 -128 -105 -118 0
-119 -117 -129 -105 -118 0
-146 -154 -155 -161 -162 0
-147 -154 -156 -161 -162 0
-148 -154 -157 -161 -162 0
-149 -154 -158 -161 -162 0
-150 -154 -159 -161 -162 0
-151 -154 -160 -161 -162 0
-95 -154 -96 -161 -162 0
-108 -154 -109 -161 -162 0
-120 -154 -121 -161 -162 0
-131 -154 -132 -161 -162 0
-147 -155 -156 -161 -163 0
-148 -155 -157 -161 -163 0
-149 -155 -158 -161 -163 0
-150 -155 -159 -161 -163 0
-151 -155 -160 -161 -163 0
-95 -155 -96 -161 -163 0
-108 -155 -109 -161 -163 0
-120 -155 -121 -161 -163 0
-131 -155 -132 -161 -163 0
-148 -156 -157 -161 -164 0
-149 -156 -158 -161 -164 0
-150 -156 -159 -161 -164 0
-151 -156 -160 -161 -164 0
-95 -156 -96 -161 -164 0
-108 -156 -109 -161 -164 0
-120 -156 -121 -161 -164 0
-131 -156 -132 -161 -164 0
-149 -157 -158 -161 -165 0
-150 -157 -159 -161 -165 0
-151 -157 -160 -161 -165 0
-95 -157 -96 -161 -165 0
-108 -157 -109 -161 -165 0
-120 -157 -121 -161 -165 0
-131 -157 -132 -161 -165 0
-150 -158 -159 -161 -166 0
-151 -158 -160 -161 -166 0
-95 -158 -96 -161 -166 0
-108 -158 -109 -161 -166 0
-120 -158 -121 -161 -166 0
-131 -158 -132 -161 -166 0
-151 -159 -160 -161 -167 0
-95 -159 -96 -161 -167 0
-108 -159 -109 -161 -167 0
-120 -159 -121 -161 -167 0
-131 -159 -132 -161 -167 0
-95 -160 -96 -161 -168 0
-108 -160 -109 -161 -168 0
-120 -160 -121 -161 -168 0
-131 -160 -132 -161 -168 0
-108 -96 -109 -161 -97 0
-120 -96 -121 -161 -97 0
-131 -96 -132 -161 -97 0
-120 -109 -121 -161 -110 0
-131 -109 -132 -161 -110 0
-131 -121 -132 -161 -122 0
-147 -155 -156 -162 -163 0
-148 -155 -157 -162 -163 0
-149 -155 -158 -162 -163 0
-150 -155 -159 -162 -163 0
-151 -155 -160 -162 -163 0
-95 -155 -96 -162 -163 0
-108 -155 -109 -162 -163 0
-120 -155 -121 -162 -163 0
-131 -155 -132 -162 -163 0
-148 -156 -157 -162 -164 0
-149 -156 -158 -162 -164 0
-150 -156 -159 -162 -164 0
-151 -156 -160 -162 -164 0
-95 -156 -96 -162 -164 0
-108 -156 -109 -162 -164 0
-120 -156 -121 -162 -164 0
-131 -156 -132 -162 -164 0
-149 -157 -158 -162 -165 0
-150 -157 -159 -162 -165 0
-151 -157 -160 -162 -165 0
-95 -157 -96 -162 -165 0
-108 -157 -109 -162 -165 0
-120 -157 -121 -162 -165 0
-131 -157 -132 -162 -165 0
-150 -158 -159 -162 -166 0
-151 -158 -160 -162 -166 0
-95 -158 -96 -162 -166 0
-108 -158 -109 -162 -166 0
-120 -158 -121 -162 -166 0
-131 -158 -132 -162 -166 0
-151 -159 -160 -162 -167 0
-95 -159 -96 -162 -167 0
-108 -159 -109 -162 -167 0
-120 -159 -121 -162 -167 0
-131 -159 -132 -162 -167 0
-95 -160 -96 -162 -168 0
-108 -160 -109 -162 -168 0
-120 -160 -121 -162 -168 0
-131 -160 -132 -162 -168 0
-108 -96 -109 -162 -97 0
-120 -96 -121 -162 -97 0
-131 -96 -132 -162 -97 0
-120 -109 -121 -162 -110 0
-131 -109 -132 -162 -110 0
-131 -121 -132 -162 -122 0
-148 -156 -157 -163 -164 0
-149 -156 -158 -163 -164 0
-150 -156 -159 -163 -164 0
-151 -156 -160 -163 -164 0
-95 -156 -96 -163 -164 0
-108 -156 -109 -163 -164 0
-120 -156 -121 -163 -164 0
-131 -156 -132 -163 -164 0
-149 -157 -158 -163 -165 0
-150 -157 -159 -163 -165 0
-151 -157 -160 -163 -165 0
-95 -157 -96 -163 -165 0
-108 -157 -109 -163 -165 0
-120 -157 -121 -163 -165 0
-131 -157 -132 -163 -165 0
-150 -158 -159 -163 -166 0
-151 -158 -160 -163 -166 0
-95 -158 -96 -163 -166 0
-108 -158 -109 -163 -166 0
-120 -158 -121 -163 -166 0
-131 -158 -132 -163 -166 0
-151 -159 -160 -163 -167 0
-95 -159 -96 -163 -167 0
-108 -159 -109 -163 -167 0
-120 -159 -121 -163 -167 0
-131 -159 -132 -163 -167 0
-95 -160 -96 -163 -168 0
-108 -160 -109 -163 -168 0
-120 -160 -121 -163 -168 0
-131 -160 -132 -163 -168 0
-108 -96 -109 -163 -97 0
-120 -96 -121 -163 -97 0
-131 -96 -132 -163 -97 0
-120 -109 -121 -163 -110 0
-131 -109 -132 -163 -110 0
-131 -121 -132 -163 -122 0
-149 -157 -158 -164 -165 0
-150 -157 -159 -164 -165 0
-151 -157 -160 -164 -165 0
-95 -157 -96 -164 -165 0
-108 -157 -109 -164 -165 0
-120 -157 -121 -164 -165 0
-131 -157 -132 -164 -165 0
-150 -158 -159 -164 -166 0
-151 -158 -160 -164 -166 0
-95 -158 -96 -164 -166 0
-108 -158 -109 -164 -166 0
-120 -158 -121 -164 -166 0
-131 -158 -132 -164 -166 0
-151 -159 -160 -164 -167 0
-95 -159 -96 -164 -167 0
-108 -159 -109 -164 -167 0
-120 -159 -121 -164 -167 0
-131 -159 -132 -164 -167 0
-95 -160 -96 -164 -168 0
-108 -160 -109 -164 -168 0
-120 -160 -121 -164 -168 0
-131 -160 -132 -164 -168 0
-108 -96 -109 -164 -97 0
-120 -96 -121 -164 -97 0
-131 -96 -132 -164 -97 0
-120 -109 -121 -164 -110 0
-131 -109 -132 -164 -110 0
-131 -121 -132 -164 -122 0
-150 -158 -159 -165 -166 0
-151 -158 -160 -165 -166 0
-95 -158 -96 -165 -166 0
-108 -158 -109 -165 -166 0
-120 -158 -121 -165 -166 0
-131 -158 -132 -165 -166 0
-151 -159 -160 -165 -167 0
-95 -159 -96 -165 -167 0
-108 -159 -109 -165 -167 0
-120 -159 -121 -165 -167 0
-131 -159 -132 -165 -167 0
-95 -160 -96 -165 -168 0
-108 -160 -109 -165 -168 0
-120 -160 -121 -165 -168 0
-131 -160 -132 -165 -168 0
-108 -96 -109 -165 -97 0
-120 -96 -121 -165 -97 0
-131 -96 -132 -165 -97 0
-120 -109 -121 -165 -110 0
-131 -109 -132 -165 -110 0
-131 -121 -132 -165 -122 0
-151 -159 -160 -166 -167 0
-95 -159 -96 -166 -167 0
-108 -159 -109 -166 -167 0
-120 -159 -121 -166 -167 0
-131 -159 -132 -166 -167 0
-95 -160 -96 -166 -168 0
-108 -160 -109 -166 -168 0
-120 -160 -121 -166 -168 0
-131 -160 -132 -166 -168 0
-108 -96 -109 -166 -97 0
-120 -96 -121 -166 -97 0
-131 -96 -132 -166 -97 0
-120 -109 -121 -166 -110 0
-131 -109 -132 -166 -110 0
-131 -121 -132 -166 -122 0
-95 -160 -96 -167 -168 0
-108 -160 -109 -167 -168 0
-120 -160 -121 -167 -168 0
-131 -160 -132 -167 -168 0
-108 -96 -109 -167 -97 0
-120 -96 -121 -167 -97 0
-131 -96 -132 -167 -97 0
-120 -109 -121 -167 -110 0
-131 -109 -132 -167 -110 0
-131 -121 -132 -167 -122 0
-108 -96 -109 -168 -97 0
-120 -96 -121 -168 -97 0
-131 -96 -132 -168 -97 0
-120 -109 -121 -168 -110 0
-131 -109 -132 -168 -110 0
-131 -121 -132 -168 -122 0
-120 -109 -121 -97 -110 0
-131 -109 -132 -97 -110 0
-131 -121 -132 -97 -122 0
-131 -121 -132 -110 -122 0
-147 -155 -156 -169 -170 0
-148 -155 -157 -169 -170 0
-149 -155 -158 -169 -170 0
-150 -155 -159 -169 -170 0
-151 -155 -160 -169 -170 0
-95 -155 -96 -169 -170 0
-108 -155 -109 -169 -170 0
-120 -155 -121 -169 -170 0
-131 -155 -132 -169 -170 0
-148 -156 -157 -169 -171 0
-149 -156 -158 -169 -171 0
-150 -156 -159 -169 -171 0
-151 -156 -160 -169 -171 0
-95 -156 -96 -169 -171 0
-108 -156 -109 -169 -171 0
-120 -156 -121 -169 -171 0
-131 -156 -132 -169 -171 0
-149 -157 -158 -169 -172 0
-150 -157 -159 -169 -172 0
-151 -157 -160 -169 -172 0
-95 -157 -96 -169 -172 0
-108 -157 -109 -169 -172 0
-120 -157 -121 -169 -172 0
-131 -157 -132 -169 -172 0
-150 -158 -159 -169 -173 0
-151 -158 -160 -169 -173 0
-95 -158 -96 -169 -173 0
-108 -158 -109 -169 -173 0
-120 -158 -121 -169 -173 0
-131 -158 -132 -169 -173 0
-151 -159 -160 -169 -174 0
-95 -159 -96 -169 -174 0
-108 -159 -109 -169 -174 0
-120 -159 -121 -169 -174 0
-131 -159 -132 -169 -174 0
-95 -160 -96 -169 -175 0
-108 -160 -109 -169 -175 0
-120 -160 -121 -169 -175 0
-131 -160 -132 -169 -175 0
-108 -96 -109 -169 -98 0
-120 -96 -121 -169 -98 0
-131 -96 -132 -169 -98 0
-120 -109 -121 -169 -111 0
-131 -109 -132 -169 -111 0
-131 -121 -132 -169 -123 0
-148 -156 -157 -170 -171 0
-149 -156 -158 -170 -171 0
-150 -156 -159 -170 -171 0
-151 -156 -160 -170 -171 0
-95 -156 -96 -170 -171 0
-108 -156 -109 -170 -171 0
-120 -156 -121 -170 -171 0
-131 -156 -132 -170 -171 0
-149 -157 -158 -170 -172 0
-150 -157 -159 -170 -172 0
-151 -157 -160 -170 -172 0
-95 -157 -96 -170 -172 0
-108 -157 -109 -170 -172 0
-120 -157 -121 -170 -172 0
-131 -157 -132 -170 -172 0
-150 -158 -159 -170 -173 0
-151 -158 -160 -170 -173 0
-95 -158 -96 -170 -173 0
-108 -158 -109 -170 -173 0
-120 -158 -121 -170 -173 0
-131 -158 -132 -170 -173 0
-151 -159 -160 -170 -174 0
-95 -159 -96 -170 -174 0
-108 -159 -109 -170 -174 0
-120 -159 -121 -170 -174 0
-131 -159 -132 -170 -174 0
-95 -160 -96 -170 -175 0
-108 -160 -109 -170 -175 0
-120 -160 -121 -170 -175 0
-131 -160 -132 -170 -175 0
-108 -96 -109 -170 -98 0
-120 -96 -121 -170 -98 0
-131 -96 -132 -170 -98 0
-120 -109 -121 -170 -111 0
-131 -109 -132 -170 -111 0
-131 -121 -132 -170 -123 0
-149 -157 -158 -171 -172 0
-150 -157 -159 -171 -172 0
-151 -157 -160 -171 -172 0
-95 -157 -96 -171 -172 0
-108 -157 -109 -171 -172 0
-120 -157 -121 -171 -172 0
-131 -157 -132 -171 -172 0
-150 -158 -159 -171 -173 0
-151 -158 -160 -171 -173 0
-95 -158 -96 -171 -173 0
-108 -158 -109 -171 -173 0
-120 -158 -121 -171 -173 0
-131 -158 -132 -171 -173 0
-151 -159 -160 -171 -174 0
-95 -159 -96 -171 -174 0
-108 -159 -109 -171 -174 0
-120 -159 -121 -171 -174 0
-131 -159 -132 -171 -174 0
-95 -160 -96 -171 -175 0
-108 -160 -109 -171 -175 0
-120 -160 -121 -171 -175 0
-131 -160 -132 -171 -175 0
-108 -96 -109 -171 -98 0
-120 -96 -121 -171 -98 0
-131 -96 -132 -171 -98 0
-120 -109 -121 -171 -111 0
-131 -109 -132 -171 -111 0
-131 -121 -132 -171 -123 0
-150 -158 -159 -172 -173 0
-151 -158 -160 -172 -173 0
-95 -158 -96 -172 -173 0
-108 -158 -109 -172 -173 0
-120 -158 -121 -172 -173 0
-131 -158 -132 -172 -173 0
-151 -159 -160 -172 -174 0
-95 -159 -96 -172 -174 0
-108 -159 -109 -172 -174 0
-120 -159 -121 -172 -174 0
-131 -159 -132 -172 -174 0
-95 -160 -96 -172 -175 0
-108 -160 -109 -172 -175 0
-120 -160 -121 -172 -175 0
-131 -160 -132 -172 -175 0
-108 -96 -109 -172 -98 0
-120 -96 -121 -172 -98 0
-131 -96 -132 -172 -98 0
-120 -109 -121 -172 -111 0
-131 -109 -132 -172 -111 0
-131 -121 -132 -172 -123 0
-151 -159 -160 -173 -174 0
-95 -159 -96 -173 -174 0
-108 -159 -109 -173 -174 0
-120 -159 -121 -173 -174 0
-131 -159 -132 -173 -174 0
-95 -160 -96 -173 -175 0
-108 -160 -109 -173 -175 0
-120 -160 -121 -173 -175 0
-131 -160 -132 -173 -175 0
-108 -96 -109 -173 -98 0
-120 -96 -121 -173 -98 0
-131 -96 -132 -173 -98 0
-120 -109 -121 -173 -111 0
-131 -109 -132 -173 -111 0
-131 -121 -132 -173 -123 0
-95 -160 -96 -174 -175 0
-108 -160 -109 -174 -175 0
-120 -160 -121 -174 -175 0
-131 -160 -132 -174 -175 0
-108 -96 -109 -174 -98 0
-120 -96 -121 -174 -98 0
-131 -96 -132 -174 -98 0
-120 -109 -121 -174 -111 0
-131 -109 -132 -174 -111 0
-131 -121 -132 -174 -123 0
-108 -96 -109 -175 -98 0
-120 -96 -121 -175 -98 0
-131 -96 -132 -175 -98 0
-120 -109 -121 -175 -111 0
-131 -109 -132 -175 -111 0
-131 -121 -132 -175 -123 0
-120 -109 -121 -98 -111 0
-131 -109 -132 -98 -111 0
-131 -121 -132 -98 -123 0
-131 -121 -132 -111 -123 0
-148 -156 -157 -176 -177 0
-149 -156 -158 -176 -177 0
-150 -156 -159 -176 -177 0
-151 -156 -160 -176 -177 0
-95 -156 -96 -176 -177 0
-108 -156 -109 -176 -177 0
-120 -156 -121 -176 -177 0
-131 -156 -132 -176 -177 0
-149 -157 -158 -176 -178 0
-150 -157 -159 -176 -178 0
-151 -157 -160 -176 -178 0
-95 -157 -96 -176 -178 0
-108 -157 -109 -176 -178 0
-120 -157 -121 -176 -178 0
-131 -157 -132 -176 -178 0
-150 -158 -159 -176 -179 0
-151 -158 -160 -176 -179 0
-95 -158 -96 -176 -179 0
-108 -158 -109 -176 -179 0
-120 -158 -121 -176 -179 0
-131 -158 -132 -176 -179 0
-151 -159 -160 -176 -180 0
-95 -159 -96 -176 -180 0
-108 -159 -109 -176 -180 0
-120 -159 -121 -176 -180 0
-131 -159 -132 -176 -180 0
-95 -160 -96 -176 -181 0
-108 -160 -109 -176 -181 0
-120 -160 -121 -176 -181 0
-131 -160 -132 -176 -181 0
-108 -96 -109 -176 -99 0
-120 -96 -121 -176 -99 0
-131 -96 -132 -176 -99 0
-120 -109 -121 -176 -112 0
-131 -109 -132 -176 -112 0
-131 -121 -132 -176 -124 0
-149 -157 -158 -177 -178 0
-150 -157 -159 -177 -178 0
-151 -157 -160 -177 -178 0
-95 -157 -96 -177 -178 0
-108 -157 -109 -177 -178 0
-120 -157 -121 -177 -178 0
-131 -157 -132 -177 -178 0
-150 -158 -159 -177 -179 0
-151 -158 -160 -177 -179 0
-95 -158 -96 -177 -179 0
-108 -158 -109 -177 -179 0
-120 -158 -121 -177 -179 0
-131 -158 -132 -177 -179 0
-151 -159 -160 -177 -180 0
-95 -159 -96 -177 -180 0
-108 -159 -109 -177 -180 0
-120 -159 -121 -177 -180 0
-131 -159 -132 -177 -180 0
-95 -160 -96 -177 -181 0
-108 -160 -109 -177 -181 0
-120 -160 -121 -177 -181 0
-131 -160 -132 -177 -181 0
-108 -96 -109 -177 -99 0
-120 -96 -121 -177 -99 0
-131 -96 -132 -177 -99 0
-120 -109 -121 -177 -112 0
-131 -109 -132 -177 -112 0
-131 -121 -132 -177 -124 0
-150 -158 -159 -178 -179 0
-151 -158 -160 -178 -179 0
-95 -158 -96 -178 -179 0
-108 -158 -109 -178 -179 0
-120 -158 -121 -178 -179 0
-131 -158 -132 -178 -179 0
-151 -159 -160 -178 -180 0
-95 -159 -96 -178 -180 0
-108 -159 -109 -178 -180 0
-120 -159 -121 -178 -180 0
-131 -159 -132 -178 -180 0
-95 -160 -96 -178 -181 0
-108 -160 -109 -178 -181 0
-120 -160 -121 -178 -181 0
-131 -160 -132 -178 -181 0
-108 -96 -109 -178 -99 0
-120 -96 -121 -178 -99 0
-131 -96 -132 -178 -99 0
-120 -109 -121 -178 -112 0
-131 -109 -132 -178 -112 0
-131 -121 -132 -178 -124 0
-151 -159 -160 -179 -180 0
-95 -159 -96 -179 -180 0
-108 -159 -109 -179 -180 0
-120 -159 -121 -179 -180 0
-131 -159 -132 -179 -180 0
-95 -160 -96 -179 -181 0
-108 -160 -109 -179 -181 0
-120 -160 -121 -179 -181 0
-131 -160 -132 -179 -181 0
-108 -96 -109 -179 -99 0
-120 -96 -121 -179 -99 0
-131 -96 -132 -179 -99 0
-120 -109 -121 -179 -112 0
-131 -109 -132 -179 -112 0
-131 -121 -132 -179 -124 0
-95 -160 -96 -180 -181 0
-108 -160 -109 -180 -181 0
-120 -160 -121 -180 -181 0
-131 -160 -132 -180 -181 0
-108 -96 -109 -180 -99 0
-120 -96 -121 -180 -99 0
-131 -96 -132 -180 -99 0
-120 -109 -121 -180 -112 0
-131 -109 -132 -180 -112 0
-131 -121 -132 -180 -124 0
-108 -96 -109 -181 -99 0
-120 -96 -121 -181 -99 0
-131 -96 -132 -181 -99 0
-120 -109 -121 -181 -112 0
-131 -109 -132 -181 -112 0
-131 -121 -132 -181 -124 0
-120 -109 -121 -99 -112 0
-131 -109 -132 -99 -112 0
-131 -121 -132 -99 -124 0
-131 -121 -132 -112 -124 0
-149 -157 -158 -182 -183 0
-150 -157 -159 -182 -183 0
-151 -157 -160 -182 -183 0
-95 -157 -96 -182 -183 0
-108 -157 -109 -182 -183 0
-120 -157 -121 -182 -183 0
-131 -157 -132 -182 -183 0
-150 -158 -159 -182 -184 0
-151 -158 -160 -182 -184 0
-95 -158 -96 -182 -184 0
-108 -158 -109 -182 -184 0
-120 -158 -121 -182 -184 0
-131 -158 -132 -182 -184 0
-151 -159 -160 -182 -185 0
-95 -159 -96 -182 -185 0
-108 -159 -109 -182 -185 0
-120 -159 -121 -182 -185 0
-131 -159 -132 -182 -185 0
-95 -160 -96 -182 -186 0
-108 -160 -109 -182 -186 0
-120 -160 -121 -182 -186 0
-131 -160 -132 -182 -186 0
-108 -96 -109 -182 -100 0
-120 -96 -121 -182 -100 0
-131 -96 -132 -182 -100 0
-120 -109 -121 -182 -113 0
-131 -109 -132 -182 -113 0
-131 -121 -132 -182 -125 0
-150 -158 -159 -183 -184 0
-151 -158 -160 -183 -184 0
-95 -158 -96 -183 -184 0
-108 -158 -109 -183 -184 0
-120 -158 -121 -183 -184 0
-131 -158 -132 -183 -184 0
-151 -159 -160 -183 -185 0
-95 -159 -96 -183 -185 0
-108 -159 -109 -183 -185 0
-120 -159 -121 -183 -185 0
-131 -159 -132 -183 -185 0
-95 -160 -96 -183 -186 0
-108 -160 -109 -183 -186 0
-120 -160 -121 -183 -186 0
-131 -160 -132 -183 -186 0
-108 -96 -109 -183 -100 0
-120 -96 -121 -183 -100 0
-131 -96 -132 -183 -100 0
-120 -109 -121 -183 -113 0
-131 -109 -132 -183 -113 0
-131 -121 -132 -183 -125 0
-151 -159 -160 -184 -185 0
-95 -159 -96 -184 -185 0
-108 -159 -109 -184 -185 0
-120 -159 -121 -184 -185 0
-131 -159 -132 -184 -185 0
-95 -160 -96 -184 -186 0
-108 -160 -109 -184 -186 0
-120 -160 -121 -184 -186 0
-131 -160 -132 -184 -186 0
-108 -96 -109 -184 -100 0
-120 -96 -121 -184 -100 0
-131 -96 -132 -184 -100 0
-120 -109 -121 -184 -113 0
-131 -109 -132 -184 -113 0
-131 -121 -132 -184 -125 0
-95 -160 -96 -185 -186 0
-108 -160 -109 -185 -186 0
-120 -160 -121 -185 -186 0
-131 -160 -132 -185 -186 0
-108 -96 -109 -185 -100 0
-120 -96 -121 -185 -100 0
-131 -96 -132 -185 -100 0
-120 -109 -121 -185 -113 0
-131 -109 -132 -185 -113 0
-131 -121 -132 -185 -125 0
-108 -96 -109 -186 -100 0
-120 -96 -121 -186 -100 0
-131 -96 -132 -186 -100 0
-120 -109 -121 -186 -113 0
-131 -109 -132 -186 -113 0
-131 -121 -132 -186 -125 0
-120 -109 -121 -100 -113 0
-131 -109 -132 -100 -113 0
-131 -121 -132 -100 -125 0
-131 -121 -132 -113 -125 0
-150 -158 -159 -187 -188 0
-151 -158 -160 -187 -188 0
-95 -158 -96 -187 -188 0
-108 -158 -109 -187 -188 0
-120 -158 -121 -187 -188 0
-131 -158 -132 -187 -188 0
-151 -159 -160 -187 -189 0
-95 -159 -96 -187 -189 0
-108 -159 -109 -187 -189 0
-120 -159 -121 -187 -189 0
-131 -159 -132 -187 -189 0
-95 -160 -96 -187 -190 0
-108 -160 -109 -187 -190 0
-120 -160 -121 -187 -190 0
-131 -160 -132 -187 -190 0
-108 -96 -109 -187 -101 0
-120 -96 -121 -187 -101 0
-131 -96 -132 -187 -101 0
-120 -109 -121 -187 -114 0
-131 -109 -132 -187 -114 0
-131 -121 -132 -187 -126 0
-151 -159 -160 -188 -189 0
-95 -159 -96 -188 -189 0
-108 -159 -109 -188 -189 0
-120 -159 -121 -188 -189 0
-131 -159 -132 -188 -189 0
-95 -160 -96 -188 -190 0
-108 -160 -109 -188 -190 0
-120 -160 -121 -188 -190 0
-131 -160 -132 -188 -190 0
-108 -96 -109 -188 -101 0
-120 -96 -121 -188 -101 0
-131 -96 -132 -188 -101 0
-120 -109 -121 -188 -114 0
-131 -109 -132 -188 -114 0
-131 -121 -132 -188 -126 0
-95 -160 -96 -189 -190 0
-108 -160 -109 -189 -190 0
-120 -160 -121 -189 -190 0
-131 -160 -132 -189 -190 0
-108 -96 -109 -189 -101 0
-120 -96 -121 -189 -101 0
-131 -96 -132 -189 -101 0
-120 -109 -121 -189 -114 0
-131 -109 -132 -189 -114 0
-131 -121 -132 -189 -126 0
-108 -96 -109 -190 -101 0
-120 -96 -121 -190 -101 0
-131 -96 -132 -190 -101 0
-120 -109 -121 -190 -114 0
-131 -109 -132 -190 -114 0
-131 -121 -132 -190 -126 0
-120 -109 -121 -101 -114 0
-131 -109 -132 -101 -114 0
-131 -121 -132 -101 -126 0
-131 -121 -132 -114 -126 0
-151 -159 -160 -191 -192 0
-95 -159 -96 -191 -192 0
-108 -159 -109 -191 -192 0
-120 -159 -121 -191 -192 0
-131 -159 -132 -191 -192 0
-95 -160 -96 -191 -193 0
-108 -160 -109 -191 -193 0
-120 -160 -121 -191 -193 0
-131 -160 -132 -191 -193 0
-108 -96 -109 -191 -102 0
-120 -96 -121 -191 -102 0
-131 -96 -132 -191 -102 0
-120 -109 -121 -191 -115 0
-131 -109 -132 -191 -115 0
-131 -121 -132 -191 -127 0
-95 -160 -96 -192 -193 0
-108 -160 -109 -192 -193 0
-120 -160 -121 -192 -193 0
-131 -160 -132 -192 -193 0
-108 -96 -109 -192 -102 0
-120 -96 -121 -192 -102 0
-131 -96 -132 -192 -102 0
-120 -109 -121 -192 -115 0
-131 -109 -132 -192 -115 0
-131 -121 -132 -192 -127 0
-108 -96 -109 -193 -102 0
-120 -96 -121 -193 -102 0
-131 -96 -132 -193 -102 0
-120 -109 -121 -193 -115 0
-131 -109 -132 -193 -115 0
-131 -121 -132 -193 -127 0
-120 -109 -121 -102 -115 0
-131 -109 -132 -102 -115 0
-131 -121 -132 -102 -127 0
-131 -121 -132 -115 -127 0
-95 -160 -96 -194 -195 0
-108 -160 -109 -194 -195 0
-120 -160 -121 -194 -195 0
-131 -160 -132 -194 -195 0
-108 -96 -109 -194 -103 0
-120 -96 -121 -194 -103 0
-131 -96 -132 -194 -103 0
-120 -109 -121 -194 -116 0
-131 -109 -132 -194 -116 0
-131 -121 -132 -194 -128 0
-108 -96 -109 -195 -103 0
-120 -96 -121 -195 -103 0
-131 -96 -132 -195 -103 0
-120 -109 -121 -195 -116 0
-131 -109 -132 -195 -116 0
-131 -121 -132 -195 -128 0
-120 -109 -121 -103 -116 0
-131 -109 -132 -103 -116 0
-131 -121 -132 -103 -128 0
-131 -121 -132 -116 -128 0
-108 -96 -109 -196 -104 0
-120 -96 -121 -196 -104 0
-131 -96 -132 -196 -104 0
-120 -109 -121 -196 -117 0
-131 -109 -132 -196 -117 0
-131 -121 -132 -196 -129 0
-120 -109 -121 -104 -117 0
-131 -109 -132 -104 -117 0
-131 -121 -132 -104 -129 0
-131 -121 -132 -117 -129 0
-120 -109 -121 -105 -118 0
-131 -109 -132 -105 -118 0
-131 -121 -132 -105 -130 0
-131 -121 -132 -118 -130 0
-131 -121 -132 -92 -93 0
-147 -163 -164 -169 -170 0
-148 -163 -165 -169 -170 0
-149 -163 -166 -169 -170 0
-150 -163 -167 -169 -170 0
-151 -163 -168 -169 -170 0
-95 -163 -97 -169 -170 0
-108 -163 -110 -169 -170 0
-120 -163 -122 -169 -170 0
-131 -163 -133 -169 -170 0
-148 -164 -165 -169 -171 0
-149 -164 -166 -169 -171 0
-150 -164 -167 -169 -171 0
-151 -164 -168 -169 -171 0
-95 -164 -97 -169 -171 0
-108 -164 -110 -169 -171 0
-120 -164 -122 -169 -171 0
-131 -164 -133 -169 -171 0
-149 -165 -166 -169 -172 0
-150 -165 -167 -169 -172 0
-151 -165 -168 -169 -172 0
-95 -165 -97 -169 -172 0
-108 -165 -110 -169 -172 0
-120 -165 -122 -169 -172 0
-131 -165 -133 -169 -172 0
-150 -166 -167 -169 -173 0
-151 -166 -168 -169 -173 0
-95 -166 -97 -169 -173 0
-108 -166 -110 -169 -173 0
-120 -166 -122 -169 -173 0
-131 -166 -133 -169 -173 0
-151 -167 -168 -169 -174 0
-95 -167 -97 -169 -174 0
-108 -167 -110 -169 -174 0
-120 -167 -122 -169 -174 0
-131 -167 -133 -169 -174 0
-95 -168 -97 -169 -175 0
-108 -168 -110 -169 -175 0
-120 -168 -122 -169 -175 0
-131 -168 -133 -169 -175 0
-108 -97 -110 -169 -98 0
-120 -97 -122 -169 -98 0
-131 -97 -133 -169 -98 0
-120 -110 -122 -169 -111 0
-131 -110 -133 -169 -111 0
-131 -122 -133 -169 -123 0
-148 -164 -165 -170 -171 0
-149 -164 -166 -170 -171 0
-150 -164 -167 -170 -171 0
-151 -164 -168 -170 -171 0
-95 -164 -97 -170 -171 0
-108 -164 -110 -170 -171 0
-120 -164 -122 -170 -171 0
-131 -164 -133 -170 -171 0
-149 -165 -166 -170 -172 0
-150 -165 -167 -170 -172 0
-151 -165 -168 -170 -172 0
-95 -165 -97 -170 -172 0
-108 -165 -110 -170 -172 0
-120 -165 -122 -170 -172 0
-131 -165 -133 -170 -172 0
-150 -166 -167 -170 -173 0
-151 -166 -168 -170 -173 0
-95 -166 -97 -170 -173 0
-108 -166 -110 -170 -173 0
-120 -166 -122 -170 -173 0
-131 -166 -133 -170 -173 0
-151 -167 -168 -170 -174 0
-95 -167 -97 -170 -174 0
-108 -167 -110 -170 -174 0
-120 -167 -122 -170 -174 0
-131 -167 -133 -170 -174 0
-95 -168 -97 -170 -175 0
-108 -168 -110 -170 -175 0
-120 -168 -122 -170 -175 0
-131 -168 -133 -170 -175 0
-108 -97 -110 -170 -98 0
-120 -97 -122 -170 -98 0
-131 -97 -133 -170 -98 0
-120 -110 -122 -170 -111 0
-131 -110 -133 -170 -111 0
-131 -122 -133 -170 -123 0
-149 -165 -166 -171 -172 0
-150 -165 -167 -171 -172 0
-151 -165 -168 -171 -172 0
-95 -165 -97 -171 -172 0
-108 -165 -110 -171 -172 0
-120 -165 -122 -171 -172 0
-131 -165 -133 -171 -172 0
-150 -166 -167 -171 -173 0
-151 -166 -168 -171 -173 0
-95 -166 -97 -171 -173 0
-108 -166 -110 -171 -173 0
-120 -166 -122 -171 -173 0
-131 -166 -133 -171 -173 0
-151 -167 -168 -171 -174 0
-95 -167 -97 -171 -174 0
-108 -167 -110 -171 -174 0
-120 -167 -122 -171 -174 0
-131 -167 -133 -171 -174 0
-95 -168 -97 -171 -175 0
-108 -168 -110 -171 -175 0
-120 -168 -122 -171 -175 0
-131 -168 -133 -171 -175 0
-108 -97 -110 -171 -98 0
-120 -97 -122 -171 -98 0
-131 -97 -133 -171 -98 0
-120 -110 -122 -171 -111 0
-131 -110 -133 -171 -111 0
-131 -122 -133 -171 -123 0
-150 -166 -167 -172 -173 0
-151 -166 -168 -172 -173 0
-95 -166 -97 -172 -173 0
-108 -166 -110 -172 -173 0
-120 -166 -122 -172 -173 0
-131 -166 -133 -172 -173 0
-151 -167 -168 -172 -174 0
-95 -167 -97 -172 -174 0
-108 -167 -110 -172 -174 0
-120 -167 -122 -172 -174 0
-131 -167 -133 -172 -174 0
-95 -168 -97 -172 -175 0
-108 -168 -110 -172 -175 0
-120 -168 -122 -172 -175 0
-131 -168 -133 -172 -175 0
-108 -97 -110 -172 -98 0
-120 -97 -122 -172 -98 0
-131 -97 -133 -172 -98 0
-120 -110 -122 -172 -111 0
-131 -110 -133 -172 -111 0
-131 -122 -133 -172 -123 0
-151 -167 -168 -173 -174 0
-95 -167 -97 -173 -174 0
-108 -167 -110 -173 -174 0
-120 -167 -122 -173 -174 0
-131 -167 -133 -173 -174 0
-95 -168 -97 -173 -175 0
-108 -168 -110 -173 -175 0
-120 -168 -122 -173 -175 0
-131 -168 -133 -173 -175 0
-108 -97 -110 -173 -98 0
-120 -97 -122 -173 -98 0
-131 -97 -133 -173 -98 0
-120 -110 -122 -173 -111 0
-131 -110 -133 -173 -111 0
-131 -122 -133 -173 -123 0
-95 -168 -97 -174 -175 0
-108 -168 -110 -174 -175 0
-120 -168 -122 -174 -175 0
-131 -168 -133 -174 -175 0
-108 -97 -110 -174 -98 0
-120 -97 -122 -174 -98 0
-131 -97 -133 -174 -98 0
-120 -110 -122 -174 -111 0
-131 -110 -133 -174 -111 0
-131 -122 -133 -174 -123 0
-108 -97 -110 -175 -98 0
-120 -97 -122 -175 -98 0
-131 -97 -133 -175 -98 0
-120 -110 -122 -175 -111 0
-131 -110 -133 -175 -111 0
-131 -122 -133 -175 -123 0
-120 -110 -122 -98 -111 0
-131 -110 -133 -98 -111 0
-131 -122 -133 -98 -123 0
-131 -122 -133 -111 -123 0
-148 -164 -165 -176 -177 0
-149 -164 -166 -176 -177 0
-150 -164 -167 -176 -177 0
-151 -164 -168 -176 -177 0
-95 -164 -97 -176 -177 0
-108 -164 -110 -176 -177 0
-120 -164 -122 -176 -177 0
-131 -164 -133 -176 -177 0
-149 -165 -166 -176 -178 0
-150 -165 -167 -176 -178 0
-151 -165 -168 -176 -178 0
-95 -165 -97 -176 -178 0
-108 -165 -110 -176 -178 0
-120 -165 -122 -176 -178 0
-131 -165 -133 -176 -178 0
-150 -166 -167 -176 -179 0
-151 -166 -168 -176 -179 0
-95 -166 -97 -176 -179 0
-108 -166 -110 -176 -179 0
-120 -166 -122 -176 -179 0
-131 -166 -133 -176 -179 0
-151 -167 -168 -176 -180 0
-95 -167 -97 -176 -180 0
-108 -167 -110 -176 -180 0
-120 -167 -122 -176 -180 0
-131 -167 -133 -176 -180 0
-95 -168 -97 -176 -181 0
-108 -168 -110 -176 -181 0
-120 -168 -122 -176 -181 0
-131 -168 -133 -176 -181 0
-108 -97 -110 -176 -99 0
-120 -97 -122 -176 -99 0
-131 -97 -133 -176 -99 0
-120 -110 -122 -176 -112 0
-131 -110 -133 -176 -112 0
-131 -122 -133 -176 -124 0
-149 -165 -166 -177 -178 0
-150 -165 -167 -177 -178 0
-151 -165 -168 -177 -178 0
-95 -165 -97 -177 -178 0
-108 -165 -110 -177 -178 0
-120 -165 -122 -177 -178 0
-131 -165 -133 -177 -178 0
-150 -166 -167 -177 -179 0
-151 -166 -168 -177 -179 0
-95 -166 -97 -177 -179 0
-108 -166 -110 -177 -179 0
-120 -166 -122 -177 -179 0
-131 -166 -133 -177 -179 0
-151 -167 -168 -177 -180 0
-95 -167 -97 -177 -180 0
-108 -167 -110 -177 -180 0
-120 -167 -122 -177 -180 0
-131 -167 -133 -177 -180 0
-95 -168 -97 -177 -181 0
-108 -168 -110 -177 -181 0
-120 -168 -122 -177 -181 0
-131 -168 -133 -177 -181 0
-108 -97 -110 -177 -99 0
-120 -97 -122 -177 -99 0
-131 -97 -133 -177 -99 0
-120 -110 -122 -177 -112 0
-131 -110 -133 -177 -112 0
-131 -122 -133 -177 -124 0
-150 -166 -167 -178 -179 0
-151 -166 -168 -178 -179 0
-95 -166 -97 -178 -179 0
-108 -166 -110 -178 -179 0
-120 -166 -122 -178 -179 0
-131 -166 -133 -178 -179 0
-151 -167 -168 -178 -180 0
-95 -167 -97 -178 -180 0
-108 -167 -110 -178 -180 0
-120 -167 -122 -178 -180 0
-131 -167 -133 -178 -180 0
-95 -168 -97 -178 -181 0
-108 -168 -110 -178 -181 0
-120 -168 -122 -178 -181 0
-131 -168 -133 -178 -181 0
-108 -97 -110 -178 -99 0
-120 -97 -122 -178 -99 0
-131 -97 -133 -178 -99 0
-120 -110 -122 -178 -112 0
-131 -110 -133 -178 -112 0
-131 -122 -133 -178 -124 0
-151 -167 -168 -179 -180 0
-95 -167 -97 -179 -180 0
-108 -167 -110 -179 -180 0
-120 -167 -122 -179 -180 0
-131 -167 -133 -179 -180 0
-95 -168 -97 -179 -181 0
-108 -168 -110 -179 -181 0
-120 -168 -122 -179 -181 0
-131 -168 -133 -179 -181 0
-108 -97 -110 -179 -99 0
-120 -97 -122 -179 -99 0
-131 -97 -133 -179 -99 0
-120 -110 -122 -179 -112 0
-131 -110 -133 -179 -112 0
-131 -122 -133 -179 -124 0
-95 -168 -97 -180 -181 0
-108 -168 -110 -180 -181 0
-120 -168 -122 -180 -181 0
-131 -168 -133 -180 -181 0
-108 -97 -110 -180 -99 0
-120 -97 -122 -180 -99 0
-131 -97 -133 -180 -99 0
-120 -110 -122 -180 -112 0
-131 -110 -133 -180 -112 0
-131 -122 -133 -180 -124 0
-108 -97 -110 -181 -99 0
-120 -97 -122 -181 -99 0
-131 -97 -133 -181 -99 0
-120 -110 -122 -181 -112 0
-131 -110 -133 -181 -112 0
-131 -122 -133 -181 -124 0
-120 -110 -122 -99 -112 0
-131 -110 -133 -99 -112 0
-131 -122 -133 -99 -124 0
-131 -122 -133 -112 -124 0
-149 -165 -166 -182 -183 0
-150 -165 -167 -182 -183 0
-151 -165 -168 -182 -183 0
-95 -165 -97 -182 -183 0
-108 -165 -110 -182 -183 0
-120 -165 -122 -182 -183 0
-131 -165 -133 -182 -183 0
-150 -166 -167 -182 -184 0
-151 -166 -168 -182 -184 0
-95 -166 -97 -182 -184 0
-108 -166 -110 -182 -184 0
-120 -166 -122 -182 -184 0
-131 -166 -133 -182 -184 0
-151 -167 -168 -182 -185 0
-95 -167 -97 -182 -185 0
-108 -167 -110 -182 -185 0
-120 -167 -122 -182 -185 0
-131 -167 -133 -182 -185 0
-95 -168 -97 -182 -186 0
-108 -168 -110 -182 -186 0
-120 -168 -122 -182 -186 0
-131 -168 -133 -182 -186 0
-108 -97 -110 -182 -100 0
-120 -97 -122 -182 -100 0
-131 -97 -133 -182 -100 0
-120 -110 -122 -182 -113 0
-131 -110 -133 -182 -113 0
-131 -122 -133 -182 -125 0
-150 -166 -167 -183 -184 0
-151 -166 -168 -183 -184 0
-95 -166 -97 -183 -184 0
-108 -166 -110 -183 -184 0
-120 -166 -122 -183 -184 0
-131 -166 -133 -183 -184 0
-151 -167 -168 -183 -185 0
-95 -167 -97 -183 -185 0
-108 -167 -110 -183 -185 0
-120 -167 -122 -183 -185 0
-131 -167 -133 -183 -185 0
-95 -168 -97 -183 -186 0
-108 -168 -110 -183 -186 0
-120 -168 -122 -183 -186 0
-131 -168 -133 -183 -186 0
-108 -97 -110 -183 -100 0
-120 -97 -122 -183 -100 0
-131 -97 -133 -183 -100 0
-120 -110 -122 -183 -113 0
-131 -110 -133 -183 -113 0
-131 -122 -133 -183 -125 0
-151 -167 -168 -184 -185 0
-95 -167 -97 -184 -185 0
-108 -167 -110 -184 -185 0
-120 -167 -122 -184 -185 0
-131 -167 -133 -184 -185 0
-95 -168 -97 -184 -186 0
-108 -168 -110 -184 -186 0
-120 -168 -122 -184 -186 0
-131 -168 -133 -184 -186 0
-108 -97 -110 -184 -100 0
-120 -97 -122 -184 -100 0
-131 -97 -133 -184 -100 0
-120 -110 -122 -184 -113 0
-131 -110 -133 -184 -113 0
-131 -122 -133 -184 -125 0
-95 -168 -97 -185 -186 0
-108 -168 -110 -185 -186 0
-120 -168 -122 -185 -186 0
-131 -168 -133 -185 -186 0
-108 -97 -110 -185 -100 0
-120 -97 -122 -185 -100 0
-131 -97 -133 -185 -100 0
-120 -110 -122 -185 -113 0
-131 -110 -133 -185 -113 0
-131 -122 -133 -185 -125 0
-108 -97 -110 -186 -100 0
-120 -97 -122 -186 -100 0
-131 -97 -133 -186 -100 0
-120 -110 -122 -186 -113 0
-131 -110 -133 -186 -113 0
-131 -122 -133 -186 -125 0
-120 -110 -122 -100 -113 0
-131 -110 -133 -100 -113 0
-131 -122 -133 -100 -125 0
-131 -122 -133 -113 -125 0
-150 -166 -167 -187 -188 0
-151 -166 -168 -187 -188 0
-95 -166 -97 -187 -188 0
-108 -166 -110 -187 -188 0
-120 -166 -122 -187 -188 0
-131 -166 -133 -187 -188 0
-151 -167 -168 -187 -189 0
-95 -167 -97 -187 -189 0
-108 -167 -110 -187 -189 0
-120 -167 -122 -187 -189 0
-131 -167 -133 -187 -189 0
-95 -168 -97 -187 -190 0
-108 -168 -110 -187 -190 0
-120 -168 -122 -187 -190 0
-131 -168 -133 -187 -190 0
-108 -97 -110 -187 -101 0
-120 -97 -122 -187 -101 0
-131 -97 -133 -187 -101 0
-120 -110 -122 -187 -114 0
-131 -110 -133 -187 -114 0
-131 -122 -133 -187 -126 0
-151 -167 -168 -188 -189 0
-95 -167 -97 -188 -189 0
-108 -167 -110 -188 -189 0
-120 -167 -122 -188 -189 0
-131 -167 -133 -188 -189 0
-95 -168 -97 -188 -190 0
-108 -168 -110 -188 -190 0
-120 -168 -122 -188 -190 0
-131 -168 -133 -188 -190 0
-108 -97 -110 -188 -101 0
-120 -97 -122 -188 -101 0
-131 -97 -133 -188 -101 0
-120 -110 -122 -188 -114 0
-131 -110 -133 -188 -114 0
-131 -122 -133 -188 -126 0
-95 -168 -97 -189 -190 0
-108 -168 -110 -189 -190 0
-120 -168 -122 -189 -190 0
-131 -168 -133 -189 -190 0
-108 -97 -110 -189 -101 0
-120 -97 -122 -189 -101 0
-131 -97 -133 -189 -101 0
-120 -110 -122 -189 -114 0
-131 -110 -133 -189 -114 0
-131 -122 -133 -189 -126 0
-108 -97 -110 -190 -101 0
-120 -97 -122 -190 -101 0
-131 -97 -133 -190 -101 0
-120 -110 -122 -190 -114 0
-131 -110 -133 -190 -114 0
-131 -122 -133 -190 -126 0
-120 -110 -122 -101 -114 0
-131 -110 -133 -101 -114 0
-131 -122 -133 -101 -126 0
-131 -122 -133 -114 -126 0
-151 -167 -168 -191 -192 0
-95 -167 -97 -191 -192 0
-108 -167 -110 -191 -192 0
-120 -167 -122 -191 -192 0
-131 -167 -133 -191 -192 0
-95 -168 -97 -191 -193 0
-108 -168 -110 -191 -193 0
-120 -168 -122 -191 -193 0
-131 -168 -133 -191 -193 0
-108 -97 -110 -191 -102 0
-120 -97 -122 -191 -102 0
-131 -97 -133 -191 -102 0
-120 -110 -122 -191 -115 0
-131 -110 -133 -191 -115 0
-131 -122 -133 -191 -127 0
-95 -168 -97 -192 -193 0
-108 -168 -110 -192 -193 0
-120 -168 -122 -192 -193 0
-131 -168 -133 -192 -193 0
-108 -97 -110 -192 -102 0
-120 -97 -122 -192 -102 0
-131 -97 -133 -192 -102 0
-120 -110 -122 -192 -115 0
-131 -110 -133 -192 -115 0
-131 -122 -133 -192 -127 0
-108 -97 -110 -193 -102 0
-120 -97 -122 -193 -102 0
-131 -97 -133 -193 -102 0
-120 -110 -122 -193 -115 0
-131 -110 -133 -193 -115 0
-131 -122 -133 -193 -127 0
-120 -110 -122 -102 -115 0
-131 -110 -133 -102 -115 0
-131 -122 -133 -102 -127 0
-131 -122 -133 -115 -127 0
-95 -168 -97 -194 -195 0
-108 -168 -110 -194 -195 0
-120 -168 -122 -194 -195 0
-131 -168 -133 -194 -195 0
-108 -97 -110 -194 -103 0
-120 -97 -122 -194 -103 0
-131 -97 -133 -194 -103 0
-120 -110 -122 -194 -116 0
-131 -110 -133 -194 -116 0
-131 -122 -133 -194 -128 0
-108 -97 -110 -195 -103 0
-120 -97 -122 -195 -103 0
-131 -97 -133 -195 -103 0
-120 -110 -122 -195 -116 0
-131 -110 -133 -195 -116 0
-131 -122 -133 -195 -128 0
-120 -110 -122 -103 -116 0
-131 -110 -133 -103 -116 0
-131 -122 -133 -103 -128 0
-131 -122 -133 -116 -128 0
-108 -97 -110 -196 -104 0
-120 -97 -122 -196 -104 0
-131 -97 -133 -196 -104 0
-120 -110 -122 -196 -117 0
-131 -110 -133 -196 -117 0
-131 -122 -133 -196 -129 0
-120 -110 -122 -104 -117 0
-131 -110 -133 -104 -117 0
-131 -122 -133 -104 -129 0
-131 -122 -133 -117 -129 0
-120 -110 -122 -105 -118 0
-131 -110 -133 -105 -118 0
-131 -122 -133 -105 -130 0
-131 -122 -133 -118 -130 0
-131 -122 -133 -92 -93 0
-148 -171 -172 -176 -177 0
-149 -171 -173 -176 -177 0
-150 -171 -174 -176 -177 0
-151 -171 -175 -176 -177 0
-95 -171 -98 -176 -177 0
-108 -171 -111 -176 -177 0
-120 -171 -123 -176 -177 0
-131 -171 -134 -176 -177 0
-149 -172 -173 -176 -178 0
-150 -172 -174 -176 -178 0
-151 -172 -175 -176 -178 0
-95 -172 -98 -176 -178 0
-108 -172 -111 -176 -178 0
-120 -172 -123 -176 -178 0
-131 -172 -134 -176 -178 0
-150 -173 -174 -176 -179 0
-151 -173 -175 -176 -179 0
-95 -173 -98 -176 -179 0
-108 -173 -111 -176 -179 0
-120 -173 -123 -176 -179 0
-131 -173 -134 -176 -179 0
-151 -174 -175 -176 -180 0
-95 -174 -98 -176 -180 0
-108 -174 -111 -176 -180 0
-120 -174 -123 -176 -180 0
-131 -174 -134 -176 -180 0
-95 -175 -98 -176 -181 0
-108 -175 -111 -176 -181 0
-120 -175 -123 -176 -181 0
-131 -175 -134 -176 -181 0
-108 -98 -111 -176 -99 0
-120 -98 -123 -176 -99 0
-131 -98 -134 -176 -99 0
-120 -111 -123 -176 -112 0
-131 -111 -134 -176 -112 0
-131 -123 -134 -176 -124 0
-149 -172 -173 -177 -178 0
-150 -172 -174 -177 -178 0
-151 -172 -175 -177 -178 0
-95 -172 -98 -177 -178 0
-108 -172 -111 -177 -178 0
-120 -172 -123 -177 -178 0
-131 -172 -134 -177 -178 0
-150 -173 -174 -177 -179 0
-151 -173 -175 -177 -179 0
-95 -173 -98 -177 -179 0
-108 -173 -111 -177 -179 0
-120 -173 -123 -177 -179 0
-131 -173 -134 -177 -179 0
-151 -174 -175 -177 -180 0
-95 -174 -98 -177 -180 0
-108 -174 -111 -177 -180 0
-120 -174 -123 -177 -180 0
-131 -174 -134 -177 -180 0
-95 -175 -98 -177 -181 0
-108 -175 -111 -177 -181 0
-120 -175 -123 -177 -181 0
-131 -175 -134 -177 -181 0
-108 -98 -111 -177 -99 0
-120 -98 -123 -177 -99 0
-131 -98 -134 -177 -99 0
-120 -111 -123 -177 -112 0
-131 -111 -134 -177 -112 0
-131 -123 -134 -177 -124 0
-150 -173 -174 -178 -179 0
-151 -173 -175 -178 -179 0
-95 -173 -98 -178 -179 0
-108 -173 -111 -178 -179 0
-120 -173 -123 -178 -179 0
-131 -173 -134 -178 -179 0
-151 -174 -175 -178 -180 0
-95 -174 -98 -178 -180 0
-108 -174 -111 -178 -180 0
-120 -174 -123 -178 -180 0
-131 -174 -134 -178 -180 0
-95 -175 -98 -178 -181 0
-108 -175 -111 -178 -181 0
-120 -175 -123 -178 -181 0
-131 -175 -134 -178 -181 0
-108 -98 -111 -178 -99 0
-120 -98 -123 -178 -99 0
-131 -98 -134 -178 -99 0
-120 -111 -123 -178 -112 0
-131 -111 -134 -178 -112 0
-131 -123 -134 -178 -124 0
-151 -174 -175 -179 -180 0
-95 -174 -98 -179 -180 0
-108 -174 -111 -179 -180 0
-120 -174 -123 -179 -180 0
-131 -174 -134 -179 -180 0
-95 -175 -98 -179 -181 0
-108 -175 -111 -179 -181 0
-120 -175 -123 -179 -181 0
-131 -175 -134 -179 -181 0
-108 -98 -111 -179 -99 0
-120 -98 -123 -179 -99 0
-131 -98 -134 -179 -99 0
-120 -111 -123 -179 -112 0
-131 -111 -134 -179 -112 0
-131 -123 -134 -179 -124 0
-95 -175 -98 -180 -181 0
-108 -175 -111 -180 -181 0
-120 -175 -123 -180 -181 0
-131 -175 -134 -180 -181 0
-108 -98 -111 -180 -99 0
-120 -98 -123 -180 -99 0
-131 -98 -134 -180 -99 0
-120 -111 -123 -180 -112 0
-131 -111 -134 -180 -112 0
-131 -123 -134 -180 -124 0
-108 -98 -111 -181 -99 0
-120 -98 -123 -181 -99 0
-131 -98 -134 -181 -99 0
-120 -111 -123 -181 -112 0
-131 -111 -134 -181 -112 0
-131 -123 -134 -181 -124 0
-120 -111 -123 -99 -112 0
-131 -111 -134 -99 -112 0
-131 -123 -134 -99 -124 0
-131 -123 -134 -112 -124 0
-149 -172 -173 -182 -183 0
-150 -172 -174 -182 -183 0
-151 -172 -175 -182 -183 0
-95 -172 -98 -182 -183 0
-108 -172 -111 -182 -183 0
-120 -172 -123 -182 -183 0
-131 -172 -134 -182 -183 0
-150 -173 -174 -182 -184 0
-151 -173 -175 -182 -184 0
-95 -173 -98 -182 -184 0
-108 -173 -111 -182 -184 0
-120 -173 -123 -182 -184 0
-131 -173 -134 -182 -184 0
-151 -174 -175 -182 -185 0
-95 -174 -98 -182 -185 0
-108 -174 -111 -182 -185 0
-120 -174 -123 -182 -185 0
-131 -174 -134 -182 -185 0
-95 -175 -98 -182 -186 0
-108 -175 -111 -182 -186 0
-120 -175 -123 -182 -186 0
-131 -175 -134 -182 -186 0
-108 -98 -111 -182 -100 0
-120 -98 -123 -182 -100 0
-131 -98 -134 -182 -100 0
-120 -111 -123 -182 -113 0
-131 -111 -134 -182 -113 0
-131 -123 -134 -182 -125 0
-150 -173 -174 -183 -184 0
-151 -173 -175 -183 -184 0
-95 -173 -98 -183 -184 0
-108 -173 -111 -183 -184 0
-120 -173 -123 -183 -184 0
-131 -173 -134 -183 -184 0
-151 -174 -175 -183 -185 0
-95 -174 -98 -183 -185 0
-108 -174 -111 -183 -185 0
-120 -174 -123 -183 -185 0
-131 -174 -134 -183 -185 0
-95 -175 -98 -183 -186 0
-108 -175 -111 -183 -186 0
-120 -175 -123 -183 -186 0
-131 -175 -134 -183 -186 0
-108 -98 -111 -183 -100 0
-120 -98 -123 -183 -100 0
-131 -98 -134 -183 -100 0
-120 -111 -123 -183 -113 0
-131 -111 -134 -183 -113 0
-131 -123 -134 -183 -125 0
-151 -174 -175 -184 -185 0
-95 -174 -98 -184 -185 0
-108 -174 -111 -184 -185 0
-120 -174 -123 -184 -185 0
-131 -174 -134 -184 -185 0
-95 -175 -98 -184 -186 0
-108 -175 -111 -184 -186 0
-120 -175 -123 -184 -186 0
-131 -175 -134 -184 -186 0
-108 -98 -111 -184 -100 0
-120 -98 -123 -184 -100 0
-131 -98 -134 -184 -100 0
-120 -111 -123 -184 -113 0
-131 -111 -134 -184 -113 0
-131 -123 -134 -184 -125 0
-95 -175 -98 -185 -186 0
-108 -175 -111 -185 -186 0
-120 -175 -123 -185 -186 0
-131 -175 -134 -185 -186 0
-108 -98 -111 -185 -100 0
-120 -98 -123 -185 -100 0
-131 -98 -134 -185 -100 0
-120 -111 -123 -185 -113 0
-131 -111 -134 -185 -113 0
-131 -123 -134 -185 -125 0
-108 -98 -111 -186 -100 0
-120 -98 -123 -186 -100 0
-131 -98 -134 -186 -100 0
-120 -111 -123 -186 -113 0
-131 -111 -134 -186 -113 0
-131 -123 -134 -186 -125 0
-120 -111 -123 -100 -113 0
-131 -111 -134 -100 -113 0
-131 -123 -134 -100 -125 0
-131 -123 -134 -113 -125 0
-150 -173 -174 -187 -188 0
-151 -173 -175 -187 -188 0
-95 -173 -98 -187 -188 0
-108 -173 -111 -187 -188 0
-120 -173 -123 -187 -188 0
-131 -173 -134 -187 -188 0
-151 -174 -175 -187 -189 0
-95 -174 -98 -187 -189 0
-108 -174 -111 -187 -189 0
-120 -174 -123 -187 -189 0
-131 -174 -134 -187 -189 0
-95 -175 -98 -187 -190 0
-108 -175 -111 -187 -190 0
-120 -175 -123 -187 -190 0
-131 -175 -134 -187 -190 0
-108 -98 -111 -187 -101 0
-120 -98 -123 -187 -101 0
-131 -98 -134 -187 -101 0
-120 -111 -123 -187 -114 0
-131 -111 -134 -187 -114 0
-131 -123 -134 -187 -126 0
-151 -174 -175 -188 -189 0
-95 -174 -98 -188 -189 0
-108 -174 -111 -188 -189 0
-120 -174 -123 -188 -189 0
-131 -174 -134 -188 -189 0
-95 -175 -98 -188 -190 0
-108 -175 -111 -188 -190 0
-120 -175 -123 -188 -190 0
-131 -175 -134 -188 -190 0
-108 -98 -111 -188 -101 0
-120 -98 -123 -188 -101 0
-131 -98 -134 -188 -101 0
-120 -111 -123 -188 -114 0
-131 -111 -134 -188 -114 0
-131 -123 -134 -188 -126 0
-95 -175 -98 -189 -190 0
-108 -175 -111 -189 -190 0
-120 -175 -123 -189 -190 0
-131 -175 -134 -189 -190 0
-108 -98 -111 -189 -101 0
-120 -98 -123 -189 -101 0
-131 -98 -134 -189 -101 0
-120 -111 -123 -189 -114 0
-131 -111 -134 -189 -114 0
-131 -123 -134 -189 -126 0
-108 -98 -111 -190 -101 0
-120 -98 -123 -190 -101 0
-131 -98 -134 -190 -101 0
-120 -111 -123 -190 -114 0
-131 -111 -134 -190 -114 0
-131 -123 -134 -190 -126 0
-120 -111 -123 -101 -114 0
-131 -111 -134 -101 -114 0
-131 -123 -134 -101 -126 0
-131 -123 -134 -114 -126 0
-151 -174 -175 -191 -192 0
-95 -174 -98 -191 -192 0
-108 -174 -111 -191 -192 0
-120 -174 -123 -191 -192 0
-131 -174 -134 -191 -192 0
-95 -175 -98 -191 -193 0
-108 -175 -111 -191 -193 0
-120 -175 -123 -191 -193 0
-131 -175 -134 -191 -193 0
-108 -98 -111 -191 -102 0
-120 -98 -123 -191 -102 0
-131 -98 -134 -191 -102 0
-120 -111 -123 -191 -115 0
-131 -111 -134 -191 -115 0
-131 -123 -134 -191 -127 0
-95 -175 -98 -192 -193 0
-108 -175 -111 -192 -193 0
-120 -175 -123 -192 -193 0
-131 -175 -134 -192 -193 0
-108 -98 -111 -192 -102 0
-120 -98 -123 -192 -102 0
-131 -98 -134 -192 -102 0
-120 -111 -123 -192 -115 0
-131 -111 -134 -192 -115 0
-131 -123 -134 -192 -127 0
-108 -98 -111 -193 -102 0
-120 -98 -123 -193 -102 0
-131 -98 -134 -193 -102 0
-120 -111 -123 -193 -115 0
-131 -111 -134 -193 -115 0
-131 -123 -134 -193 -127 0
-120 -111 -123 -102 -115 0
-131 -111 -134 -102 -115 0
-131 -123 -134 -102 -127 0
-131 -123 -134 -115 -127 0
-95 -175 -98 -194 -195 0
-108 -175 -111 -194 -195 0
-120 -175 -123 -194 -195 0
-131 -175 -134 -194 -195 0
-108 -98 -111 -194 -103 0
-120 -98 -123 -194 -103 0
-131 -98 -134 -194 -103 0
-120 -111 -123 -194 -116 0
-131 -111 -134 -194 -116 0
-131 -123 -134 -194 -128 0
-108 -98 -111 -195 -103 0
-120 -98 -123 -195 -103 0
-131 -98 -134 -195 -103 0
-120 -111 -123 -195 -116 0
-131 -111 -134 -195 -116 0
-131 -123 -134 -195 -128 0
-120 -111 -123 -103 -116 0
-131 -111 -134 -103 -116 0
-131 -123 -134 -103 -128 0
-131 -123 -134 -116 -128 0
-108 -98 -111 -196 -104 0
-120 -98 -123 -196 -104 0
-131 -98 -134 -196 -104 0
-120 -111 -123 -196 -117 0
-131 -111 -134 -196 -117 0
-131 -123 -134 -196 -129 0
-120 -111 -123 -104 -117 0
-131 -111 -134 -104 -117 0
-131 -123 -134 -104 -129 0
-131 -123 -134 -117 -129 0
-120 -111 -123 -105 -118 0
-131 -111 -134 -105 -118 0
-131 -123 -134 -105 -130 0
-131 -123 -134 -118 -130 0
-131 -123 -134 -92 -93 0
-149 -178 -179 -182 -183 0
-150 -178 -180 -182 -183 0
-151 -178 -181 -182 -183 0
-95 -178 -99 -182 -183 0
-108 -178 -112 -182 -183 0
-120 -178 -124 -182 -183 0
-131 -178 -135 -182 -183 0
-150 -179 -180 -182 -184 0
-151 -179 -181 -182 -184 0
-95 -179 -99 -182 -184 0
-108 -179 -112 -182 -184 0
-120 -179 -124 -182 -184 0
-131 -179 -135 -182 -184 0
-151 -180 -181 -182 -185 0
-95 -180 -99 -182 -185 0
-108 -180 -112 -182 -185 0
-120 -180 -124 -182 -185 0
-131 -180 -135 -182 -185 0
-95 -181 -99 -182 -186 0
-108 -181 -112 -182 -186 0
-120 -181 -124 -182 -186 0
-131 -181 -135 -182 -186 0
-108 -99 -112 -182 -100 0
-120 -99 -124 -182 -100 0
-131 -99 -135 -182 -100 0
-120 -112 -124 -182 -113 0
-131 -112 -135 -182 -113 0
-131 -124 -135 -182 -125 0
-150 -179 -180 -183 -184 0
-151 -179 -181 -183 -184 0
-95 -179 -99 -183 -184 0
-108 -179 -112 -183 -184 0
-120 -179 -124 -183 -184 0
-131 -179 -135 -183 -184 0
-151 -180 -181 -183 -185 0
-95 -180 -99 -183 -185 0
-108 -180 -112 -183 -185 0
-120 -180 -124 -183 -185 0
-131 -180 -135 -183 -185 0
-95 -181 -99 -183 -186 0
-108 -181 -112 -183 -186 0
-120 -181 -124 -183 -186 0
-131 -181 -135 -183 -186 0
-108 -99 -112 -183 -100 0
-120 -99 -124 -183 -100 0
-131 -99 -135 -183 -100 0
-120 -112 -124 -183 -113 0
-131 -112 -135 -183 -113 0
-131 -124 -135 -183 -125 0
-151 -180 -181 -184 -185 0
-95 -180 -99 -184 -185 0
-108 -180 -112 -184 -185 0
-120 -180 -124 -184 -185 0
-131 -180 -135 -184 -185 0
-95 -181 -99 -184 -186 0
-108 -181 -112 -184 -186 0
-120 -181 -124 -184 -186 0
-131 -181 -135 -184 -186 0
-108 -99 -112 -184 -100 0
-120 -99 -124 -184 -100 0
-131 -99 -135 -184 -100 0
-120 -112 -124 -184 -113 0
-131 -112 -135 -184 -113 0
-131 -124 -135 -184 -125 0
-95 -181 -99 -185 -186 0
-108 -181 -112 -185 -186 0
-120 -181 -124 -185 -186 0
-131 -181 -135 -185 -186 0
-108 -99 -112 -185 -100 0
-120 -99 -124 -185 -100 0
-131 -99 -135 -185 -100 0
-120 -112 -124 -185 -113 0
-131 -112 -135 -185 -113 0
-131 -124 -135 -185 -125 0
-108 -99 -112 -186 -100 0
-120 -99 -124 -186 -100 0
-131 -99 -135 -186 -100 0
-120 -112 -124 -186 -113 0
-131 -112 -135 -186 -113 0
-131 -124 -135 -186 -125 0
-120 -112 -124 -100 -113 0
-131 -112 -135 -100 -113 0
-131 -124 -135 -100 -125 0
-131 -124 -135 -113 -125 0
-150 -179 -180 -187 -188 0
-151 -179 -181 -187 -188 0
-95 -179 -99 -187 -188 0
-108 -179 -112 -187 -188 0
-120 -179 -124 -187 -188 0
-131 -179 -135 -187 -188 0
-151 -180 -181 -187 -189 0
-95 -180 -99 -187 -189 0
-108 -180 -112 -187 -189 0
-120 -180 -124 -187 -189 0
-131 -180 -135 -187 -189 0
-95 -181 -99 -187 -190 0
-108 -181 -112 -187 -190 0
-120 -181 -124 -187 -190 0
-131 -181 -135 -187 -190 0
-108 -99 -112 -187 -101 0
-120 -99 -124 -187 -101 0
-131 -99 -135 -187 -101 0
-120 -112 -124 -187 -114 0
-131 -112 -135 -187 -114 0
-131 -124 -135 -187 -126 0
-151 -180 -181 -188 -189 0
-95 -180 -99 -188 -189 0
-108 -180 -112 -188 -189 0
-120 -180 -124 -188 -189 0
-131 -180 -135 -188 -189 0
-95 -181 -99 -188 -190 0
-108 -181 -112 -188 -190 0
-120 -181 -124 -188 -190 0
-131 -181 -135 -188 -190 0
-108 -99 -112 -188 -101 0
-120 -99 -124 -188 -101 0
-131 -99 -135 -188 -101 0
-120 -112 -124 -188 -114 0
-131 -112 -135 -188 -114 0
-131 -124 -135 -188 -126 0
-95 -181 -99 -189 -190 0
-108 -181 -112 -189 -190 0
-120 -181 -124 -189 -190 0
-131 -181 -135 -189 -190 0
-108 -99 -112 -189 -101 0
-120 -99 -124 -189 -101 0
-131 -99 -135 -189 -101 0
-120 -112 -124 -189 -114 0
-131 -112 -135 -189 -114 0
-131 -124 -135 -189 -126 0
-108 -99 -112 -190 -101 0
-120 -99 -124 -190 -101 0
-131 -99 -135 -190 -101 0
-120 -112 -124 -190 -114 0
-131 -112 -135 -190 -114 0
-131 -124 -135 -190 -126 0
-120 -112 -124 -101 -114 0
-131 -112 -135 -101 -114 0
-131 -124 -135 -101 -126 0
-131 -124 -135 -114 -126 0
-151 -180 -181 -191 -192 0
-95 -180 -99 -191 -192 0
-108 -180 -112 -191 -192 0
-120 -180 -124 -191 -192 0
-131 -180 -135 -191 -192 0
-95 -181 -99 -191 -193 0
-108 -181 -112 -191 -193 0
-120 -181 -124 -191 -193 0
-131 -181 -135 -191 -193 0
-108 -99 -112 -191 -102 0
-120 -99 -124 -191 -102 0
-131 -99 -135 -191 -102 0
-120 -112 -124 -191 -115 0
-131 -112 -135 -191 -115 0
-131 -124 -135 -191 -127 0
-95 -181 -99 -192 -193 0
-108 -181 -112 -192 -193 0
-120 -181 -124 -192 -193 0
-131 -181 -135 -192 -193 0
-108 -99 -112 -192 -102 0
-120 -99 -124 -192 -102 0
-131 -99 -135 -192 -102 0
-120 -112 -124 -192 -115 0
-131 -112 -135 -192 -115 0
-131 -124 -135 -192 -127 0
-108 -99 -112 -193 -102 0
-120 -99 -124 -193 -102 0
-131 -99 -135 -193 -102 0
-120 -112 -124 -193 -115 0
-131 -112 -135 -193 -115 0
-131 -124 -135 -193 -127 0
-120 -112 -124 -102 -115 0
-131 -112 -135 -102 -115 0
-131 -124 -135 -102 -127 0
-131 -124 -135 -115 -127 0
-95 -181 -99 -194 -195 0
-108 -181 -112 -194 -195 0
-120 -181 -124 -194 -195 0
-131 -181 -135 -194 -195 0
-108 -99 -112 -194 -103 0
-120 -99 -124 -194 -103 0
-131 -99 -135 -194 -103 0
-120 -112 -124 -194 -116 0
-131 -112 -135 -194 -116 0
-131 -124 -135 -194 -128 0
-108 -99 -112 -195 -103 0
-120 -99 -124 -195 -103 0
-131 -99 -135 -195 -103 0
-120 -112 -124 -195 -116 0
-131 -112 -135 -195 -116 0
-131 -124 -135 -195 -128 0
-120 -112 -124 -103 -116 0
-131 -112 -135 -103 -116 0
-131 -124 -135 -103 -128 0
-131 -124 -135 -116 -128 0
-108 -99 -112 -196 -104 0
-120 -99 -124 -196 -104 0
-131 -99 -135 -196 -104 0
-120 -112 -124 -196 -117 0
-131 -112 -135 -196 -117 0
-131 -124 -135 -196 -129 0
-120 -112 -124 -104 -117 0
-131 -112 -135 -104 -117 0
-131 -124 -135 -104 -129 0
-131 -124 -135 -117 -129 0
-120 -112 -124 -105 -118 0
-131 -112 -135 -105 -118 0
-131 -124 -135 -105 -130 0
-131 -124 -135 -118 -130 0
-131 -124 -135 -92 -93 0
-150 -184 -185 -187 -188 0
-151 -184 -186 -187 -188 0
-95 -184 -100 -187 -188 0
-108 -184 -113 -187 -188 0
-120 -184 -125 -187 -188 0
-131 -184 -136 -187 -188 0
-151 -185 -186 -187 -189 0
-95 -185 -100 -187 -189 0
-108 -185 -113 -187 -189 0
-120 -185 -125 -187 -189 0
-131 -185 -136 -187 -189 0
-95 -186 -100 -187 -190 0
-108 -186 -113 -187 -190 0
-120 -186 -125 -187 -190 0
-131 -186 -136 -187 -190 0
-108 -100 -113 -187 -101 0
-120 -100 -125 -187 -101 0
-131 -100 -136 -187 -101 0
-120 -113 -125 -187 -114 0
-131 -113 -136 -187 -114 0
-131 -125 -136 -187 -126 0
-151 -185 -186 -188 -189 0
-95 -185 -100 -188 -189 0
-108 -185 -113 -188 -189 0
-120 -185 -125 -188 -189 0
-131 -185 -136 -188 -189 0
-95 -186 -100 -188 -190 0
-108 -186 -113 -188 -190 0
-120 -186 -125 -188 -190 0
-131 -186 -136 -188 -190 0
-108 -100 -113 -188 -101 0
-120 -100 -125 -188 -101 0
-131 -100 -136 -188 -101 0
-120 -113 -125 -188 -114 0
-131 -113 -136 -188 -114 0
-131 -125 -136 -188 -126 0
-95 -186 -100 -189 -190 0
-108 -186 -113 -189 -190 0
-120 -186 -125 -189 -190 0
-131 -186 -136 -189 -190 0
-108 -100 -113 -189 -101 0
-120 -100 -125 -189 -101 0
-131 -100 -136 -189 -101 0
-120 -113 -125 -189 -114 0
-131 -113 -136 -189 -114 0
-131 -125 -136 -189 -126 0
-108 -100 -113 -190 -101 0
-120 -100 -125 -190 -101 0
-131 -100 -136 -190 -101 0
-120 -113 -125 -190 -114 0
-131 -113 -136 -190 -114 0
-131 -125 -136 -190 -126 0
-120 -113 -125 -101 -114 0
-131 -113 -136 -101 -114 0
-131 -125 -136 -101 -126 0
-131 -125 -136 -114 -126 0
-151 -185 -186 -191 -192 0
-95 -185 -100 -191 -192 0
-108 -185 -113 -191 -192 0
-120 -185 -125 -191 -192 0
-131 -185 -136 -191 -192 0
-95 -186 -100 -191 -193 0
-108 -186 -113 -191 -193 0
-120 -186 -125 -191 -193 0
-131 -186 -136 -191 -193 0
-108 -100 -113 -191 -102 0
-120 -100 -125 -191 -102 0
-131 -100 -136 -191 -102 0
-120 -113 -125 -191 -115 0
-131 -113 -136 -191 -115 0
-131 -125 -136 -191 -127 0
-95 -186 -100 -192 -193 0
-108 -186 -113 -192 -193 0
-120 -186 -125 -192 -193 0
-131 -186 -136 -192 -193 0
-108 -100 -113 -192 -102 0
-120 -100 -125 -192 -102 0
-131 -100 -136 -192 -102 0
-120 -113 -125 -192 -115 0
-131 -113 -136 -192 -115 0
-131 -125 -136 -192 -127 0
-108 -100 -113 -193 -102 0
-120 -100 -125 -193 -102 0
-131 -100 -136 -193 -102 0
-120 -113 -125 -193 -115 0
-131 -113 -136 -193 -115 0
-131 -125 -136 -193 -127 0
-120 -113 -125 -102 -115 0
-131 -113 -136 -102 -115 0
-131 -125 -136 -102 -127 0
-131 -125 -136 -115 -127 0
-95 -186 -100 -194 -195 0
-108 -186 -113 -194 -195 0
-120 -186 -125 -194 -195 0
-131 -186 -136 -194 -195 0
-108 -100 -113 -194 -103 0
-120 -100 -125 -194 -103 0
-131 -100 -136 -194 -103 0
-120 -113 -125 -194 -116 0
-131 -113 -136 -194 -116 0
-131 -125 -136 -194 -128 0
-108 -100 -113 -195 -103 0
-120 -100 -125 -195 -103 0
-131 -100 -136 -195 -103 0
-120 -113 -125 -195 -116 0
-131 -113 -136 -195 -116 0
-131 -125 -136 -195 -128 0
-120 -113 -125 -103 -116 0
-131 -113 -136 -103 -116 0
-131 -125 -136 -103 -128 0
-131 -125 -136 -116 -128 0
-108 -100 -113 -196 -104 0
-120 -100 -125 -196 -104 0
-131 -100 -136 -196 -104 0
-120 -113 -125 -196 -117 0
-131 -113 -136 -196 -117 0
-131 -125 -136 -196 -129 0
-120 -113 -125 -104 -117 0
-131 -113 -136 -104 -117 0
-131 -125 -136 -104 -129 0
-131 -125 -136 -117 -129 0
-120 -113 -125 -105 -118 0
-131 -113 -136 -105 -118 0
-131 -125 -136 -105 -130 0
-131 -125 -136 -118 -130 0
-131 -125 -136 -92 -93 0
-151 -189 -190 -191 -192 0
-95 -189 -101 -191 -192 0
-108 -189 -114 -191 -192 0
-120 -189 -126 -191 -192 0
-131 -189 -137 -191 -192 0
-95 -190 -101 -191 -193 0
-108 -190 -114 -191 -193 0
-120 -190 -126 -191 -193 0
-131 -190 -137 -191 -193 0
-108 -101 -114 -191 -102 0
-120 -101 -126 -191 -102 0
-131 -101 -137 -191 -102 0
-120 -114 -126 -191 -115 0
-131 -114 -137 -191 -115 0
-131 -126 -137 -191 -127 0
-95 -190 -101 -192 -193 0
-108 -190 -114 -192 -193 0
-120 -190 -126 -192 -193 0
-131 -190 -137 -192 -193 0
-108 -101 -114 -192 -102 0
-120 -101 -126 -192 -102 0
-131 -101 -137 -192 -102 0
-120 -114 -126 -192 -115 0
-131 -114 -137 -192 -115 0
-131 -126 -137 -192 -127 0
-108 -101 -114 -193 -102 0
-120 -101 -126 -193 -102 0
-131 -101 -137 -193 -102 0
-120 -114 -126 -193 -115 0
-131 -114 -137 -193 -115 0
-131 -126 -137 -193 -127 0
-120 -114 -126 -102 -115 0
-131 -114 -137 -102 -115 0
-131 -126 -137 -102 -127 0
-131 -126 -137 -115 -127 0
-95 -190 -101 -194 -195 0
-108 -190 -114 -194 -195 0
-120 -190 -126 -194 -195 0
-131 -190 -137 -194 -195 0
-108 -101 -114 -194 -103 0
-120 -101 -126 -194 -103 0
-131 -101 -137 -194 -103 0
-120 -114 -126 -194 -116 0
-131 -114 -137 -194 -116 0
-131 -126 -137 -194 -128 0
-108 -101 -114 -195 -103 0
-120 -101 -126 -195 -103 0
-131 -101 -137 -195 -103 0
-120 -114 -126 -195 -116 0
-131 -114 -137 -195 -116 0
-131 -126 -137 -195 -128 0
-120 -114 -126 -103 -116 0
-131 -114 -137 -103 -116 0
-131 -126 -137 -103 -128 0
-131 -126 -137 -116 -128 0
-108 -101 -114 -196 -104 0
-120 -101 -126 -196 -104 0
-131 -101 -137 -196 -104 0
-120 -114 -126 -196 -117 0
-131 -114 -137 -196 -117 0
-131 -126 -137 -196 -129 0
-120 -114 -126 -104 -117 0
-131 -114 -137 -104 -117 0
-131 -126 -137 -104 -129 0
-131 -126 -137 -117 -129 0
-120 -114 -126 -105 -118 0
-131 -114 -137 -105 -118 0
-131 -126 -137 -105 -130 0
-131 -126 -137 -118 -130 0
-131 -126 -137 -92 -93 0
-95 -193 -102 -194 -195 0
-108 -193 -115 -194 -195 0
-120 -193 -127 -194 -195 0
-131 -193 -138 -194 -195 0
-108 -102 -115 -194 -103 0
-120 -102 -127 -194 -103 0
-131 -102 -138 -194 -103 0
-120 -115 -127 -194 -116 0
-131 -115 -138 -194 -116 0
-131 -127 -138 -194 -128 0
-108 -102 -115 -195 -103 0
-120 -102 -127 -195 -103 0
-131 -102 -138 -195 -103 0
-120 -115 -127 -195 -116 0
-131 -115 -138 -195 -116 0
-131 -127 -138 -195 -128 0
-120 -115 -127 -103 -116 0
-131 -115 -138 -103 -116 0
-131 -127 -138 -103 -128 0
-131 -127 -138 -116 -128 0
-108 -102 -115 -196 -104 0
-120 -102 -127 -196 -104 0
-131 -102 -138 -196 -104 0
-120 -115 -127 -196 -117 0
-131 -115 -138 -196 -117 0
-131 -127 -138 -196 -129 0
-120 -115 -127 -104 -117 0
-131 -115 -138 -104 -117 0
-131 -127 -138 -104 -129 0
-131 -127 -138 -117 -129 0
-120 -115 -127 -105 -118 0
-131 -115 -138 -105 -118 0
-131 -127 -138 -105 -130 0
-131 -127 -138 -118 -130 0
-131 -127 -138 -92 -93 0
-108 -103 -116 -196 -104 0
-120 -103 -128 -196 -104 0
-131 -103 -139 -196 -104 0
-120 -116 -128 -196 -117 0
-131 -116 -139 -196 -117 0
-131 -128 -139 -196 -129 0
-120 -116 -128 -104 -117 0
-131 -116 -139 -104 -117 0
-131 -128 -139 -104 -129 0
-131 -128 -139 -117 -129 0
-120 -116 -128 -105 -118 0
-131 -116 -139 -105 -118 0
-131 -128 -139 -105 -130 0
-131 -128 -139 -118 -130 0
-131 -128 -139 -92 -93 0
-120 -117 -129 -105 -118 0
-131 -117 -140 -105 -118 0
-131 -129 -140 -105 -130 0
-131 -129 -140 -118 -130 0
-131 -129 -140 -92 -93 0
-131 -130 -141 -92 -93 0
-156 -163 -164 -169 -170 0
-157 -163 -165 -169 -170 0
-158 -163 -166 -169 -170 0
-159 -163 -167 -169 -170 0
-160 -163 -168 -169 -170 0
-96 -163 -97 -169 -170 0
-109 -163 -110 -169 -170 0
-121 -163 -122 -169 -170 0
-132 -163 -133 -169 -170 0
-142 -163 -143 -169 -170 0
-157 -164 -165 -169 -171 0
-158 -164 -166 -169 -171 0
-159 -164 -167 -169 -171 0
-160 -164 -168 -169 -171 0
-96 -164 -97 -169 -171 0
-109 -164 -110 -169 -171 0
-121 -164 -122 -169 -171 0
-132 -164 -133 -169 -171 0
-142 -164 -143 -169 -171 0
-158 -165 -166 -169 -172 0
-159 -165 -167 -169 -172 0
-160 -165 -168 -169 -172 0
-96 -165 -97 -169 -172 0
-109 -165 -110 -169 -172 0
-121 -165 -122 -169 -172 0
-132 -165 -133 -169 -172 0
-142 -165 -143 -169 -172 0
-159 -166 -167 -169 -173 0
-160 -166 -168 -169 -173 0
-96 -166 -97 -169 -173 0
-109 -166 -110 -169 -173 0
-121 -166 -122 -169 -173 0
-132 -166 -133 -169 -173 0
-142 -166 -143 -169 -173 0
-160 -167 -168 -169 -174 0
-96 -167 -97 -169 -174 0
-109 -167 -110 -169 -174 0
-121 -167 -122 -169 -174 0
-132 -167 -133 -169 -174 0
-142 -167 -143 -169 -174 0
-96 -168 -97 -169 -175 0
-109 -168 -110 -169 -175 0
-121 -168 -122 -169 -175 0
-132 -168 -133 -169 -175 0
-142 -168 -143 -169 -175 0
-109 -97 -110 -169 -98 0
-121 -97 -122 -169 -98 0
-132 -97 -133 -169 -98 0
-142 -97 -143 -169 -98 0
-121 -110 -122 -169 -111 0
-132 -110 -133 -169 -111 0
-142 -110 -143 -169 -111 0
-132 -122 -133 -169 -123 0
-142 -122 -143 -169 -123 0
-142 -133 -143 -169 -134 0
-157 -164 -165 -170 -171 0
-158 -164 -166 -170 -171 0
-159 -164 -167 -170 -171 0
-160 -164 -168 -170 -171 0
-96 -164 -97 -170 -171 0
-109 -164 -110 -170 -171 0
-121 -164 -122 -170 -171 0
-132 -164 -133 -170 -171 0
-142 -164 -143 -170 -171 0
-158 -165 -166 -170 -172 0
-159 -165 -167 -170 -172 0
-160 -165 -168 -170 -172 0
-96 -165 -97 -170 -172 0
-109 -165 -110 -170 -172 0
-121 -165 -122 -170 -172 0
-132 -165 -133 -170 -172 0
-142 -165 -143 -170 -172 0
-159 -166 -167 -170 -173 0
-160 -166 -168 -170 -173 0
-96 -166 -97 -170 -173 0
-109 -166 -110 -170 -173 0
-121 -166 -122 -170 -173 0
-132 -166 -133 -170 -173 0
-142 -166 -143 -170 -173 0
-160 -167 -168 -170 -174 0
-96 -167 -97 -170 -174 0
-109 -167 -110 -170 -174 0
-121 -167 -122 -170 -174 0
-132 -167 -133 -170 -174 0
-142 -167 -143 -170 -174 0
-96 -168 -97 -170 -175 0
-109 -168 -110 -170 -175 0
-121 -168 -122 -170 -175 0
-132 -168 -133 -170 -175 0
-142 -168 -143 -170 -175 0
-109 -97 -110 -170 -98 0
-121 -97 -122 -170 -98 0
-132 -97 -133 -170 -98 0
-142 -97 -143 -170 -98 0
-121 -110 -122 -170 -111 0
-132 -110 -133 -170 -111 0
-142 -110 -143 -170 -111 0
-132 -122 -133 -170 -123 0
-142 -122 -143 -170 -123 0
-142 -133 -143 -170 -134 0
-158 -165 -166 -171 -172 0
-159 -165 -167 -171 -172 0
-160 -165 -168 -171 -172 0
-96 -165 -97 -171 -172 0
-109 -165 -110 -171 -172 0
-121 -165 -122 -171 -172 0
-132 -165 -133 -171 -172 0
-142 -165 -143 -171 -172 0
-159 -166 -167 -171 -173 0
-160 -166 -168 -171 -173 0
-96 -166 -97 -171 -173 0
-109 -166 -110 -171 -173 0
-121 -166 -122 -171 -173 0
-132 -166 -133 -171 -173 0
-142 -166 -143 -171 -173 0
-160 -167 -168 -171 -174 0
-96 -167 -97 -171 -174 0
-109 -167 -110 -171 -174 0
-121 -167 -122 -171 -174 0
-132 -167 -133 -171 -174 0
-142 -167 -143 -171 -174 0
-96 -168 -97 -171 -175 0
-109 -168 -110 -171 -175 0
-121 -168 -122 -171 -175 0
-132 -168 -133 -171 -175 0
-142 -168 -143 -171 -175 0
-109 -97 -110 -171 -98 0
-121 -97 -122 -171 -98 0
-132 -97 -133 -171 -98 0
-142 -97 -143 -171 -98 0
-121 -110 -122 -171 -111 0
-132 -110 -133 -171 -111 0
-142 -110 -143 -171 -111 0
-132 -122 -133 -171 -123 0
-142 -122 -143 -171 -123 0
-142 -133 -143 -171 -134 0
-159 -166 -167 -172 -173 0
-160 -166 -168 -172 -173 0
-96 -166 -97 -172 -173 0
-109 -166 -110 -172 -173 0
-121 -166 -122 -172 -173 0
-132 -166 -133 -172 -173 0
-142 -166 -143 -172 -173 0
-160 -167 -168 -172 -174 0
-96 -167 -97 -172 -174 0
-109 -167 -110 -172 -174 0
-121 -167 -122 -172 -174 0
-132 -167 -133 -172 -174 0
-142 -167 -143 -172 -174 0
-96 -168 -97 -172 -175 0
-109 -168 -110 -172 -175 0
-121 -168 -122 -172 -175 0
-132 -168 -133 -172 -175 0
-142 -168 -143 -172 -175 0
-109 -97 -110 -172 -98 0
-121 -97 -122 -172 -98 0
-132 -97 -133 -172 -98 0
-142 -97 -143 -172 -98 0
-121 -110 -122 -172 -111 0
-132 -110 -133 -172 -111 0
-142 -110 -143 -172 -111 0
-132 -122 -133 -172 -123 0
-142 -122 -143 -172 -123 0
-142 -133 -143 -172 -134 0
-160 -167 -168 -173 -174 0
-96 -167 -97 -173 -174 0
-109 -167 -110 -173 -174 0
-121 -167 -122 -173 -174 0
-132 -167 -133 -173 -174 0
-142 -167 -143 -173 -174 0
-96 -168 -97 -173 -175 0
-109 -168 -110 -173 -175 0
-121 -168 -122 -173 -175 0
-132 -168 -133 -173 -175 0
-142 -168 -143 -173 -175 0
-109 -97 -110 -173 -98 0
-121 -97 -122 -173 -98 0
-132 -97 -133 -173 -98 0
-142 -97 -143 -173 -98 0
-121 -110 -122 -173 -111 0
-132 -110 -133 -173 -111 0
-142 -110 -143 -173 -111 0
-132 -122 -133 -173 -123 0
-142 -122 -143 -173 -123 0
-142 -133 -143 -173 -134 0
-96 -168 -97 -174 -175 0
-109 -168 -110 -174 -175 0
-121 -168 -122 -174 -175 0
-132 -168 -133 -174 -175 0
-142 -168 -143 -174 -175 0
-109 -97 -110 -174 -98 0
-121 -97 -122 -174 -98 0
-132 -97 -133 -174 -98 0
-142 -97 -143 -174 -98 0
-121 -110 -122 -174 -111 0
-132 -110 -133 -174 -111 0
-142 -110 -143 -174 -111 0
-132 -122 -133 -174 -123 0
-142 -122 -143 -174 -123 0
-142 -133 -143 -174 -134 0
-109 -97 -110 -175 -98 0
-121 -97 -122 -175 -98 0
-132 -97 -133 -175 -98 0
-142 -97 -143 -175 -98 0
-121 -110 -122 -175 -111 0
-132 -110 -133 -175 -111 0
-142 -110 -143 -175 -111 0
-132 -122 -133 -175 -123 0
-142 -122 -143 -175 -123 0
-142 -133 -143 -175 -134 0
-121 -110 -122 -98 -111 0
-132 -110 -133 -98 -111 0
-142 -110 -143 -98 -111 0
-132 -122 -133 -98 -123 0
-142 -122 -143 -98 -123 0
-142 -133 -143 -98 -134 0
-132 -122 -133 -111 -123 0
-142 -122 -143 -111 -123 0
-142 -133 -143 -111 -134 0
-142 -133 -143 -123 -134 0
-157 -164 -165 -176 -177 0
-158 -164 -166 -176 -177 0
-159 -164 -167 -176 -177 0
-160 -164 -168 -176 -177 0
-96 -164 -97 -176 -177 0
-109 -164 -110 -176 -177 0
-121 -164 -122 -176 -177 0
-132 -164 -133 -176 -177 0
-142 -164 -143 -176 -177 0
-158 -165 -166 -176 -178 0
-159 -165 -167 -176 -178 0
-160 -165 -168 -176 -178 0
-96 -165 -97 -176 -178 0
-109 -165 -110 -176 -178 0
-121 -165 -122 -176 -178 0
-132 -165 -133 -176 -178 0
-142 -165 -143 -176 -178 0
-159 -166 -167 -176 -179 0
-160 -166 -168 -176 -179 0
-96 -166 -97 -176 -179 0
-109 -166 -110 -176 -179 0
-121 -166 -122 -176 -179 0
-132 -166 -133 -176 -179 0
-142 -166 -143 -176 -179 0
-160 -167 -168 -176 -180 0
-96 -167 -97 -176 -180 0
-109 -167 -110 -176 -180 0
-121 -167 -122 -176 -180 0
-132 -167 -133 -176 -180 0
-142 -167 -143 -176 -180 0
-96 -168 -97 -176 -181 0
-109 -168 -110 -176 -181 0
-121 -168 -122 -176 -181 0
-132 -168 -133 -176 -181 0
-142 -168 -143 -176 -181 0
-109 -97 -110 -176 -99 0
-121 -97 -122 -176 -99 0
-132 -97 -133 -176 -99 0
-142 -97 -143 -176 -99 0
-121 -110 -122 -176 -112 0
-132 -110 -133 -176 -112 0
-142 -110 -143 -176 -112 0
-132 -122 -133 -176 -124 0
-142 -122 -143 -176 -124 0
-142 -133 -143 -176 -135 0
-158 -165 -166 -177 -178 0
-159 -165 -167 -177 -178 0
-160 -165 -168 -177 -178 0
-96 -165 -97 -177 -178 0
-109 -165 -110 -177 -178 0
-121 -165 -122 -177 -178 0
-132 -165 -133 -177 -178 0
-142 -165 -143 -177 -178 0
-159 -166 -167 -177 -179 0
-160 -166 -168 -177 -179 0
-96 -166 -97 -177 -179 0
-109 -166 -110 -177 -179 0
-121 -166 -122 -177 -179 0
-132 -166 -133 -177 -179 0
-142 -166 -143 -177 -179 0
-160 -167 -168 -177 -180 0
-96 -167 -97 -177 -180 0
-109 -167 -110 -177 -180 0
-121 -167 -122 -177 -180 0
-132 -167 -133 -177 -180 0
-142 -167 -143 -177 -180 0
-96 -168 -97 -177 -181 0
-109 -168 -110 -177 -181 0
-121 -168 -122 -177 -181 0
-132 -168 -133 -177 -181 0
-142 -168 -143 -177 -181 0
-109 -97 -110 -177 -99 0
-121 -97 -122 -177 -99 0
-132 -97 -133 -177 -99 0
-142 -97 -143 -177 -99 0
-121 -110 -122 -177 -112 0
-132 -110 -133 -177 -112 0
-142 -110 -143 -177 -112 0
-132 -122 -133 -177 -124 0
-142 -122 -143 -177 -124 0
-142 -133 -143 -177 -135 0
-159 -166 -167 -178 -179 0
-160 -166 -168 -178 -179 0
-96 -166 -97 -178 -179 0
-109 -166 -110 -178 -179 0
-121 -166 -122 -178 -179 0
-132 -166 -133 -178 -179 0
-142 -166 -143 -178 -179 0
-160 -167 -168 -178 -180 0
-96 -167 -97 -178 -180 0
-109 -167 -110 -178 -180 0
-121 -167 -122 -178 -180 0
-132 -167 -133 -178 -180 0
-142 -167 -143 -178 -180 0
-96 -168 -97 -178 -181 0
-109 -168 -110 -178 -181 0
-121 -168 -122 -178 -181 0
-132 -168 -133 -178 -181 0
-142 -168 -143 -178 -181 0
-109 -97 -110 -178 -99 0
-121 -97 -122 -178 -99 0
-132 -97 -133 -178 -99 0
-142 -97 -143 -178 -99 0
-121 -110 -122 -178 -112 0
-132 -110 -133 -178 -112 0
-142 -110 -143 -178 -112 0
-132 -122 -133 -178 -124 0
-142 -122 -143 -178 -124 0
-142 -133 -143 -178 -135 0
-160 -167 -168 -179 -180 0
-96 -167 -97 -179 -180 0
-109 -167 -110 -179 -180 0
-121 -167 -122 -179 -180 0
-132 -167 -133 -179 -180 0
-142 -167 -143 -179 -180 0
-96 -168 -97 -179 -181 0
-109 -168 -110 -179 -181 0
-121 -168 -122 -179 -181 0
-132 -168 -133 -179 -181 0
-142 -168 -143 -179 -181 0
-109 -97 -110 -179 -99 0
-121 -97 -122 -179 -99 0
-132 -97 -133 -179 -99 0
-142 -97 -143 -179 -99 0
-121 -110 -122 -179 -112 0
-132 -110 -133 -179 -112 0
-142 -110 -143 -179 -112 0
-132 -122 -133 -179 -124 0
-142 -122 -143 -179 -124 0
-142 -133 -143 -179 -135 0
-96 -168 -97 -180 -181 0
-109 -168 -110 -180 -181 0
-121 -168 -122 -180 -181 0
-132 -168 -133 -180 -181 0
-142 -168 -143 -180 -181 0
-109 -97 -110 -180 -99 0
-121 -97 -122 -180 -99 0
-132 -97 -133 -180 -99 0
-142 -97 -143 -180 -99 0
-121 -110 -122 -180 -112 0
-132 -110 -133 -180 -112 0
-142 -110 -143 -180 -112 0
-132 -122 -133 -180 -124 0
-142 -122 -143 -180 -124 0
-142 -133 -143 -180 -135 0
-109 -97 -110 -181 -99 0
-121 -97 -122 -181 -99 0
-132 -97 -133 -181 -99 0
-142 -97 -143 -181 -99 0
-121 -110 -122 -181 -112 0
-132 -110 -133 -181 -112 0
-142 -110 -143 -181 -112 0
-132 -122 -133 -181 -124 0
-142 -122 -143 -181 -124 0
-142 -133 -143 -181 -135 0
-121 -110 -122 -99 -112 0
-132 -110 -133 -99 -112 0
-142 -110 -143 -99 -112 0
-132 -122 -133 -99 -124 0
-142 -122 -143 -99 -124 0
-142 -133 -143 -99 -135 0
-132 -122 -133 -112 -124 0
-142 -122 -143 -112 -124 0
-142 -133 -143 -112 -135 0
-142 -133 -143 -124 -135 0
-158 -165 -166 -182 -183 0
-159 -165 -167 -182 -183 0
-160 -165 -168 -182 -183 0
-96 -165 -97 -182 -183 0
-109 -165 -110 -182 -183 0
-121 -165 -122 -182 -183 0
-132 -165 -133 -182 -183 0
-142 -165 -143 -182 -183 0
-159 -166 -167 -182 -184 0
-160 -166 -168 -182 -184 0
-96 -166 -97 -182 -184 0
-109 -166 -110 -182 -184 0
-121 -166 -122 -182 -184 0
-132 -166 -133 -182 -184 0
-142 -166 -143 -182 -184 0
-160 -167 -168 -182 -185 0
-96 -167 -97 -182 -185 0
-109 -167 -110 -182 -185 0
-121 -167 -122 -182 -185 0
-132 -167 -133 -182 -185 0
-142 -167 -143 -182 -185 0
-96 -168 -97 -182 -186 0
-109 -168 -110 -182 -186 0
-121 -168 -122 -182 -186 0
-132 -168 -133 -182 -186 0
-142 -168 -143 -182 -186 0
-109 -97 -110 -182 -100 0
-121 -97 -122 -182 -100 0
-132 -97 -133 -182 -100 0
-142 -97 -143 -182 -100 0
-121 -110 -122 -182 -113 0
-132 -110 -133 -182 -113 0
-142 -110 -143 -182 -113 0
-132 -122 -133 -182 -125 0
-142 -122 -143 -182 -125 0
-142 -133 -143 -182 -136 0
-159 -166 -167 -183 -184 0
-160 -166 -168 -183 -184 0
-96 -166 -97 -183 -184 0
-109 -166 -110 -183 -184 0
-121 -166 -122 -183 -184 0
-132 -166 -133 -183 -184 0
-142 -166 -143 -183 -184 0
-160 -167 -168 -183 -185 0
-96 -167 -97 -183 -185 0
-109 -167 -110 -183 -185 0
-121 -167 -122 -183 -185 0
-132 -167 -133 -183 -185 0
-142 -167 -143 -183 -185 0
-96 -168 -97 -183 -186 0
-109 -168 -110 -183 -186 0
-121 -168 -122 -183 -186 0
-132 -168 -133 -183 -186 0
-142 -168 -143 -183 -186 0
-109 -97 -110 -183 -100 0
-121 -97 -122 -183 -100 0
-132 -97 -133 -183 -100 0
-142 -97 -143 -183 -100 0
-121 -110 -122 -183 -113 0
-132 -110 -133 -183 -113 0
-142 -110 -143 -183 -113 0
-132 -122 -133 -183 -125 0
-142 -122 -143 -183 -125 0
-142 -133 -143 -183 -136 0
-160 -167 -168 -184 -185 0
-96 -167 -97 -184 -185 0
-109 -167 -110 -184 -185 0
-121 -167 -122 -184 -185 0
-132 -167 -133 -184 -185 0
-142 -167 -143 -184 -185 0
-96 -168 -97 -184 -186 0
-109 -168 -110 -184 -186 0
-121 -168 -122 -184 -186 0
-132 -168 -133 -184 -186 0
-142 -168 -143 -184 -186 0
-109 -97 -110 -184 -100 0
-121 -97 -122 -184 -100 0
-132 -97 -133 -184 -100 0
-142 -97 -143 -184 -100 0
-121 -110 -122 -184 -113 0
-132 -110 -133 -184 -113 0
-142 -110 -143 -184 -113 0
-132 -122 -133 -184 -125 0
-142 -122 -143 -184 -125 0
-142 -133 -143 -184 -136 0
-96 -168 -97 -185 -186 0
-109 -168 -110 -185 -186 0
-121 -168 -122 -185 -186 0
-132 -168 -133 -185 -186 0
-142 -168 -143 -185 -186 0
-109 -97 -110 -185 -100 0
-121 -97 -122 -185 -100 0
-132 -97 -133 -185 -100 0
-142 -97 -143 -185 -100 0
-121 -110 -122 -185 -113 0
-132 -110 -133 -185 -113 0
-142 -110 -143 -185 -113 0
-132 -122 -133 -185 -125 0
-142 -122 -143 -185 -125 0
-142 -133 -143 -185 -136 0
-109 -97 -110 -186 -100 0
-121 -97 -122 -186 -100 0
-132 -97 -133 -186 -100 0
-142 -97 -143 -186 -100 0
-121 -110 -122 -186 -113 0
-132 -110 -133 -186 -113 0
-142 -110 -143 -186 -113 0
-132 -122 -133 -186 -125 0
-142 -122 -143 -186 -125 0
-142 -133 -143 -186 -136 0
-121 -110 -122 -100 -113 0
-132 -110 -133 -100 -113 0
-142 -110 -143 -100 -113 0
-132 -122 -133 -100 -125 0
-142 -122 -143 -100 -125 0
-142 -133 -143 -100 -136 0
-132 -122 -133 -113 -125 0
-142 -122 -143 -113 -125 0
-142 -133 -143 -113 -136 0
-142 -133 -143 -125 -136 0
-159 -166 -167 -187 -188 0
-160 -166 -168 -187 -188 0
-96 -166 -97 -187 -188 0
-109 -166 -110 -187 -188 0
-121 -166 -122 -187 -188 0
-132 -166 -133 -187 -188 0
-142 -166 -143 -187 -188 0
-160 -167 -168 -187 -189 0
-96 -167 -97 -187 -189 0
-109 -167 -110 -187 -189 0
-121 -167 -122 -187 -189 0
-132 -167 -133 -187 -189 0
-142 -167 -143 -187 -189 0
-96 -168 -97 -187 -190 0
-109 -168 -110 -187 -190 0
-121 -168 -122 -187 -190 0
-132 -168 -133 -187 -190 0
-142 -168 -143 -187 -190 0
-109 -97 -110 -187 -101 0
-121 -97 -122 -187 -101 0
-132 -97 -133 -187 -101 0
-142 -97 -143 -187 -101 0
-121 -110 -122 -187 -114 0
-132 -110 -133 -187 -114 0
-142 -110 -143 -187 -114 0
-132 -122 -133 -187 -126 0
-142 -122 -143 -187 -126 0
-142 -133 -143 -187 -137 0
-160 -167 -168 -188 -189 0
-96 -167 -97 -188 -189 0
-109 -167 -110 -188 -189 0
-121 -167 -122 -188 -189 0
-132 -167 -133 -188 -189 0
-142 -167 -143 -188 -189 0
-96 -168 -97 -188 -190 0
-109 -168 -110 -188 -190 0
-121 -168 -122 -188 -190 0
-132 -168 -133 -188 -190 0
-142 -168 -143 -188 -190 0
-109 -97 -110 -188 -101 0
-121 -97 -122 -188 -101 0
-132 -97 -133 -188 -101 0
-142 -97 -143 -188 -101 0
-121 -110 -122 -188 -114 0
-132 -110 -133 -188 -114 0
-142 -110 -143 -188 -114 0
-132 -122 -133 -188 -126 0
-142 -122 -143 -188 -126 0
-142 -133 -143 -188 -137 0
-96 -168 -97 -189 -190 0
-109 -168 -110 -189 -190 0
-121 -168 -122 -189 -190 0
-132 -168 -133 -189 -190 0
-142 -168 -143 -189 -190 0
-109 -97 -110 -189 -101 0
-121 -97 -122 -189 -101 0
-132 -97 -133 -189 -101 0
-142 -97 -143 -189 -101 0
-121 -110 -122 -189 -114 0
-132 -110 -133 -189 -114 0
-142 -110 -143 -189 -114 0
-132 -122 -133 -189 -126 0
-142 -122 -143 -189 -126 0
-142 -133 -143 -189 -137 0
-109 -97 -110 -190 -101 0
-121 -97 -122 -190 -101 0
-132 -97 -133 -190 -101 0
-142 -97 -143 -190 -101 0
-121 -110 -122 -190 -114 0
-132 -110 -133 -190 -114 0
-142 -110 -143 -190 -114 0
-132 -122 -133 -190 -126 0
-142 -122 -143 -190 -126 0
-142 -133 -143 -190 -137 0
-121 -110 -122 -101 -114 0
-132 -110 -133 -101 -114 0
-142 -110 -143 -101 -114 0
-132 -122 -133 -101 -126 0
-142 -122 -143 -101 -126 0
-142 -133 -143 -101 -137 0
-132 -122 -133 -114 -126 0
-142 -122 -143 -114 -126 0
-142 -133 -143 -114 -137 0
-142 -133 -143 -126 -137 0
-160 -167 -168 -191 -192 0
-96 -167 -97 -191 -192 0
-109 -167 -110 -191 -192 0
-121 -167 -122 -191 -192 0
-132 -167 -133 -191 -192 0
-142 -167 -143 -191 -192 0
-96 -168 -97 -191 -193 0
-109 -168 -110 -191 -193 0
-121 -168 -122 -191 -193 0
-132 -168 -133 -191 -193 0
-142 -168 -143 -191 -193 0
-109 -97 -110 -191 -102 0
-121 -97 -122 -191 -102 0
-132 -97 -133 -191 -102 0
-142 -97 -143 -191 -102 0
-121 -110 -122 -191 -115 0
-132 -110 -133 -191 -115 0
-142 -110 -143 -191 -115 0
-132 -122 -133 -191 -127 0
-142 -122 -143 -191 -127 0
-142 -133 -143 -191 -138 0
-96 -168 -97 -192 -193 0
-109 -168 -110 -192 -193 0
-121 -168 -122 -192 -193 0
-132 -168 -133 -192 -193 0
-142 -168 -143 -192 -193 0
-109 -97 -110 -192 -102 0
-121 -97 -122 -192 -102 0
-132 -97 -133 -192 -102 0
-142 -97 -143 -192 -102 0
-121 -110 -122 -192 -115 0
-132 -110 -133 -192 -115 0
-142 -110 -143 -192 -115 0
-132 -122 -133 -192 -127 0
-142 -122 -143 -192 -127 0
-142 -133 -143 -192 -138 0
-109 -97 -110 -193 -102 0
-121 -97 -122 -193 -102 0
-132 -97 -133 -193 -102 0
-142 -97 -143 -193 -102 0
-121 -110 -122 -193 -115 0
-132 -110 -133 -193 -115 0
-142 -110 -143 -193 -115 0
-132 -122 -133 -193 -127 0
-142 -122 -143 -193 -127 0
-142 -133 -143 -193 -138 0
-121 -110 -122 -102 -115 0
-132 -110 -133 -102 -115 0
-142 -110 -143 -102 -115 0
-132 -122 -133 -102 -127 0
-142 -122 -143 -102 -127 0
-142 -133 -143 -102 -138 0
-132 -122 -133 -115 -127 0
-142 -122 -143 -115 -127 0
-142 -133 -143 -115 -138 0
-142 -133 -143 -127 -138 0
-96 -168 -97 -194 -195 0
-109 -168 -110 -194 -195 0
-121 -168 -122 -194 -195 0
-132 -168 -133 -194 -195 0
-142 -168 -143 -194 -195 0
-109 -97 -110 -194 -103 0
-121 -97 -122 -194 -103 0
-132 -97 -133 -194 -103 0
-142 -97 -143 -194 -103 0
-121 -110 -122 -194 -116 0
-132 -110 -133 -194 -116 0
-142 -110 -143 -194 -116 0
-132 -122 -133 -194 -128 0
-142 -122 -143 -194 -128 0
-142 -133 -143 -194 -139 0
-109 -97 -110 -195 -103 0
-121 -97 -122 -195 -103 0
-132 -97 -133 -195 -103 0
-142 -97 -143 -195 -103 0
-121 -110 -122 -195 -116 0
-132 -110 -133 -195 -116 0
-142 -110 -143 -195 -116 0
-132 -122 -133 -195 -128 0
-142 -122 -143 -195 -128 0
-142 -133 -143 -195 -139 0
-121 -110 -122 -103 -116 0
-132 -110 -133 -103 -116 0
-142 -110 -143 -103 -116 0
-132 -122 -133 -103 -128 0
-142 -122 -143 -103 -128 0
-142 -133 -143 -103 -139 0
-132 -122 -133 -116 -128 0
-142 -122 -143 -116 -128 0
-142 -133 -143 -116 -139 0
-142 -133 -143 -128 -139 0
-109 -97 -110 -196 -104 0
-121 -97 -122 -196 -104 0
-132 -97 -133 -196 -104 0
-142 -97 -143 -196 -104 0
-121 -110 -122 -196 -117 0
-132 -110 -133 -196 -117 0
-142 -110 -143 -196 -117 0
-132 -122 -133 -196 -129 0
-142 -122 -143 -196 -129 0
-142 -133 -143 -196 -140 0
-121 -110 -122 -104 -117 0
-132 -110 -133 -104 -117 0
-142 -110 -143 -104 -117 0
-132 -122 -133 -104 -129 0
-142 -122 -143 -104 -129 0
-142 -133 -143 -104 -140 0
-132 -122 -133 -117 -129 0
-142 -122 -143 -117 -129 0
-142 -133 -143 -117 -140 0
-142 -133 -143 -129 -140 0
-121 -110 -122 -105 -118 0
-132 -110 -133 -105 -118 0
-142 -110 -143 -105 -118 0
-132 -122 -133 -105 -130 0
-142 -122 -143 -105 -130 0
-142 -133 -143 -105 -141 0
-132 -122 -133 -118 -130 0
-142 -122 -143 -118 -130 0
-142 -133 -143 -118 -141 0
-142 -133 -143 -130 -141 0
-132 -122 -133 -92 -93 0
-142 -122 -143 -92 -93 0
-142 -133 -143 -92 -94 0
-142 -133 -143 -93 -94 0
-142 -133 -143 -106 -107 0
-157 -171 -172 -176 -177 0
-158 -171 -173 -176 -177 0
-159 -171 -174 -176 -177 0
-160 -171 -175 -176 -177 0
-96 -171 -98 -176 -177 0
-109 -171 -111 -176 -177 0
-121 -171 -123 -176 -177 0
-132 -171 -134 -176 -177 0
-142 -171 -144 -176 -177 0
-158 -172 -173 -176 -178 0
-159 -172 -174 -176 -178 0
-160 -172 -175 -176 -178 0
-96 -172 -98 -176 -178 0
-109 -172 -111 -176 -178 0
-121 -172 -123 -176 -178 0
-132 -172 -134 -176 -178 0
-142 -172 -144 -176 -178 0
-159 -173 -174 -176 -179 0
-160 -173 -175 -176 -179 0
-96 -173 -98 -176 -179 0
-109 -173 -111 -176 -179 0
-121 -173 -123 -176 -179 0
-132 -173 -134 -176 -179 0
-142 -173 -144 -176 -179 0
-160 -174 -175 -176 -180 0
-96 -174 -98 -176 -180 0
-109 -174 -111 -176 -180 0
-121 -174 -123 -176 -180 0
-132 -174 -134 -176 -180 0
-142 -174 -144 -176 -180 0
-96 -175 -98 -176 -181 0
-109 -175 -111 -176 -181 0
-121 -175 -123 -176 -181 0
-132 -175 -134 -176 -181 0
-142 -175 -144 -176 -181 0
-109 -98 -111 -176 -99 0
-121 -98 -123 -176 -99 0
-132 -98 -134 -176 -99 0
-142 -98 -144 -176 -99 0
-121 -111 -123 -176 -112 0
-132 -111 -134 -176 -112 0
-142 -111 -144 -176 -112 0
-132 -123 -134 -176 -124 0
-142 -123 -144 -176 -124 0
-142 -134 -144 -176 -135 0
-158 -172 -173 -177 -178 0
-159 -172 -174 -177 -178 0
-160 -172 -175 -177 -178 0
-96 -172 -98 -177 -178 0
-109 -172 -111 -177 -178 0
-121 -172 -123 -177 -178 0
-132 -172 -134 -177 -178 0
-142 -172 -144 -177 -178 0
-159 -173 -174 -177 -179 0
-160 -173 -175 -177 -179 0
-96 -173 -98 -177 -179 0
-109 -173 -111 -177 -179 0
-121 -173 -123 -177 -179 0
-132 -173 -134 -177 -179 0
-142 -173 -144 -177 -179 0
-160 -174 -175 -177 -180 0
-96 -174 -98 -177 -180 0
-109 -174 -111 -177 -180 0
-121 -174 -123 -177 -180 0
-132 -174 -134 -177 -180 0
-142 -174 -144 -177 -180 0
-96 -175 -98 -177 -181 0
-109 -175 -111 -177 -181 0
-121 -175 -123 -177 -181 0
-132 -175 -134 -177 -181 0
-142 -175 -144 -177 -181 0
-109 -98 -111 -177 -99 0
-121 -98 -123 -177 -99 0
-132 -98 -134 -177 -99 0
-142 -98 -144 -177 -99 0
-121 -111 -123 -177 -112 0
-132 -111 -134 -177 -112 0
-142 -111 -144 -177 -112 0
-132 -123 -134 -177 -124 0
-142 -123 -144 -177 -124 0
-142 -134 -144 -177 -135 0
-159 -173 -174 -178 -179 0
-160 -173 -175 -178 -179 0
-96 -173 -98 -178 -179 0
-109 -173 -111 -178 -179 0
-121 -173 -123 -178 -179 0
-132 -173 -134 -178 -179 0
-142 -173 -144 -178 -179 0
-160 -174 -175 -178 -180 0
-96 -174 -98 -178 -180 0
-109 -174 -111 -178 -180 0
-121 -174 -123 -178 -180 0
-132 -174 -134 -178 -180 0
-142 -174 -144 -178 -180 0
-96 -175 -98 -178 -181 0
-109 -175 -111 -178 -181 0
-121 -175 -123 -178 -181 0
-132 -175 -134 -178 -181 0
-142 -175 -144 -178 -181 0
-109 -98 -111 -178 -99 0
-121 -98 -123 -178 -99 0
-132 -98 -134 -178 -99 0
-142 -98 -144 -178 -99 0
-121 -111 -123 -178 -112 0
-132 -111 -134 -178 -112 0
-142 -111 -144 -178 -112 0
-132 -123 -134 -178 -124 0
-142 -123 -144 -178 -124 0
-142 -134 -144 -178 -135 0
-160 -174 -175 -179 -180 0
-96 -174 -98 -179 -180 0
-109 -174 -111 -179 -180 0
-121 -174 -123 -179 -180 0
-132 -174 -134 -179 -180 0
-142 -174 -144 -179 -180 0
-96 -175 -98 -179 -181 0
-109 -175 -111 -179 -181 0
-121 -175 -123 -179 -181 0
-132 -175 -134 -179 -181 0
-142 -175 -144 -179 -181 0
-109 -98 -111 -179 -99 0
-121 -98 -123 -179 -99 0
-132 -98 -134 -179 -99 0
-142 -98 -144 -179 -99 0
-121 -111 -123 -179 -112 0
-132 -111 -134 -179 -112 0
-142 -111 -144 -179 -112 0
-132 -123 -134 -179 -124 0
-142 -123 -144 -179 -124 0
-142 -134 -144 -179 -135 0
-96 -175 -98 -180 -181 0
-109 -175 -111 -180 -181 0
-121 -175 -123 -180 -181 0
-132 -175 -134 -180 -181 0
-142 -175 -144 -180 -181 0
-109 -98 -111 -180 -99 0
-121 -98 -123 -180 -99 0
-132 -98 -134 -180 -99 0
-142 -98 -144 -180 -99 0
-121 -111 -123 -180 -112 0
-132 -111 -134 -180 -112 0
-142 -111 -144 -180 -112 0
-132 -123 -134 -180 -124 0
-142 -123 -144 -180 -124 0
-142 -134 -144 -180 -135 0
-109 -98 -111 -181 -99 0
-121 -98 -123 -181 -99 0
-132 -98 -134 -181 -99 0
-142 -98 -144 -181 -99 0
-121 -111 -123 -181 -112 0
-132 -111 -134 -181 -112 0
-142 -111 -144 -181 -112 0
-132 -123 -134 -181 -124 0
-142 -123 -144 -181 -124 0
-142 -134 -144 -181 -135 0
-121 -111 -123 -99 -112 0
-132 -111 -134 -99 -112 0
-142 -111 -144 -99 -112 0
-132 -123 -134 -99 -124 0
-142 -123 -144 -99 -124 0
-142 -134 -144 -99 -135 0
-132 -123 -134 -112 -124 0
-142 -123 -144 -112 -124 0
-142 -134 -144 -112 -135 0
-142 -134 -144 -124 -135 0
-158 -172 -173 -182 -183 0
-159 -172 -174 -182 -183 0
-160 -172 -175 -182 -183 0
-96 -172 -98 -182 -183 0
-109 -172 -111 -182 -183 0
-121 -172 -123 -182 -183 0
-132 -172 -134 -182 -183 0
-142 -172 -144 -182 -183 0
-159 -173 -174 -182 -184 0
-160 -173 -175 -182 -184 0
-96 -173 -98 -182 -184 0
-109 -173 -111 -182 -184 0
-121 -173 -123 -182 -184 0
-132 -173 -134 -182 -184 0
-142 -173 -144 -182 -184 0
-160 -174 -175 -182 -185 0
-96 -174 -98 -182 -185 0
-109 -174 -111 -182 -185 0
-121 -174 -123 -182 -185 0
-132 -174 -134 -182 -185 0
-142 -174 -144 -182 -185 0
-96 -175 -98 -182 -186 0
-109 -175 -111 -182 -186 0
-121 -175 -123 -182 -186 0
-132 -175 -134 -182 -186 0
-142 -175 -144 -182 -186 0
-109 -98 -111 -182 -100 0
-121 -98 -123 -182 -100 0
-132 -98 -134 -182 -100 0
-142 -98 -144 -182 -100 0
-121 -111 -123 -182 -113 0
-132 -111 -134 -182 -113 0
-142 -111 -144 -182 -113 0
-132 -123 -134 -182 -125 0
-142 -123 -144 -182 -125 0
-142 -134 -144 -182 -136 0
-159 -173 -174 -183 -184 0
-160 -173 -175 -183 -184 0
-96 -173 -98 -183 -184 0
-109 -173 -111 -183 -184 0
-121 -173 -123 -183 -184 0
-132 -173 -134 -183 -184 0
-142 -173 -144 -183 -184 0
-160 -174 -175 -183 -185 0
-96 -174 -98 -183 -185 0
-109 -174 -111 -183 -185 0
-121 -174 -123 -183 -185 0
-132 -174 -134 -183 -185 0
-142 -174 -144 -183 -185 0
-96 -175 -98 -183 -186 0
-109 -175 -111 -183 -186 0
-121 -175 -123 -183 -186 0
-132 -175 -134 -183 -186 0
-142 -175 -144 -183 -186 0
-109 -98 -111 -183 -100 0
-121 -98 -123 -183 -100 0
-132 -98 -134 -183 -100 0
-142 -98 -144 -183 -100 0
-121 -111 -123 -183 -113 0
-132 -111 -134 -183 -113 0
-142 -111 -144 -183 -113 0
-132 -123 -134 -183 -125 0
-142 -123 -144 -183 -125 0
-142 -134 -144 -183 -136 0
-160 -174 -175 -184 -185 0
-96 -174 -98 -184 -185 0
-109 -174 -111 -184 -185 0
-121 -174 -123 -184 -185 0
-132 -174 -134 -184 -185 0
-142 -174 -144 -184 -185 0
-96 -175 -98 -184 -186 0
-109 -175 -111 -184 -186 0
-121 -175 -123 -184 -186 0
-132 -175 -134 -184 -186 0
-142 -175 -144 -184 -186 0
-109 -98 -111 -184 -100 0
-121 -98 -123 -184 -100 0
-132 -98 -134 -184 -100 0
-142 -98 -144 -184 -100 0
-121 -111 -123 -184 -113 0
-132 -111 -134 -184 -113 0
-142 -111 -144 -184 -113 0
-132 -123 -134 -184 -125 0
-142 -123 -144 -184 -125 0
-142 -134 -144 -184 -136 0
-96 -175 -98 -185 -186 0
-109 -175 -111 -185 -186 0
-121 -175 -123 -185 -186 0
-132 -175 -134 -185 -186 0
-142 -175 -144 -185 -186 0
-109 -98 -111 -185 -100 0
-121 -98 -123 -185 -100 0
-132 -98 -134 -185 -100 0
-142 -98 -144 -185 -100 0
-121 -111 -123 -185 -113 0
-132 -111 -134 -185 -113 0
-142 -111 -144 -185 -113 0
-132 -123 -134 -185 -125 0
-142 -123 -144 -185 -125 0
-142 -134 -144 -185 -136 0
-109 -98 -111 -186 -100 0
-121 -98 -123 -186 -100 0
-132 -98 -134 -186 -100 0
-142 -98 -144 -186 -100 0
-121 -111 -123 -186 -113 0
-132 -111 -134 -186 -113 0
-142 -111 -144 -186 -113 0
-132 -123 -134 -186 -125 0
-142 -123 -144 -186 -125 0
-142 -134 -144 -186 -136 0
-121 -111 -123 -100 -113 0
-132 -111 -134 -100 -113 0
-142 -111 -144 -100 -113 0
-132 -123 -134 -100 -125 0
-142 -123 -144 -100 -125 0
-142 -134 -144 -100 -136 0
-132 -123 -134 -113 -125 0
-142 -123 -144 -113 -125 0
-142 -134 -144 -113 -136 0
-142 -134 -144 -125 -136 0
-159 -173 -174 -187 -188 0
-160 -173 -175 -187 -188 0
-96 -173 -98 -187 -188 0
-109 -173 -111 -187 -188 0
-121 -173 -123 -187 -188 0
-132 -173 -134 -187 -188 0
-142 -173 -144 -187 -188 0
-160 -174 -175 -187 -189 0
-96 -174 -98 -187 -189 0
-109 -174 -111 -187 -189 0
-121 -174 -123 -187 -189 0
-132 -174 -134 -187 -189 0
-142 -174 -144 -187 -189 0
-96 -175 -98 -187 -190 0
-109 -175 -111 -187 -190 0
-121 -175 -123 -187 -190 0
-132 -175 -134 -187 -190 0
-142 -175 -144 -187 -190 0
-109 -98 -111 -187 -101 0
-121 -98 -123 -187 -101 0
-132 -98 -134 -187 -101 0
-142 -98 -144 -187 -101 0
-121 -111 -123 -187 -114 0
-132 -111 -134 -187 -114 0
-142 -111 -144 -187 -114 0
-132 -123 -134 -187 -126 0
-142 -123 -144 -187 -126 0
-142 -134 -144 -187 -137 0
-160 -174 -175 -188 -189 0
-96 -174 -98 -188 -189 0
-109 -174 -111 -188 -189 0
-121 -174 -123 -188 -189 0
-132 -174 -134 -188 -189 0
-142 -174 -144 -188 -189 0
-96 -175 -98 -188 -190 0
-109 -175 -111 -188 -190 0
-121 -175 -123 -188 -190 0
-132 -175 -134 -188 -190 0
-142 -175 -144 -188 -190 0
-109 -98 -111 -188 -101 0
-121 -98 -123 -188 -101 0
-132 -98 -134 -188 -101 0
-142 -98 -144 -188 -101 0
-121 -111 -123 -188 -114 0
-132 -111 -134 -188 -114 0
-142 -111 -144 -188 -114 0
-132 -123 -134 -188 -126 0
-142 -123 -144 -188 -126 0
-142 -134 -144 -188 -137 0
-96 -175 -98 -189 -190 0
-109 -175 -111 -189 -190 0
-121 -175 -123 -189 -190 0
-132 -175 -134 -189 -190 0
-142 -175 -144 -189 -190 0
-109 -98 -111 -189 -101 0
-121 -98 -123 -189 -101 0
-132 -98 -134 -189 -101 0
-142 -98 -144 -189 -101 0
-121 -111 -123 -189 -114 0
-132 -111 -134 -189 -114 0
-142 -111 -144 -189 -114 0
-132 -123 -134 -189 -126 0
-142 -123 -144 -189 -126 0
-142 -134 -144 -189 -137 0
-109 -98 -111 -190 -101 0
-121 -98 -123 -190 -101 0
-132 -98 -134 -190 -101 0
-142 -98 -144 -190 -101 0
-121 -111 -123 -190 -114 0
-132 -111 -134 -190 -114 0
-142 -111 -144 -190 -114 0
-132 -123 -134 -190 -126 0
-142 -123 -144 -190 -126 0
-142 -134 -144 -190 -137 0
-121 -111 -123 -101 -114 0
-132 -111 -134 -101 -114 0
-142 -111 -144 -101 -114 0
-132 -123 -134 -101 -126 0
-142 -123 -144 -101 -126 0
-142 -134 -144 -101 -137 0
-132 -123 -134 -114 -126 0
-142 -123 -144 -114 -126 0
-142 -134 -144 -114 -137 0
-142 -134 -144 -126 -137 0
-160 -174 -175 -191 -192 0
-96 -174 -98 -191 -192 0
-109 -174 -111 -191 -192 0
-121 -174 -123 -191 -192 0
-132 -174 -134 -191 -192 0
-142 -174 -144 -191 -192 0
-96 -175 -98 -191 -193 0
-109 -175 -111 -191 -193 0
-121 -175 -123 -191 -193 0
-132 -175 -134 -191 -193 0
-142 -175 -144 -191 -193 0
-109 -98 -111 -191 -102 0
-121 -98 -123 -191 -102 0
-132 -98 -134 -191 -102 0
-142 -98 -144 -191 -102 0
-121 -111 -123 -191 -115 0
-132 -111 -134 -191 -115 0
-142 -111 -144 -191 -115 0
-132 -123 -134 -191 -127 0
-142 -123 -144 -191 -127 0
-142 -134 -144 -191 -138 0
-96 -175 -98 -192 -193 0
-109 -175 -111 -192 -193 0
-121 -175 -123 -192 -193 0
-132 -175 -134 -192 -193 0
-142 -175 -144 -192 -193 0
-109 -98 -111 -192 -102 0
-121 -98 -123 -192 -102 0
-132 -98 -134 -192 -102 0
-142 -98 -144 -192 -102 0
-121 -111 -123 -192 -115 0
-132 -111 -134 -192 -115 0
-142 -111 -144 -192 -115 0
-132 -123 -134 -192 -127 0
-142 -123 -144 -192 -127 0
-142 -134 -144 -192 -138 0
-109 -98 -111 -193 -102 0
-121 -98 -123 -193 -102 0
-132 -98 -134 -193 -102 0
-142 -98 -144 -193 -102 0
-121 -111 -123 -193 -115 0
-132 -111 -134 -193 -115 0
-142 -111 -144 -193 -115 0
-132 -123 -134 -193 -127 0
-142 -123 -144 -193 -127 0
-142 -134 -144 -193 -138 0
-121 -111 -123 -102 -115 0
-132 -111 -134 -102 -115 0
-142 -111 -144 -102 -115 0
-132 -123 -134 -102 -127 0
-142 -123 -144 -102 -127 0
-142 -134 -144 -102 -138 0
-132 -123 -134 -115 -127 0
-142 -123 -144 -115 -127 0
-142 -134 -144 -115 -138 0
-142 -134 -144 -127 -138 0
-96 -175 -98 -194 -195 0
-109 -175 -111 -194 -195 0
-121 -175 -123 -194 -195 0
-132 -175 -134 -194 -195 0
-142 -175 -144 -194 -195 0
-109 -98 -111 -194 -103 0
-121 -98 -123 -194 -103 0
-132 -98 -134 -194 -103 0
-142 -98 -144 -194 -103 0
-121 -111 -123 -194 -116 0
-132 -111 -134 -194 -116 0
-142 -111 -144 -194 -116 0
-132 -123 -134 -194 -128 0
-142 -123 -144 -194 -128 0
-142 -134 -144 -194 -139 0
-109 -98 -111 -195 -103 0
-121 -98 -123 -195 -103 0
-132 -98 -134 -195 -103 0
-142 -98 -144 -195 -103 0
-121 -111 -123 -195 -116 0
-132 -111 -134 -195 -116 0
-142 -111 -144 -195 -116 0
-132 -123 -134 -195 -128 0
-142 -123 -144 -195 -128 0
-142 -134 -144 -195 -139 0
-121 -111 -123 -103 -116 0
-132 -111 -134 -103 -116 0
-142 -111 -144 -103 -116 0
-132 -123 -134 -103 -128 0
-142 -123 -144 -103 -128 0
-142 -134 -144 -103 -139 0
-132 -123 -134 -116 -128 0
-142 -123 -144 -116 -128 0
-142 -134 -144 -116 -139 0
-142 -134 -144 -128 -139 0
-109 -98 -111 -196 -104 0
-121 -98 -123 -196 -104 0
-132 -98 -134 -196 -104 0
-142 -98 -144 -196 -104 0
-121 -111 -123 -196 -117 0
-132 -111 -134 -196 -117 0
-142 -111 -144 -196 -117 0
-132 -123 -134 -196 -129 0
-142 -123 -144 -196 -129 0
-142 -134 -144 -196 -140 0
-121 -111 -123 -104 -117 0
-132 -111 -134 -104 -117 0
-142 -111 -144 -104 -117 0
-132 -123 -134 -104 -129 0
-142 -123 -144 -104 -129 0
-142 -134 -144 -104 -140 0
-132 -123 -134 -117 -129 0
-142 -123 -144 -117 -129 0
-142 -134 -144 -117 -140 0
-142 -134 -144 -129 -140 0
-121 -111 -123 -105 -118 0
-132 -111 -134 -105 -118 0
-142 -111 -144 -105 -118 0
-132 -123 -134 -105 -130 0
-142 -123 -144 -105 -130 0
-142 -134 -144 -105 -141 0
-132 -123 -134 -118 -130 0
-142 -123 -144 -118 -130 0
-142 -134 -144 -118 -141 0
-142 -134 -144 -130 -141 0
-132 -123 -134 -92 -93 0
-142 -123 -144 -92 -93 0
-142 -134 -144 -92 -94 0
-142 -134 -144 -93 -94 0
-142 -134 -144 -106 -107 0
-158 -178 -179 -182 -183 0
-159 -178 -180 -182 -183 0
-160 -178 -181 -182 -183 0
-96 -178 -99 -182 -183 0
-109 -178 -112 -182 -183 0
-121 -178 -124 -182 -183 0
-132 -178 -135 -182 -183 0
-142 -178 -145 -182 -183 0
-159 -179 -180 -182 -184 0
-160 -179 -181 -182 -184 0
-96 -179 -99 -182 -184 0
-109 -179 -112 -182 -184 0
-121 -179 -124 -182 -184 0
-132 -179 -135 -182 -184 0
-142 -179 -145 -182 -184 0
-160 -180 -181 -182 -185 0
-96 -180 -99 -182 -185 0
-109 -180 -112 -182 -185 0
-121 -180 -124 -182 -185 0
-132 -180 -135 -182 -185 0
-142 -180 -145 -182 -185 0
-96 -181 -99 -182 -186 0
-109 -181 -112 -182 -186 0
-121 -181 -124 -182 -186 0
-132 -181 -135 -182 -186 0
-142 -181 -145 -182 -186 0
-109 -99 -112 -182 -100 0
-121 -99 -124 -182 -100 0
-132 -99 -135 -182 -100 0
-142 -99 -145 -182 -100 0
-121 -112 -124 -182 -113 0
-132 -112 -135 -182 -113 0
-142 -112 -145 -182 -113 0
-132 -124 -135 -182 -125 0
-142 -124 -145 -182 -125 0
-142 -135 -145 -182 -136 0
-159 -179 -180 -183 -184 0
-160 -179 -181 -183 -184 0
-96 -179 -99 -183 -184 0
-109 -179 -112 -183 -184 0
-121 -179 -124 -183 -184 0
-132 -179 -135 -183 -184 0
-142 -179 -145 -183 -184 0
-160 -180 -181 -183 -185 0
-96 -180 -99 -183 -185 0
-109 -180 -112 -183 -185 0
-121 -180 -124 -183 -185 0
-132 -180 -135 -183 -185 0
-142 -180 -145 -183 -185 0
-96 -181 -99 -183 -186 0
-109 -181 -112 -183 -186 0
-121 -181 -124 -183 -186 0
-132 -181 -135 -183 -186 0
-142 -181 -145 -183 -186 0
-109 -99 -112 -183 -100 0
-121 -99 -124 -183 -100 0
-132 -99 -135 -183 -100 0
-142 -99 -145 -183 -100 0
-121 -112 -124 -183 -113 0
-132 -112 -135 -183 -113 0
-142 -112 -145 -183 -113 0
-132 -124 -135 -183 -125 0
-142 -124 -145 -183 -125 0
-142 -135 -145 -183 -136 0
-160 -180 -181 -184 -185 0
-96 -180 -99 -184 -185 0
-109 -180 -112 -184 -185 0
-121 -180 -124 -184 -185 0
-132 -180 -135 -184 -185 0
-142 -180 -145 -184 -185 0
-96 -181 -99 -184 -186 0
-109 -181 -112 -184 -186 0
-121 -181 -124 -184 -186 0
-132 -181 -135 -184 -186 0
-142 -181 -145 -184 -186 0
-109 -99 -112 -184 -100 0
-121 -99 -124 -184 -100 0
-132 -99 -135 -184 -100 0
-142 -99 -145 -184 -100 0
-121 -112 -124 -184 -113 0
-132 -112 -135 -184 -113 0
-142 -112 -145 -184 -113 0
-132 -124 -135 -184 -125 0
-142 -124 -145 -184 -125 0
-142 -135 -145 -184 -136 0
-96 -181 -99 -185 -186 0
-109 -181 -112 -185 -186 0
-121 -181 -124 -185 -186 0
-132 -181 -135 -185 -186 0
-142 -181 -145 -185 -186 0
-109 -99 -112 -185 -100 0
-121 -99 -124 -185 -100 0
-132 -99 -135 -185 -100 0
-142 -99 -145 -185 -100 0
-121 -112 -124 -185 -113 0
-132 -112 -135 -185 -113 0
-142 -112 -145 -185 -113 0
-132 -124 -135 -185 -125 0
-142 -124 -145 -185 -125 0
-142 -135 -145 -185 -136 0
-109 -99 -112 -186 -100 0
-121 -99 -124 -186 -100 0
-132 -99 -135 -186 -100 0
-142 -99 -145 -186 -100 0
-121 -112 -124 -186 -113 0
-132 -112 -135 -186 -113 0
-142 -112 -145 -186 -113 0
-132 -124 -135 -186 -125 0
-142 -124 -145 -186 -125 0
-142 -135 -145 -186 -136 0
-121 -112 -124 -100 -113 0
-132 -112 -135 -100 -113 0
-142 -112 -145 -100 -113 0
-132 -124 -135 -100 -125 0
-142 -124 -145 -100 -125 0
-142 -135 -145 -100 -136 0
-132 -124 -135 -113 -125 0
-142 -124 -145 -113 -125 0
-142 -135 -145 -113 -136 0
-142 -135 -145 -125 -136 0
-159 -179 -180 -187 -188 0
-160 -179 -181 -187 -188 0
-96 -179 -99 -187 -188 0
-109 -179 -112 -187 -188 0
-121 -179 -124 -187 -188 0
-132 -179 -135 -187 -188 0
-142 -179 -145 -187 -188 0
-160 -180 -181 -187 -189 0
-96 -180 -99 -187 -189 0
-109 -180 -112 -187 -189 0
-121 -180 -124 -187 -189 0
-132 -180 -135 -187 -189 0
-142 -180 -145 -187 -189 0
-96 -181 -99 -187 -190 0
-109 -181 -112 -187 -190 0
-121 -181 -124 -187 -190 0
-132 -181 -135 -187 -190 0
-142 -181 -145 -187 -190 0
-109 -99 -112 -187 -101 0
-121 -99 -124 -187 -101 0
-132 -99 -135 -187 -101 0
-142 -99 -145 -187 -101 0
-121 -112 -124 -187 -114 0
-132 -112 -135 -187 -114 0
-142 -112 -145 -187 -114 0
-132 -124 -135 -187 -126 0
-142 -124 -145 -187 -126 0
-142 -135 -145 -187 -137 0
-160 -180 -181 -188 -189 0
-96 -180 -99 -188 -189 0
-109 -180 -112 -188 -189 0
-121 -180 -124 -188 -189 0
-132 -180 -135 -188 -189 0
-142 -180 -145 -188 -189 0
-96 -181 -99 -188 -190 0
-109 -181 -112 -188 -190 0
-121 -181 -124 -188 -190 0
-132 -181 -135 -188 -190 0
-142 -181 -145 -188 -190 0
-109 -99 -112 -188 -101 0
-121 -99 -124 -188 -101 0
-132 -99 -135 -188 -101 0
-142 -99 -145 -188 -101 0
-121 -112 -124 -188 -114 0
-132 -112 -135 -188 -114 0
-142 -112 -145 -188 -114 0
-132 -124 -135 -188 -126 0
-142 -124 -145 -188 -126 0
-142 -135 -145 -188 -137 0
-96 -181 -99 -189 -190 0
-109 -181 -112 -189 -190 0
-121 -181 -124 -189 -190 0
-132 -181 -135 -189 -190 0
-142 -181 -145 -189 -190 0
-109 -99 -112 -189 -101 0
-121 -99 -124 -189 -101 0
-132 -99 -135 -189 -101 0
-142 -99 -145 -189 -101 0
-121 -112 -124 -189 -114 0
-132 -112 -135 -189 -114 0
-142 -112 -145 -189 -114 0
-132 -124 -135 -189 -126 0
-142 -124 -145 -189 -126 0
-142 -135 -145 -189 -137 0
-109 -99 -112 -190 -101 0
-121 -99 -124 -190 -101 0
-132 -99 -135 -190 -101 0
-142 -99 -145 -190 -101 0
-121 -112 -124 -190 -114 0
-132 -112 -135 -190 -114 0
-142 -112 -145 -190 -114 0
-132 -124 -135 -190 -126 0
-142 -124 -145 -190 -126 0
-142 -135 -145 -190 -137 0
-121 -112 -124 -101 -114 0
-132 -112 -135 -101 -114 0
-142 -112 -145 -101 -114 0
-132 -124 -135 -101 -126 0
-142 -124 -145 -101 -126 0
-142 -135 -145 -101 -137 0
-132 -124 -135 -114 -126 0
-142 -124 -145 -114 -126 0
-142 -135 -145 -114 -137 0
-142 -135 -145 -126 -137 0
-160 -180 -181 -191 -192 0
-96 -180 -99 -191 -192 0
-109 -180 -112 -191 -192 0
-121 -180 -124 -191 -192 0
-132 -180 -135 -191 -192 0
-142 -180 -145 -191 -192 0
-96 -181 -99 -191 -193 0
-109 -181 -112 -191 -193 0
-121 -181 -124 -191 -193 0
-132 -181 -135 -191 -193 0
-142 -181 -145 -191 -193 0
-109 -99 -112 -191 -102 0
-121 -99 -124 -191 -102 0
-132 -99 -135 -191 -102 0
-142 -99 -145 -191 -102 0
-121 -112 -124 -191 -115 0
-132 -112 -135 -191 -115 0
-142 -112 -145 -191 -115 0
-132 -124 -135 -191 -127 0
-142 -124 -145 -191 -127 0
-142 -135 -145 -191 -138 0
-96 -181 -99 -192 -193 0
-109 -181 -112 -192 -193 0
-121 -181 -124 -192 -193 0
-132 -181 -135 -192 -193 0
-142 -181 -145 -192 -193 0
-109 -99 -112 -192 -102 0
-121 -99 -124 -192 -102 0
-132 -99 -135 -192 -102 0
-142 -99 -145 -192 -102 0
-121 -112 -124 -192 -115 0
-132 -112 -135 -192 -115 0
-142 -112 -145 -192 -115 0
-132 -124 -135 -192 -127 0
-142 -124 -145 -192 -127 0
-142 -135 -145 -192 -138 0
-109 -99 -112 -193 -102 0
-121 -99 -124 -193 -102 0
-132 -99 -135 -193 -102 0
-142 -99 -145 -193 -102 0
-121 -112 -124 -193 -115 0
-132 -112 -135 -193 -115 0
-142 -112 -145 -193 -115 0
-132 -124 -135 -193 -127 0
-142 -124 -145 -193 -127 0
-142 -135 -145 -193 -138 0
-121 -112 -124 -102 -115 0
-132 -112 -135 -102 -115 0
-142 -112 -145 -102 -115 0
-132 -124 -135 -102 -127 0
-142 -124 -145 -102 -127 0
-142 -135 -145 -102 -138 0
-132 -124 -135 -115 -127 0
-142 -124 -145 -115 -127 0
-142 -135 -145 -115 -138 0
-142 -135 -145 -127 -138 0
-96 -181 -99 -194 -195 0
-109 -181 -112 -194 -195 0
-121 -181 -124 -194 -195 0
-132 -181 -135 -194 -195 0
-142 -181 -145 -194 -195 0
-109 -99 -112 -194 -103 0
-121 -99 -124 -194 -103 0
-132 -99 -135 -194 -103 0
-142 -99 -145 -194 -103 0
-121 -112 -124 -194 -116 0
-132 -112 -135 -194 -116 0
-142 -112 -145 -194 -116 0
-132 -124 -135 -194 -128 0
-142 -124 -145 -194 -128 0
-142 -135 -145 -194 -139 0
-109 -99 -112 -195 -103 0
-121 -99 -124 -195 -103 0
-132 -99 -135 -195 -103 0
-142 -99 -145 -195 -103 0
-121 -112 -124 -195 -116 0
-132 -112 -135 -195 -116 0
-142 -112 -145 -195 -116 0
-132 -124 -135 -195 -128 0
-142 -124 -145 -195 -128 0
-142 -135 -145 -195 -139 0
-121 -112 -124 -103 -116 0
-132 -112 -135 -103 -116 0
-142 -112 -145 -103 -116 0
-132 -124 -135 -103 -128 0
-142 -124 -145 -103 -128 0
-142 -135 -145 -103 -139 0
-132 -124 -135 -116 -128 0
-142 -124 -145 -116 -128 0
-142 -135 -145 -116 -139 0
-142 -135 -145 -128 -139 0
-109 -99 -112 -196 -104 0
-121 -99 -124 -196 -104 0
-132 -99 -135 -196 -104 0
-142 -99 -145 -196 -104 0
-121 -112 -124 -196 -117 0
-132 -112 -135 -196 -117 0
-142 -112 -145 -196 -117 0
-132 -124 -135 -196 -129 0
-142 -124 -145 -196 -129 0
-142 -135 -145 -196 -140 0
-121 -112 -124 -104 -117 0
-132 -112 -135 -104 -117 0
-142 -112 -145 -104 -117 0
-132 -124 -135 -104 -129 0
-142 -124 -145 -104 -129 0
-142 -135 -145 -104 -140 0
-132 -124 -135 -117 -129 0
-142 -124 -145 -117 -129 0
-142 -135 -145 -117 -140 0
-142 -135 -145 -129 -140 0
-121 -112 -124 -105 -118 0
-132 -112 -135 -105 -118 0
-142 -112 -145 -105 -118 0
-132 -124 -135 -105 -130 0
-142 -124 -145 -105 -130 0
-142 -135 -145 -105 -141 0
-132 -124 -135 -118 -130 0
-142 -124 -145 -118 -130 0
-142 -135 -145 -118 -141 0
-142 -135 -145 -130 -141 0
-132 -124 -135 -92 -93 0
-142 -124 -145 -92 -93 0
-142 -135 -145 -92 -94 0
-142 -135 -145 -93 -94 0
-142 -135 -145 -106 -107 0
-159 -184 -185 -187 -188 0
-160 -184 -186 -187 -188 0
-96 -184 -100 -187 -188 0
-109 -184 -113 -187 -188 0
-121 -184 -125 -187 -188 0
-132 -184 -136 -187 -188 0
-142 -184 -146 -187 -188 0
-160 -185 -186 -187 -189 0
-96 -185 -100 -187 -189 0
-109 -185 -113 -187 -189 0
-121 -185 -125 -187 -189 0
-132 -185 -136 -187 -189 0
-142 -185 -146 -187 -189 0
-96 -186 -100 -187 -190 0
-109 -186 -113 -187 -190 0
-121 -186 -125 -187 -190 0
-132 -186 -136 -187 -190 0
-142 -186 -146 -187 -190 0
-109 -100 -113 -187 -101 0
-121 -100 -125 -187 -101 0
-132 -100 -136 -187 -101 0
-142 -100 -146 -187 -101 0
-121 -113 -125 -187 -114 0
-132 -113 -136 -187 -114 0
-142 -113 -146 -187 -114 0
-132 -125 -136 -187 -126 0
-142 -125 -146 -187 -126 0
-142 -136 -146 -187 -137 0
-160 -185 -186 -188 -189 0
-96 -185 -100 -188 -189 0
-109 -185 -113 -188 -189 0
-121 -185 -125 -188 -189 0
-132 -185 -136 -188 -189 0
-142 -185 -146 -188 -189 0
-96 -186 -100 -188 -190 0
-109 -186 -113 -188 -190 0
-121 -186 -125 -188 -190 0
-132 -186 -136 -188 -190 0
-142 -186 -146 -188 -190 0
-109 -100 -113 -188 -101 0
-121 -100 -125 -188 -101 0
-132 -100 -136 -188 -101 0
-142 -100 -146 -188 -101 0
-121 -113 -125 -188 -114 0
-132 -113 -136 -188 -114 0
-142 -113 -146 -188 -114 0
-132 -125 -136 -188 -126 0
-142 -125 -146 -188 -126 0
-142 -136 -146 -188 -137 0
-96 -186 -100 -189 -190 0
-109 -186 -113 -189 -190 0
-121 -186 -125 -189 -190 0
-132 -186 -136 -189 -190 0
-142 -186 -146 -189 -190 0
-109 -100 -113 -189 -101 0
-121 -100 -125 -189 -101 0
-132 -100 -136 -189 -101 0
-142 -100 -146 -189 -101 0
-121 -113 -125 -189 -114 0
-132 -113 -136 -189 -114 0
-142 -113 -146 -189 -114 0
-132 -125 -136 -189 -126 0
-142 -125 -146 -189 -126 0
-142 -136 -146 -189 -137 0
-109 -100 -113 -190 -101 0
-121 -100 -125 -190 -101 0
-132 -100 -136 -190 -101 0
-142 -100 -146 -190 -101 0
-121 -113 -125 -190 -114 0
-132 -113 -136 -190 -114 0
-142 -113 -146 -190 -114 0
-132 -125 -136 -190 -126 0
-142 -125 -146 -190 -126 0
-142 -136 -146 -190 -137 0
-121 -113 -125 -101 -114 0
-132 -113 -136 -101 -114 0
-142 -113 -146 -101 -114 0
-132 -125 -136 -101 -126 0
-142 -125 -146 -101 -126 0
-142 -136 -146 -101 -137 0
-132 -125 -136 -114 -126 0
-142 -125 -146 -114 -126 0
-142 -136 -146 -114 -137 0
-142 -136 -146 -126 -137 0
-160 -185 -186 -191 -192 0
-96 -185 -100 -191 -192 0
-109 -185 -113 -191 -192 0
-121 -185 -125 -191 -192 0
-132 -185 -136 -191 -192 0
-142 -185 -146 -191 -192 0
-96 -186 -100 -191 -193 0
-109 -186 -113 -191 -193 0
-121 -186 -125 -191 -193 0
-132 -186 -136 -191 -193 0
-142 -186 -146 -191 -193 0
-109 -100 -113 -191 -102 0
-121 -100 -125 -191 -102 0
-132 -100 -136 -191 -102 0
-142 -100 -146 -191 -102 0
-121 -113 -125 -191 -115 0
-132 -113 -136 -191 -115 0
-142 -113 -146 -191 -115 0
-132 -125 -136 -191 -127 0
-142 -125 -146 -191 -127 0
-142 -136 -146 -191 -138 0
-96 -186 -100 -192 -193 0
-109 -186 -113 -192 -193 0
-121 -186 -125 -192 -193 0
-132 -186 -136 -192 -193 0
-142 -186 -146 -192 -193 0
-109 -100 -113 -192 -102 0
-121 -100 -125 -192 -102 0
-132 -100 -136 -192 -102 0
-142 -100 -146 -192 -102 0
-121 -113 -125 -192 -115 0
-132 -113 -136 -192 -115 0
-142 -113 -146 -192 -115 0
-132 -125 -136 -192 -127 0
-142 -125 -146 -192 -127 0
-142 -136 -146 -192 -138 0
-109 -100 -113 -193 -102 0
-121 -100 -125 -193 -102 0
-132 -100 -136 -193 -102 0
-142 -100 -146 -193 -102 0
-121 -113 -125 -193 -115 0
-132 -113 -136 -193 -115 0
-142 -113 -146 -193 -115 0
-132 -125 -136 -193 -127 0
-142 -125 -146 -193 -127 0
-142 -136 -146 -193 -138 0
-121 -113 -125 -102 -115 0
-132 -113 -136 -102 -115 0
-142 -113 -146 -102 -115 0
-132 -125 -136 -102 -127 0
-142 -125 -146 -102 -127 0
-142 -136 -146 -102 -138 0
-132 -125 -136 -115 -127 0
-142 -125 -146 -115 -127 0
-142 -136 -146 -115 -138 0
-142 -136 -146 -127 -138 0
-96 -186 -100 -194 -195 0
-109 -186 -113 -194 -195 0
-121 -186 -125 -194 -195 0
-132 -186 -136 -194 -195 0
-142 -186 -146 -194 -195 0
-109 -100 -113 -194 -103 0
-121 -100 -125 -194 -103 0
-132 -100 -136 -194 -103 0
-142 -100 -146 -194 -103 0
-121 -113 -125 -194 -116 0
-132 -113 -136 -194 -116 0
-142 -113 -146 -194 -116 0
-132 -125 -136 -194 -128 0
-142 -125 -146 -194 -128 0
-142 -136 -146 -194 -139 0
-109 -100 -113 -195 -103 0
-121 -100 -125 -195 -103 0
-132 -100 -136 -195 -103 0
-142 -100 -146 -195 -103 0
-121 -113 -125 -195 -116 0
-132 -113 -136 -195 -116 0
-142 -113 -146 -195 -116 0
-132 -125 -136 -195 -128 0
-142 -125 -146 -195 -128 0
-142 -136 -146 -195 -139 0
-121 -113 -125 -103 -116 0
-132 -113 -136 -103 -116 0
-142 -113 -146 -103 -116 0
-132 -125 -136 -103 -128 0
-142 -125 -146 -103 -128 0
-142 -136 -146 -103 -139 0
-132 -125 -136 -116 -128 0
-142 -125 -146 -116 -128 0
-142 -136 -146 -116 -139 0
-142 -136 -146 -128 -139 0
-109 -100 -113 -196 -104 0
-121 -100 -125 -196 -104 0
-132 -100 -136 -196 -104 0
-142 -100 -146 -196 -104 0
-121 -113 -125 -196 -117 0
-132 -113 -136 -196 -117 0
-142 -113 -146 -196 -117 0
-132 -125 -136 -196 -129 0
-142 -125 -146 -196 -129 0
-142 -136 -146 -196 -140 0
-121 -113 -125 -104 -117 0
-132 -113 -136 -104 -117 0
-142 -113 -146 -104 -117 0
-132 -125 -136 -104 -129 0
-142 -125 -146 -104 -129 0
-142 -136 -146 -104 -140 0
-132 -125 -136 -117 -129 0
-142 -125 -146 -117 -129 0
-142 -136 -146 -117 -140 0
-142 -136 -146 -129 -140 0
-121 -113 -125 -105 -118 0
-132 -113 -136 -105 -118 0
-142 -113 -146 -105 -118 0
-132 -125 -136 -105 -130 0
-142 -125 -146 -105 -130 0
-142 -136 -146 -105 -141 0
-132 -125 -136 -118 -130 0
-142 -125 -146 -118 -130 0
-142 -136 -146 -118 -141 0
-142 -136 -146 -130 -141 0
-132 -125 -136 -92 -93 0
-142 -125 -146 -92 -93 0
-142 -136 -146 -92 -94 0
-142 -136 -146 -93 -94 0
-142 -136 -146 -106 -107 0
-160 -189 -190 -191 -192 0
-96 -189 -101 -191 -192 0
-109 -189 -114 -191 -192 0
-121 -189 -126 -191 -192 0
-132 -189 -137 -191 -192 0
-142 -189 -147 -191 -192 0
-96 -190 -101 -191 -193 0
-109 -190 -114 -191 -193 0
-121 -190 -126 -191 -193 0
-132 -190 -137 -191 -193 0
-142 -190 -147 -191 -193 0
-109 -101 -114 -191 -102 0
-121 -101 -126 -191 -102 0
-132 -101 -137 -191 -102 0
-142 -101 -147 -191 -102 0
-121 -114 -126 -191 -115 0
-132 -114 -137 -191 -115 0
-142 -114 -147 -191 -115 0
-132 -126 -137 -191 -127 0
-142 -126 -147 -191 -127 0
-142 -137 -147 -191 -138 0
-96 -190 -101 -192 -193 0
-109 -190 -114 -192 -193 0
-121 -190 -126 -192 -193 0
-132 -190 -137 -192 -193 0
-142 -190 -147 -192 -193 0
-109 -101 -114 -192 -102 0
-121 -101 -126 -192 -102 0
-132 -101 -137 -192 -102 0
-142 -101 -147 -192 -102 0
-121 -114 -126 -192 -115 0
-132 -114 -137 -192 -115 0
-142 -114 -147 -192 -115 0
-132 -126 -137 -192 -127 0
-142 -126 -147 -192 -127 0
-142 -137 -147 -192 -138 0
-109 -101 -114 -193 -102 0
-121 -101 -126 -193 -102 0
-132 -101 -137 -193 -102 0
-142 -101 -147 -193 -102 0
-121 -114 -126 -193 -115 0
-132 -114 -137 -193 -115 0
-142 -114 -147 -193 -115 0
-132 -126 -137 -193 -127 0
-142 -126 -147 -193 -127 0
-142 -137 -147 -193 -138 0
-121 -114 -126 -102 -115 0
-132 -114 -137 -102 -115 0
-142 -114 -147 -102 -115 0
-132 -126 -137 -102 -127 0
-142 -126 -147 -102 -127 0
-142 -137 -147 -102 -138 0
-132 -126 -137 -115 -127 0
-142 -126 -147 -115 -127 0
-142 -137 -147 -115 -138 0
-142 -137 -147 -127 -138 0
-96 -190 -101 -194 -195 0
-109 -190 -114 -194 -195 0
-121 -190 -126 -194 -195 0
-132 -190 -137 -194 -195 0
-142 -190 -147 -194 -195 0
-109 -101 -114 -194 -103 0
-121 -101 -126 -194 -103 0
-132 -101 -137 -194 -103 0
-142 -101 -147 -194 -103 0
-121 -114 -126 -194 -116 0
-132 -114 -137 -194 -116 0
-142 -114 -147 -194 -116 0
-132 -126 -137 -194 -128 0
-142 -126 -147 -194 -128 0
-142 -137 -147 -194 -139 0
-109 -101 -114 -195 -103 0
-121 -101 -126 -195 -103 0
-132 -101 -137 -195 -103 0
-142 -101 -147 -195 -103 0
-121 -114 -126 -195 -116 0
-132 -114 -137 -195 -116 0
-142 -114 -147 -195 -116 0
-132 -126 -137 -195 -128 0
-142 -126 -147 -195 -128 0
-142 -137 -147 -195 -139 0
-121 -114 -126 -103 -116 0
-132 -114 -137 -103 -116 0
-142 -114 -147 -103 -116 0
-132 -126 -137 -103 -128 0
-142 -126 -147 -103 -128 0
-142 -137 -147 -103 -139 0
-132 -126 -137 -116 -128 0
-142 -126 -147 -116 -128 0
-142 -137 -147 -116 -139 0
-142 -137 -147 -128 -139 0
-109 -101 -114 -196 -104 0
-121 -101 -126 -196 -104 0
-132 -101 -137 -196 -104 0
-142 -101 -147 -196 -104 0
-121 -114 -126 -196 -117 0
-132 -114 -137 -196 -117 0
-142 -114 -147 -196 -117 0
-132 -126 -137 -196 -129 0
-142 -126 -147 -196 -129 0
-142 -137 -147 -196 -140 0
-121 -114 -126 -104 -117 0
-132 -114 -137 -104 -117 0
-142 -114 -147 -104 -117 0
-132 -126 -137 -104 -129 0
-142 -126 -147 -104 -129 0
-142 -137 -147 -104 -140 0
-132 -126 -137 -117 -129 0
-142 -126 -147 -117 -129 0
-142 -137 -147 -117 -140 0
-142 -137 -147 -129 -140 0
-121 -114 -126 -105 -118 0
-132 -114 -137 -105 -118 0
-142 -114 -147 -105 -118 0
-132 -126 -137 -105 -130 0
-142 -126 -147 -105 -130 0
-142 -137 -147 -105 -141 0
-132 -126 -137 -118 -130 0
-142 -126 -147 -118 -130 0
-142 -137 -147 -118 -141 0
-142 -137 -147 -130 -141 0
-132 -126 -137 -92 -93 0
-142 -126 -147 -92 -93 0
-142 -137 -147 -92 -94 0
-142 -137 -147 -93 -94 0
-142 -137 -147 -106 -107 0
-96 -193 -102 -194 -195 0
-109 -193 -115 -194 -195 0
-121 -193 -127 -194 -195 0
-132 -193 -138 -194 -195 0
-142 -193 -148 -194 -195 0
-109 -102 -115 -194 -103 0
-121 -102 -127 -194 -103 0
-132 -102 -138 -194 -103 0
-142 -102 -148 -194 -103 0
-121 -115 -127 -194 -116 0
-132 -115 -138 -194 -116 0
-142 -115 -148 -194 -116 0
-132 -127 -138 -194 -128 0
-142 -127 -148 -194 -128 0
-142 -138 -148 -194 -139 0
-109 -102 -115 -195 -103 0
-121 -102 -127 -195 -103 0
-132 -102 -138 -195 -103 0
-142 -102 -148 -195 -103 0
-121 -115 -127 -195 -116 0
-132 -115 -138 -195 -116 0
-142 -115 -148 -195 -116 0
-132 -127 -138 -195 -128 0
-142 -127 -148 -195 -128 0
-142 -138 -148 -195 -139 0
-121 -115 -127 -103 -116 0
-132 -115 -138 -103 -116 0
-142 -115 -148 -103 -116 0
-132 -127 -138 -103 -128 0
-142 -127 -148 -103 -128 0
-142 -138 -148 -103 -139 0
-132 -127 -138 -116 -128 0
-142 -127 -148 -116 -128 0
-142 -138 -148 -116 -139 0
-142 -138 -148 -128 -139 0
-109 -102 -115 -196 -104 0
-121 -102 -127 -196 -104 0
-132 -102 -138 -196 -104 0
-142 -102 -148 -196 -104 0
-121 -115 -127 -196 -117 0
-132 -115 -138 -196 -117 0
-142 -115 -148 -196 -117 0
-132 -127 -138 -196 -129 0
-142 -127 -148 -196 -129 0
-142 -138 -148 -196 -140 0
-121 -115 -127 -104 -117 0
-132 -115 -138 -104 -117 0
-142 -115 -148 -104 -117 0
-132 -127 -138 -104 -129 0
-142 -127 -148 -104 -129 0
-142 -138 -148 -104 -140 0
-132 -127 -138 -117 -129 0
-142 -127 -148 -117 -129 0
-142 -138 -148 -117 -140 0
-142 -138 -148 -129 -140 0
-121 -115 -127 -105 -118 0
-132 -115 -138 -105 -118 0
-142 -115 -148 -105 -118 0
-132 -127 -138 -105 -130 0
-142 -127 -148 -105 -130 0
-142 -138 -148 -105 -141 0
-132 -127 -138 -118 -130 0
-142 -127 -148 -118 -130 0
-142 -138 -148 -118 -141 0
-142 -138 -148 -130 -141 0
-132 -127 -138 -92 -93 0
-142 -127 -148 -92 -93 0
-142 -138 -148 -92 -94 0
-142 -138 -148 -93 -94 0
-142 -138 -148 -106 -107 0
-109 -103 -116 -196 -104 0
-121 -103 -128 -196 -104 0
-132 -103 -139 -196 -104 0
-142 -103 -149 -196 -104 0
-121 -116 -128 -196 -117 0
-132 -116 -139 -196 -117 0
-142 -116 -149 -196 -117 0
-132 -128 -139 -196 -129 0
-142 -128 -149 -196 -129 0
-142 -139 -149 -196 -140 0
-121 -116 -128 -104 -117 0
-132 -116 -139 -104 -117 0
-142 -116 -149 -104 -117 0
-132 -128 -139 -104 -129 0
-142 -128 -149 -104 -129 0
-142 -139 -149 -104 -140 0
-132 -128 -139 -117 -129 0
-142 -128 -149 -117 -129 0
-142 -139 -149 -117 -140 0
-142 -139 -149 -129 -140 0
-121 -116 -128 -105 -118 0
-132 -116 -139 -105 -118 0
-142 -116 -149 -105 -118 0
-132 -128 -139 -105 -130 0
-142 -128 -149 -105 -130 0
-142 -139 -149 -105 -141 0
-132 -128 -139 -118 -130 0
-142 -128 -149 -118 -130 0
-142 -139 -149 -118 -141 0
-142 -139 -149 -130 -141 0
-132 -128 -139 -92 -93 0
-142 -128 -149 -92 -93 0
-142 -139 -149 -92 -94 0
-142 -139 -149 -93 -94 0
-142 -139 -149 -106 -107 0
-121 -117 -129 -105 -118 0
-132 -117 -140 -105 -118 0
-142 -117 -150 -105 -118 0
-132 -129 -140 -105 -130 0
-142 -129 -150 -105 -130 0
-142 -140 -150 -105 -141 0
-132 -129 -140 -118 -130 0
-142 -129 -150 -118 -130 0
-142 -140 -150 -118 -141 0
-142 -140 -150 -130 -141 0
-132 -129 -140 -92 -93 0
-142 -129 -150 -92 -93 0
-142 -140 -150 -92 -94 0
-142 -140 -150 -93 -94 0
-142 -140 -150 -106 -107 0
-132 -130 -141 -92 -93 0
-142 -130 -151 -92 -93 0
-142 -141 -151 -92 -94 0
-142 -141 -151 -93 -94 0
-142 -141 -151 -106 -107 0
-142 -94 -95 -106 -107 0
-165 -171 -172 -176 -177 0
-166 -171 -173 -176 -177 0
-167 -171 -174 -176 -177 0
-168 -171 -175 -176 -177 0
-97 -171 -98 -176 -177 0
-110 -171 -111 -176 -177 0
-122 -171 -123 -176 -177 0
-133 -171 -134 -176 -177 0
-143 -171 -144 -176 -177 0
-152 -171 -153 -176 -177 0
-166 -172 -173 -176 -178 0
-167 -172 -174 -176 -178 0
-168 -172 -175 -176 -178 0
-97 -172 -98 -176 -178 0
-110 -172 -111 -176 -178 0
-122 -172 -123 -176 -178 0
-133 -172 -134 -176 -178 0
-143 -172 -144 -176 -178 0
-152 -172 -153 -176 -178 0
-167 -173 -174 -176 -179 0
-168 -173 -175 -176 -179 0
-97 -173 -98 -176 -179 0
-110 -173 -111 -176 -179 0
-122 -173 -123 -176 -179 0
-133 -173 -134 -176 -179 0
-143 -173 -144 -176 -179 0
-152 -173 -153 -176 -179 0
-168 -174 -175 -176 -180 0
-97 -174 -98 -176 -180 0
-110 -174 -111 -176 -180 0
-122 -174 -123 -176 -180 0
-133 -174 -134 -176 -180 0
-143 -174 -144 -176 -180 0
-152 -174 -153 -176 -180 0
-97 -175 -98 -176 -181 0
-110 -175 -111 -176 -181 0
-122 -175 -123 -176 -181 0
-133 -175 -134 -176 -181 0
-143 -175 -144 -176 -181 0
-152 -175 -153 -176 -181 0
-110 -98 -111 -176 -99 0
-122 -98 -123 -176 -99 0
-133 -98 -134 -176 -99 0
-143 -98 -144 -176 -99 0
-152 -98 -153 -176 -99 0
-122 -111 -123 -176 -112 0
-133 -111 -134 -176 -112 0
-143 -111 -144 -176 -112 0
-152 -111 -153 -176 -112 0
-133 -123 -134 -176 -124 0
-143 -123 -144 -176 -124 0
-152 -123 -153 -176 -124 0
-143 -134 -144 -176 -135 0
-152 -134 -153 -176 -135 0
-152 -144 -153 -176 -145 0
-166 -172 -173 -177 -178 0
-167 -172 -174 -177 -178 0
-168 -172 -175 -177 -178 0
-97 -172 -98 -177 -178 0
-110 -172 -111 -177 -178 0
-122 -172 -123 -177 -178 0
-133 -172 -134 -177 -178 0
-143 -172 -144 -177 -178 0
-152 -172 -153 -177 -178 0
-167 -173 -174 -177 -179 0
-168 -173 -175 -177 -179 0
-97 -173 -98 -177 -179 0
-110 -173 -111 -177 -179 0
-122 -173 -123 -177 -179 0
-133 -173 -134 -177 -179 0
-143 -173 -144 -177 -179 0
-152 -173 -153 -177 -179 0
-168 -174 -175 -177 -180 0
-97 -174 -98 -177 -180 0
-110 -174 -111 -177 -180 0
-122 -174 -123 -177 -180 0
-133 -174 -134 -177 -180 0
-143 -174 -144 -177 -180 0
-152 -174 -153 -177 -180 0
-97 -175 -98 -177 -181 0
-110 -175 -111 -177 -181 0
-122 -175 -123 -177 -181 0
-133 -175 -134 -177 -181 0
-143 -175 -144 -177 -181 0
-152 -175 -153 -177 -181 0
-110 -98 -111 -177 -99 0
-122 -98 -123 -177 -99 0
-133 -98 -134 -177 -99 0
-143 -98 -144 -177 -99 0
-152 -98 -153 -177 -99 0
-122 -111 -123 -177 -112 0
-133 -111 -134 -177 -112 0
-143 -111 -144 -177 -112 0
-152 -111 -153 -177 -112 0
-133 -123 -134 -177 -124 0
-143 -123 -144 -177 -124 0
-152 -123 -153 -177 -124 0
-143 -134 -144 -177 -135 0
-152 -134 -153 -177 -135 0
-152 -144 -153 -177 -145 0
-167 -173 -174 -178 -179 0
-168 -173 -175 -178 -179 0
-97 -173 -98 -178 -179 0
-110 -173 -111 -178 -179 0
-122 -173 -123 -178 -179 0
-133 -173 -134 -178 -179 0
-143 -173 -144 -178 -179 0
-152 -173 -153 -178 -179 0
-168 -174 -175 -178 -180 0
-97 -174 -98 -178 -180 0
-110 -174 -111 -178 -180 0
-122 -174 -123 -178 -180 0
-133 -174 -134 -178 -180 0
-143 -174 -144 -178 -180 0
-152 -174 -153 -178 -180 0
-97 -175 -98 -178 -181 0
-110 -175 -111 -178 -181 0
-122 -175 -123 -178 -181 0
-133 -175 -134 -178 -181 0
-143 -175 -144 -178 -181 0
-152 -175 -153 -178 -181 0
-110 -98 -111 -178 -99 0
-122 -98 -123 -178 -99 0
-133 -98 -134 -178 -99 0
-143 -98 -144 -178 -99 0
-152 -98 -153 -178 -99 0
-122 -111 -123 -178 -112 0
-133 -111 -134 -178 -112 0
-143 -111 -144 -178 -112 0
-152 -111 -153 -178 -112 0
-133 -123 -134 -178 -124 0
-143 -123 -144 -178 -124 0
-152 -123 -153 -178 -124 0
-143 -134 -144 -178 -135 0
-152 -134 -153 -178 -135 0
-152 -144 -153 -178 -145 0
-168 -174 -175 -179 -180 0
-97 -174 -98 -179 -180 0
-110 -174 -111 -179 -180 0
-122 -174 -123 -179 -180 0
-133 -174 -134 -179 -180 0
-143 -174 -144 -179 -180 0
-152 -174 -153 -179 -180 0
-97 -175 -98 -179 -181 0
-110 -175 -111 -179 -181 0
-122 -175 -123 -179 -181 0
-133 -175 -134 -179 -181 0
-143 -175 -144 -179 -181 0
-152 -175 -153 -179 -181 0
-110 -98 -111 -179 -99 0
-122 -98 -123 -179 -99 0
-133 -98 -134 -179 -99 0
-143 -98 -144 -179 -99 0
-152 -98 -153 -179 -99 0
-122 -111 -123 -179 -112 0
-133 -111 -134 -179 -112 0
-143 -111 -144 -179 -112 0
-152 -111 -153 -179 -112 0
-133 -123 -134 -179 -124 0
-143 -123 -144 -179 -124 0
-152 -123 -153 -179 -124 0
-143 -134 -144 -179 -135 0
-152 -134 -153 -179 -135 0
-152 -144 -153 -179 -145 0
-97 -175 -98 -180 -181 0
-110 -175 -111 -180 -181 0
-122 -175 -123 -180 -181 0
-133 -175 -134 -180 -181 0
-143 -175 -144 -180 -181 0
-152 -175 -153 -180 -181 0
-110 -98 -111 -180 -99 0
-122 -98 -123 -180 -99 0
-133 -98 -134 -180 -99 0
-143 -98 -144 -180 -99 0
-152 -98 -153 -180 -99 0
-122 -111 -123 -180 -112 0
-133 -111 -134 -180 -112 0
-143 -111 -144 -180 -112 0
-152 -111 -153 -180 -112 0
-133 -123 -134 -180 -124 0
-143 -123 -144 -180 -124 0
-152 -123 -153 -180 -124 0
-143 -134 -144 -180 -135 0
-152 -134 -153 -180 -135 0
-152 -144 -153 -180 -145 0
-110 -98 -111 -181 -99 0
-122 -98 -123 -181 -99 0
-133 -98 -134 -181 -99 0
-143 -98 -144 -181 -99 0
-152 -98 -153 -181 -99 0
-122 -111 -123 -181 -112 0
-133 -111 -134 -181 -112 0
-143 -111 -144 -181 -112 0
-152 -111 -153 -181 -112 0
-133 -123 -134 -181 -124 0
-143 -123 -144 -181 -124 0
-152 -123 -153 -181 -124 0
-143 -134 -144 -181 -135 0
-152 -134 -153 -181 -135 0
-152 -144 -153 -181 -145 0
-122 -111 -123 -99 -112 0
-133 -111 -134 -99 -112 0
-143 -111 -144 -99 -112 0
-152 -111 -153 -99 -112 0
-133 -123 -134 -99 -124 0
-143 -123 -144 -99 -124 0
-152 -123 -153 -99 -124 0
-143 -134 -144 -99 -135 0
-152 -134 -153 -99 -135 0
-152 -144 -153 -99 -145 0
-133 -123 -134 -112 -124 0
-143 -123 -144 -112 -124 0
-152 -123 -153 -112 -124 0
-143 -134 -144 -112 -135 0
-152 -134 -153 -112 -135 0
-152 -144 -153 -112 -145 0
-143 -134 -144 -124 -135 0
-152 -134 -153 -124 -135 0
-152 -144 -153 -124 -145 0
-152 -144 -153 -135 -145 0
-166 -172 -173 -182 -183 0
-167 -172 -174 -182 -183 0
-168 -172 -175 -182 -183 0
-97 -172 -98 -182 -183 0
-110 -172 -111 -182 -183 0
-122 -172 -123 -182 -183 0
-133 -172 -134 -182 -183 0
-143 -172 -144 -182 -183 0
-152 -172 -153 -182 -183 0
-167 -173 -174 -182 -184 0
-168 -173 -175 -182 -184 0
-97 -173 -98 -182 -184 0
-110 -173 -111 -182 -184 0
-122 -173 -123 -182 -184 0
-133 -173 -134 -182 -184 0
-143 -173 -144 -182 -184 0
-152 -173 -153 -182 -184 0
-168 -174 -175 -182 -185 0
-97 -174 -98 -182 -185 0
-110 -174 -111 -182 -185 0
-122 -174 -123 -182 -185 0
-133 -174 -134 -182 -185 0
-143 -174 -144 -182 -185 0
-152 -174 -153 -182 -185 0
-97 -175 -98 -182 -186 0
-110 -175 -111 -182 -186 0
-122 -175 -123 -182 -186 0
-133 -175 -134 -182 -186 0
-143 -175 -144 -182 -186 0
-152 -175 -153 -182 -186 0
-110 -98 -111 -182 -100 0
-122 -98 -123 -182 -100 0
-133 -98 -134 -182 -100 0
-143 -98 -144 -182 -100 0
-152 -98 -153 -182 -100 0
-122 -111 -123 -182 -113 0
-133 -111 -134 -182 -113 0
-143 -111 -144 -182 -113 0
-152 -111 -153 -182 -113 0
-133 -123 -134 -182 -125 0
-143 -123 -144 -182 -125 0
-152 -123 -153 -182 -125 0
-143 -134 -144 -182 -136 0
-152 -134 -153 -182 -136 0
-152 -144 -153 -182 -146 0
-167 -173 -174 -183 -184 0
-168 -173 -175 -183 -184 0
-97 -173 -98 -183 -184 0
-110 -173 -111 -183 -184 0
-122 -173 -123 -183 -184 0
-133 -173 -134 -183 -184 0
-143 -173 -144 -183 -184 0
-152 -173 -153 -183 -184 0
-168 -174 -175 -183 -185 0
-97 -174 -98 -183 -185 0
-110 -174 -111 -183 -185 0
-122 -174 -123 -183 -185 0
-133 -174 -134 -183 -185 0
-143 -174 -144 -183 -185 0
-152 -174 -153 -183 -185 0
-97 -175 -98 -183 -186 0
-110 -175 -111 -183 -186 0
-122 -175 -123 -183 -186 0
-133 -175 -134 -183 -186 0
-143 -175 -144 -183 -186 0
-152 -175 -153 -183 -186 0
-110 -98 -111 -183 -100 0
-122 -98 -123 -183 -100 0
-133 -98 -134 -183 -100 0
-143 -98 -144 -183 -100 0
-152 -98 -153 -183 -100 0
-122 -111 -123 -183 -113 0
-133 -111 -134 -183 -113 0
-143 -111 -144 -183 -113 0
-152 -111 -153 -183 -113 0
-133 -123 -134 -183 -125 0
-143 -123 -144 -183 -125 0
-152 -123 -153 -183 -125 0
-143 -134 -144 -183 -136 0
-152 -134 -153 -183 -136 0
-152 -144 -153 -183 -146 0
-168 -174 -175 -184 -185 0
-97 -174 -98 -184 -185 0
-110 -174 -111 -184 -185 0
-122 -174 -123 -184 -185 0
-133 -174 -134 -184 -185 0
-143 -174 -144 -184 -185 0
-152 -174 -153 -184 -185 0
-97 -175 -98 -184 -186 0
-110 -175 -111 -184 -186 0
-122 -175 -123 -184 -186 0
-133 -175 -134 -184 -186 0
-143 -175 -144 -184 -186 0
-152 -175 -153 -184 -186 0
-110 -98 -111 -184 -100 0
-122 -98 -123 -184 -100 0
-133 -98 -134 -184 -100 0
-143 -98 -144 -184 -100 0
-152 -98 -153 -184 -100 0
-122 -111 -123 -184 -113 0
-133 -111 -134 -184 -113 0
-143 -111 -144 -184 -113 0
-152 -111 -153 -184 -113 0
-133 -123 -134 -184 -125 0
-143 -123 -144 -184 -125 0
-152 -123 -153 -184 -125 0
-143 -134 -144 -184 -136 0
-152 -134 -153 -184 -136 0
-152 -144 -153 -184 -146 0
-97 -175 -98 -185 -186 0
-110 -175 -111 -185 -186 0
-122 -175 -123 -185 -186 0
-133 -175 -134 -185 -186 0
-143 -175 -144 -185 -186 0
-152 -175 -153 -185 -186 0
-110 -98 -111 -185 -100 0
-122 -98 -123 -185 -100 0
-133 -98 -134 -185 -100 0
-143 -98 -144 -185 -100 0
-152 -98 -153 -185 -100 0
-122 -111 -123 -185 -113 0
-133 -111 -134 -185 -113 0
-143 -111 -144 -185 -113 0
-152 -111 -153 -185 -113 0
-133 -123 -134 -185 -125 0
-143 -123 -144 -185 -125 0
-152 -123 -153 -185 -125 0
-143 -134 -144 -185 -136 0
-152 -134 -153 -185 -136 0
-152 -144 -153 -185 -146 0
-110 -98 -111 -186 -100 0
-122 -98 -123 -186 -100 0
-133 -98 -134 -186 -100 0
-143 -98 -144 -186 -100 0
-152 -98 -153 -186 -100 0
-122 -111 -123 -186 -113 0
-133 -111 -134 -186 -113 0
-143 -111 -144 -186 -113 0
-152 -111 -153 -186 -113 0
-133 -123 -134 -186 -125 0
-143 -123 -144 -186 -125 0
-152 -123 -153 -186 -125 0
-143 -134 -144 -186 -136 0
-152 -134 -153 -186 -136 0
-152 -144 -153 -186 -146 0
-122 -111 -123 -100 -113 0
-133 -111 -134 -100 -113 0
-143 -111 -144 -100 -113 0
-152 -111 -153 -100 -113 0
-133 -123 -134 -100 -125 0
-143 -123 -144 -100 -125 0
-152 -123 -153 -100 -125 0
-143 -134 -144 -100 -136 0
-152 -134 -153 -100 -136 0
-152 -144 -153 -100 -146 0
-133 -123 -134 -113 -125 0
-143 -123 -144 -113 -125 0
-152 -123 -153 -113 -125 0
-143 -134 -144 -113 -136 0
-152 -134 -153 -113 -136 0
-152 -144 -153 -113 -146 0
-143 -134 -144 -125 -136 0
-152 -134 -153 -125 -136 0
-152 -144 -153 -125 -146 0
-152 -144 -153 -136 -146 0
-167 -173 -174 -187 -188 0
-168 -173 -175 -187 -188 0
-97 -173 -98 -187 -188 0
-110 -173 -111 -187 -188 0
-122 -173 -123 -187 -188 0
-133 -173 -134 -187 -188 0
-143 -173 -144 -187 -188 0
-152 -173 -153 -187 -188 0
-168 -174 -175 -187 -189 0
-97 -174 -98 -187 -189 0
-110 -174 -111 -187 -189 0
-122 -174 -123 -187 -189 0
-133 -174 -134 -187 -189 0
-143 -174 -144 -187 -189 0
-152 -174 -153 -187 -189 0
-97 -175 -98 -187 -190 0
-110 -175 -111 -187 -190 0
-122 -175 -123 -187 -190 0
-133 -175 -134 -187 -190 0
-143 -175 -144 -187 -190 0
-152 -175 -153 -187 -190 0
-110 -98 -111 -187 -101 0
-122 -98 -123 -187 -101 0
-133 -98 -134 -187 -101 0
-143 -98 -144 -187 -101 0
-152 -98 -153 -187 -101 0
-122 -111 -123 -187 -114 0
-133 -111 -134 -187 -114 0
-143 -111 -144 -187 -114 0
-152 -111 -153 -187 -114 0
-133 -123 -134 -187 -126 0
-143 -123 -144 -187 -126 0
-152 -123 -153 -187 -126 0
-143 -134 -144 -187 -137 0
-152 -134 -153 -187 -137 0
-152 -144 -153 -187 -147 0
-168 -174 -175 -188 -189 0
-97 -174 -98 -188 -189 0
-110 -174 -111 -188 -189 0
-122 -174 -123 -188 -189 0
-133 -174 -134 -188 -189 0
-143 -174 -144 -188 -189 0
-152 -174 -153 -188 -189 0
-97 -175 -98 -188 -190 0
-110 -175 -111 -188 -190 0
-122 -175 -123 -188 -190 0
-133 -175 -134 -188 -190 0
-143 -175 -144 -188 -190 0
-152 -175 -153 -188 -190 0
-110 -98 -111 -188 -101 0
-122 -98 -123 -188 -101 0
-133 -98 -134 -188 -101 0
-143 -98 -144 -188 -101 0
-152 -98 -153 -188 -101 0
-122 -111 -123 -188 -114 0
-133 -111 -134 -188 -114 0
-143 -111 -144 -188 -114 0
-152 -111 -153 -188 -114 0
-133 -123 -134 -188 -126 0
-143 -123 -144 -188 -126 0
-152 -123 -153 -188 -126 0
-143 -134 -144 -188 -137 0
-152 -134 -153 -188 -137 0
-152 -144 -153 -188 -147 0
-97 -175 -98 -189 -190 0
-110 -175 -111 -189 -190 0
-122 -175 -123 -189 -190 0
-133 -175 -134 -189 -190 0
-143 -175 -144 -189 -190 0
-152 -175 -153 -189 -190 0
-110 -98 -111 -189 -101 0
-122 -98 -123 -189 -101 0
-133 -98 -134 -189 -101 0
-143 -98 -144 -189 -101 0
-152 -98 -153 -189 -101 0
-122 -111 -123 -189 -114 0
-133 -111 -134 -189 -114 0
-143 -111 -144 -189 -114 0
-152 -111 -153 -189 -114 0
-133 -123 -134 -189 -126 0
-143 -123 -144 -189 -126 0
-152 -123 -153 -189 -126 0
-143 -134 -144 -189 -137 0
-152 -134 -153 -189 -137 0
-152 -144 -153 -189 -147 0
-110 -98 -111 -190 -101 0
-122 -98 -123 -190 -101 0
-133 -98 -134 -190 -101 0
-143 -98 -144 -190 -101 0
-152 -98 -153 -190 -101 0
-122 -111 -123 -190 -114 0
-133 -111 -134 -190 -114 0
-143 -111 -144 -190 -114 0
-152 -111 -153 -190 -114 0
-133 -123 -134 -190 -126 0
-143 -123 -144 -190 -126 0
-152 -123 -153 -190 -126 0
-143 -134 -144 -190 -137 0
-152 -134 -153 -190 -137 0
-152 -144 -153 -190 -147 0
-122 -111 -123 -101 -114 0
-133 -111 -134 -101 -114 0
-143 -111 -144 -101 -114 0
-152 -111 -153 -101 -114 0
-133 -123 -134 -101 -126 0
-143 -123 -144 -101 -126 0
-152 -123 -153 -101 -126 0
-143 -134 -144 -101 -137 0
-152 -134 -153 -101 -137 0
-152 -144 -153 -101 -147 0
-133 -123 -134 -114 -126 0
-143 -123 -144 -114 -126 0
-152 -123 -153 -114 -126 0
-143 -134 -144 -114 -137 0
-152 -134 -153 -114 -137 0
-152 -144 -153 -114 -147 0
-143 -134 -144 -126 -137 0
-152 -134 -153 -126 -137 0
-152 -144 -153 -126 -147 0
-152 -144 -153 -137 -147 0
-168 -174 -175 -191 -192 0
-97 -174 -98 -191 -192 0
-110 -174 -111 -191 -192 0
-122 -174 -123 -191 -192 0
-133 -174 -134 -191 -192 0
-143 -174 -144 -191 -192 0
-152 -174 -153 -191 -192 0
-97 -175 -98 -191 -193 0
-110 -175 -111 -191 -193 0
-122 -175 -123 -191 -193 0
-133 -175 -134 -191 -193 0
-143 -175 -144 -191 -193 0
-152 -175 -153 -191 -193 0
-110 -98 -111 -191 -102 0
-122 -98 -123 -191 -102 0
-133 -98 -134 -191 -102 0
-143 -98 -144 -191 -102 0
-152 -98 -153 -191 -102 0
-122 -111 -123 -191 -115 0
-133 -111 -134 -191 -115 0
-143 -111 -144 -191 -115 0
-152 -111 -153 -191 -115 0
-133 -123 -134 -191 -127 0
-143 -123 -144 -191 -127 0
-152 -123 -153 -191 -127 0
-143 -134 -144 -191 -138 0
-152 -134 -153 -191 -138 0
-152 -144 -153 -191 -148 0
-97 -175 -98 -192 -193 0
-110 -175 -111 -192 -193 0
-122 -175 -123 -192 -193 0
-133 -175 -134 -192 -193 0
-143 -175 -144 -192 -193 0
-152 -175 -153 -192 -193 0
-110 -98 -111 -192 -102 0
-122 -98 -123 -192 -102 0
-133 -98 -134 -192 -102 0
-143 -98 -144 -192 -102 0
-152 -98 -153 -192 -102 0
-122 -111 -123 -192 -115 0
-133 -111 -134 -192 -115 0
-143 -111 -144 -192 -115 0
-152 -111 -153 -192 -115 0
-133 -123 -134 -192 -127 0
-143 -123 -144 -192 -127 0
-152 -123 -153 -192 -127 0
-143 -134 -144 -192 -138 0
-152 -134 -153 -192 -138 0
-152 -144 -153 -192 -148 0
-110 -98 -111 -193 -102 0
-122 -98 -123 -193 -102 0
-133 -98 -134 -193 -102 0
-143 -98 -144 -193 -102 0
-152 -98 -153 -193 -102 0
-122 -111 -123 -193 -115 0
-133 -111 -134 -193 -115 0
-143 -111 -144 -193 -115 0
-152 -111 -153 -193 -115 0
-133 -123 -134 -193 -127 0
-143 -123 -144 -193 -127 0
-152 -123 -153 -193 -127 0
-143 -134 -144 -193 -138 0
-152 -134 -153 -193 -138 0
-152 -144 -153 -193 -148 0
-122 -111 -123 -102 -115 0
-133 -111 -134 -102 -115 0
-143 -111 -144 -102 -115 0
-152 -111 -153 -102 -115 0
-133 -123 -134 -102 -127 0
-143 -123 -144 -102 -127 0
-152 -123 -153 -102 -127 0
-143 -134 -144 -102 -138 0
-152 -134 -153 -102 -138 0
-152 -144 -153 -102 -148 0
-133 -123 -134 -115 -127 0
-143 -123 -144 -115 -127 0
-152 -123 -153 -115 -127 0
-143 -134 -144 -115 -138 0
-152 -134 -153 -115 -138 0
-152 -144 -153 -115 -148 0
-143 -134 -144 -127 -138 0
-152 -134 -153 -127 -138 0
-152 -144 -153 -127 -148 0
-152 -144 -153 -138 -148 0
-97 -175 -98 -194 -195 0
-110 -175 -111 -194 -195 0
-122 -175 -123 -194 -195 0
-133 -175 -134 -194 -195 0
-143 -175 -144 -194 -195 0
-152 -175 -153 -194 -195 0
-110 -98 -111 -194 -103 0
-122 -98 -123 -194 -103 0
-133 -98 -134 -194 -103 0
-143 -98 -144 -194 -103 0
-152 -98 -153 -194 -103 0
-122 -111 -123 -194 -116 0
-133 -111 -134 -194 -116 0
-143 -111 -144 -194 -116 0
-152 -111 -153 -194 -116 0
-133 -123 -134 -194 -128 0
-143 -123 -144 -194 -128 0
-152 -123 -153 -194 -128 0
-143 -134 -144 -194 -139 0
-152 -134 -153 -194 -139 0
-152 -144 -153 -194 -149 0
-110 -98 -111 -195 -103 0
-122 -98 -123 -195 -103 0
-133 -98 -134 -195 -103 0
-143 -98 -144 -195 -103 0
-152 -98 -153 -195 -103 0
-122 -111 -123 -195 -116 0
-133 -111 -134 -195 -116 0
-143 -111 -144 -195 -116 0
-152 -111 -153 -195 -116 0
-133 -123 -134 -195 -128 0
-143 -123 -144 -195 -128 0
-152 -123 -153 -195 -128 0
-143 -134 -144 -195 -139 0
-152 -134 -153 -195 -139 0
-152 -144 -153 -195 -149 0
-122 -111 -123 -103 -116 0
-133 -111 -134 -103 -116 0
-143 -111 -144 -103 -116 0
-152 -111 -153 -103 -116 0
-133 -123 -134 -103 -128 0
-143 -123 -144 -103 -128 0
-152 -123 -153 -103 -128 0
-143 -134 -144 -103 -139 0
-152 -134 -153 -103 -139 0
-152 -144 -153 -103 -149 0
-133 -123 -134 -116 -128 0
-143 -123 -144 -116 -128 0
-152 -123 -153 -116 -128 0
-143 -134 -144 -116 -139 0
-152 -134 -153 -116 -139 0
-152 -144 -153 -116 -149 0
-143 -134 -144 -128 -139 0
-152 -134 -153 -128 -139 0
-152 -144 -153 -128 -149 0
-152 -144 -153 -139 -149 0
-110 -98 -111 -196 -104 0
-122 -98 -123 -196 -104 0
-133 -98 -134 -196 -104 0
-143 -98 -144 -196 -104 0
-152 -98 -153 -196 -104 0
-122 -111 -123 -196 -117 0
-133 -111 -134 -196 -117 0
-143 -111 -144 -196 -117 0
-152 -111 -153 -196 -117 0
-133 -123 -134 -196 -129 0
-143 -123 -144 -196 -129 0
-152 -123 -153 -196 -129 0
-143 -134 -144 -196 -140 0
-152 -134 -153 -196 -140 0
-152 -144 -153 -196 -150 0
-122 -111 -123 -104 -117 0
-133 -111 -134 -104 -117 0
-143 -111 -144 -104 -117 0
-152 -111 -153 -104 -117 0
-133 -123 -134 -104 -129 0
-143 -123 -144 -104 -129 0
-152 -123 -153 -104 -129 0
-143 -134 -144 -104 -140 0
-152 -134 -153 -104 -140 0
-152 -144 -153 -104 -150 0
-133 -123 -134 -117 -129 0
-143 -123 -144 -117 -129 0
-152 -123 -153 -117 -129 0
-143 -134 -144 -117 -140 0
-152 -134 -153 -117 -140 0
-152 -144 -153 -117 -150 0
-143 -134 -144 -129 -140 0
-152 -134 -153 -129 -140 0
-152 -144 -153 -129 -150 0
-152 -144 -153 -140 -150 0
-122 -111 -123 -105 -118 0
-133 -111 -134 -105 -118 0
-143 -111 -144 -105 -118 0
-152 -111 -153 -105 -118 0
-133 -123 -134 -105 -130 0
-143 -123 -144 -105 -130 0
-152 -123 -153 -105 -130 0
-143 -134 -144 -105 -141 0
-152 -134 -153 -105 -141 0
-152 -144 -153 -105 -151 0
-133 -123 -134 -118 -130 0
-143 -123 -144 -118 -130 0
-152 -123 -153 -118 -130 0
-143 -134 -144 -118 -141 0
-152 -134 -153 -118 -141 0
-152 -144 -153 -118 -151 0
-143 -134 -144 -130 -141 0
-152 -134 -153 -130 -141 0
-152 -144 -153 -130 -151 0
-152 -144 -153 -141 -151 0
-133 -123 -134 -92 -93 0
-143 -123 -144 -92 -93 0
-152 -123 -153 -92 -93 0
-143 -134 -144 -92 -94 0
-152 -134 -153 -92 -94 0
-152 -144 -153 -92 -95 0
-143 -134 -144 -93 -94 0
-152 -134 -153 -93 -94 0
-152 -144 -153 -93 -95 0
-152 -144 -153 -94 -95 0
-143 -134 -144 -106 -107 0
-152 -134 -153 -106 -107 0
-152 -144 -153 -106 -108 0
-152 -144 -153 -107 -108 0
-152 -144 -153 -119 -120 0
-166 -178 -179 -182 -183 0
-167 -178 -180 -182 -183 0
-168 -178 -181 -182 -183 0
-97 -178 -99 -182 -183 0
-110 -178 -112 -182 -183 0
-122 -178 -124 -182 -183 0
-133 -178 -135 -182 -183 0
-143 -178 -145 -182 -183 0
-152 -178 -154 -182 -183 0
-167 -179 -180 -182 -184 0
-168 -179 -181 -182 -184 0
-97 -179 -99 -182 -184 0
-110 -179 -112 -182 -184 0
-122 -179 -124 -182 -184 0
-133 -179 -135 -182 -184 0
-143 -179 -145 -182 -184 0
-152 -179 -154 -182 -184 0
-168 -180 -181 -182 -185 0
-97 -180 -99 -182 -185 0
-110 -180 -112 -182 -185 0
-122 -180 -124 -182 -185 0
-133 -180 -135 -182 -185 0
-143 -180 -145 -182 -185 0
-152 -180 -154 -182 -185 0
-97 -181 -99 -182 -186 0
-110 -181 -112 -182 -186 0
-122 -181 -124 -182 -186 0
-133 -181 -135 -182 -186 0
-143 -181 -145 -182 -186 0
-152 -181 -154 -182 -186 0
-110 -99 -112 -182 -100 0
-122 -99 -124 -182 -100 0
-133 -99 -135 -182 -100 0
-143 -99 -145 -182 -100 0
-152 -99 -154 -182 -100 0
-122 -112 -124 -182 -113 0
-133 -112 -135 -182 -113 0
-143 -112 -145 -182 -113 0
-152 -112 -154 -182 -113 0
-133 -124 -135 -182 -125 0
-143 -124 -145 -182 -125 0
-152 -124 -154 -182 -125 0
-143 -135 -145 -182 -136 0
-152 -135 -154 -182 -136 0
-152 -145 -154 -182 -146 0
-167 -179 -180 -183 -184 0
-168 -179 -181 -183 -184 0
-97 -179 -99 -183 -184 0
-110 -179 -112 -183 -184 0
-122 -179 -124 -183 -184 0
-133 -179 -135 -183 -184 0
-143 -179 -145 -183 -184 0
-152 -179 -154 -183 -184 0
-168 -180 -181 -183 -185 0
-97 -180 -99 -183 -185 0
-110 -180 -112 -183 -185 0
-122 -180 -124 -183 -185 0
-133 -180 -135 -183 -185 0
-143 -180 -145 -183 -185 0
-152 -180 -154 -183 -185 0
-97 -181 -99 -183 -186 0
-110 -181 -112 -183 -186 0
-122 -181 -124 -183 -186 0
-133 -181 -135 -183 -186 0
-143 -181 -145 -183 -186 0
-152 -181 -154 -183 -186 0
-110 -99 -112 -183 -100 0
-122 -99 -124 -183 -100 0
-133 -99 -135 -183 -100 0
-143 -99 -145 -183 -100 0
-152 -99 -154 -183 -100 0
-122 -112 -124 -183 -113 0
-133 -112 -135 -183 -113 0
-143 -112 -145 -183 -113 0
-152 -112 -154 -183 -113 0
-133 -124 -135 -183 -125 0
-143 -124 -145 -183 -125 0
-152 -124 -154 -183 -125 0
-143 -135 -145 -183 -136 0
-152 -135 -154 -183 -136 0
-152 -145 -154 -183 -146 0
-168 -180 -181 -184 -185 0
-97 -180 -99 -184 -185 0
-110 -180 -112 -184 -185 0
-122 -180 -124 -184 -185 0
-133 -180 -135 -184 -185 0
-143 -180 -145 -184 -185 0
-152 -180 -154 -184 -185 0
-97 -181 -99 -184 -186 0
-110 -181 -112 -184 -186 0
-122 -181 -124 -184 -186 0
-133 -181 -135 -184 -186 0
-143 -181 -145 -184 -186 0
-152 -181 -154 -184 -186 0
-110 -99 -112 -184 -100 0
-122 -99 -124 -184 -100 0
-133 -99 -135 -184 -100 0
-143 -99 -145 -184 -100 0
-152 -99 -154 -184 -100 0
-122 -112 -124 -184 -113 0
-133 -112 -135 -184 -113 0
-143 -112 -145 -184 -113 0
-152 -112 -154 -184 -113 0
-133 -124 -135 -184 -125 0
-143 -124 -145 -184 -125 0
-152 -124 -154 -184 -125 0
-143 -135 -145 -184 -136 0
-152 -135 -154 -184 -136 0
-152 -145 -154 -184 -146 0
-97 -181 -99 -185 -186 0
-110 -181 -112 -185 -186 0
-122 -181 -124 -185 -186 0
-133 -181 -135 -185 -186 0
-143 -181 -145 -185 -186 0
-152 -181 -154 -185 -186 0
-110 -99 -112 -185 -100 0
-122 -99 -124 -185 -100 0
-133 -99 -135 -185 -100 0
-143 -99 -145 -185 -100 0
-152 -99 -154 -185 -100 0
-122 -112 -124 -185 -113 0
-133 -112 -135 -185 -113 0
-143 -112 -145 -185 -113 0
-152 -112 -154 -185 -113 0
-133 -124 -135 -185 -125 0
-143 -124 -145 -185 -125 0
-152 -124 -154 -185 -125 0
-143 -135 -145 -185 -136 0
-152 -135 -154 -185 -136 0
-152 -145 -154 -185 -146 0
-110 -99 -112 -186 -100 0
-122 -99 -124 -186 -100 0
-133 -99 -135 -186 -100 0
-143 -99 -145 -186 -100 0
-152 -99 -154 -186 -100 0
-122 -112 -124 -186 -113 0
-133 -112 -135 -186 -113 0
-143 -112 -145 -186 -113 0
-152 -112 -154 -186 -113 0
-133 -124 -135 -186 -125 0
-143 -124 -145 -186 -125 0
-152 -124 -154 -186 -125 0
-143 -135 -145 -186 -136 0
-152 -135 -154 -186 -136 0
-152 -145 -154 -186 -146 0
-122 -112 -124 -100 -113 0
-133 -112 -135 -100 -113 0
-143 -112 -145 -100 -113 0
-152 -112 -154 -100 -113 0
-133 -124 -135 -100 -125 0
-143 -124 -145 -100 -125 0
-152 -124 -154 -100 -125 0
-143 -135 -145 -100 -136 0
-152 -135 -154 -100 -136 0
-152 -145 -154 -100 -146 0
-133 -124 -135 -113 -125 0
-143 -124 -145 -113 -125 0
-152 -124 -154 -113 -125 0
-143 -135 -145 -113 -136 0
-152 -135 -154 -113 -136 0
-152 -145 -154 -113 -146 0
-143 -135 -145 -125 -136 0
-152 -135 -154 -125 -136 0
-152 -145 -154 -125 -146 0
-152 -145 -154 -136 -146 0
-167 -179 -180 -187 -188 0
-168 -179 -181 -187 -188 0
-97 -179 -99 -187 -188 0
-110 -179 -112 -187 -188 0
-122 -179 -124 -187 -188 0
-133 -179 -135 -187 -188 0
-143 -179 -145 -187 -188 0
-152 -179 -154 -187 -188 0
-168 -180 -181 -187 -189 0
-97 -180 -99 -187 -189 0
-110 -180 -112 -187 -189 0
-122 -180 -124 -187 -189 0
-133 -180 -135 -187 -189 0
-143 -180 -145 -187 -189 0
-152 -180 -154 -187 -189 0
-97 -181 -99 -187 -190 0
-110 -181 -112 -187 -190 0
-122 -181 -124 -187 -190 0
-133 -181 -135 -187 -190 0
-143 -181 -145 -187 -190 0
-152 -181 -154 -187 -190 0
-110 -99 -112 -187 -101 0
-122 -99 -124 -187 -101 0
-133 -99 -135 -187 -101 0
-143 -99 -145 -187 -101 0
-152 -99 -154 -187 -101 0
-122 -112 -124 -187 -114 0
-133 -112 -135 -187 -114 0
-143 -112 -145 -187 -114 0
-152 -112 -154 -187 -114 0
-133 -124 -135 -187 -126 0
-143 -124 -145 -187 -126 0
-152 -124 -154 -187 -126 0
-143 -135 -145 -187 -137 0
-152 -135 -154 -187 -137 0
-152 -145 -154 -187 -147 0
-168 -180 -181 -188 -189 0
-97 -180 -99 -188 -189 0
-110 -180 -112 -188 -189 0
-122 -180 -124 -188 -189 0
-133 -180 -135 -188 -189 0
-143 -180 -145 -188 -189 0
-152 -180 -154 -188 -189 0
-97 -181 -99 -188 -190 0
-110 -181 -112 -188 -190 0
-122 -181 -124 -188 -190 0
-133 -181 -135 -188 -190 0
-143 -181 -145 -188 -190 0
-152 -181 -154 -188 -190 0
-110 -99 -112 -188 -101 0
-122 -99 -124 -188 -101 0
-133 -99 -135 -188 -101 0
-143 -99 -145 -188 -101 0
-152 -99 -154 -188 -101 0
-122 -112 -124 -188 -114 0
-133 -112 -135 -188 -114 0
-143 -112 -145 -188 -114 0
-152 -112 -154 -188 -114 0
-133 -124 -135 -188 -126 0
-143 -124 -145 -188 -126 0
-152 -124 -154 -188 -126 0
-143 -135 -145 -188 -137 0
-152 -135 -154 -188 -137 0
-152 -145 -154 -188 -147 0
-97 -181 -99 -189 -190 0
-110 -181 -112 -189 -190 0
-122 -181 -124 -189 -190 0
-133 -181 -135 -189 -190 0
-143 -181 -145 -189 -190 0
-152 -181 -154 -189 -190 0
-110 -99 -112 -189 -101 0
-122 -99 -124 -189 -101 0
-133 -99 -135 -189 -101 0
-143 -99 -145 -189 -101 0
-152 -99 -154 -189 -101 0
-122 -112 -124 -189 -114 0
-133 -112 -135 -189 -114 0
-143 -112 -145 -189 -114 0
-152 -112 -154 -189 -114 0
-133 -124 -135 -189 -126 0
-143 -124 -145 -189 -126 0
-152 -124 -154 -189 -126 0
-143 -135 -145 -189 -137 0
-152 -135 -154 -189 -137 0
-152 -145 -154 -189 -147 0
-110 -99 -112 -190 -101 0
-122 -99 -124 -190 -101 0
-133 -99 -135 -190 -101 0
-143 -99 -145 -190 -101 0
-152 -99 -154 -190 -101 0
-122 -112 -124 -190 -114 0
-133 -112 -135 -190 -114 0
-143 -112 -145 -190 -114 0
-152 -112 -154 -190 -114 0
-133 -124 -135 -190 -126 0
-143 -124 -145 -190 -126 0
-152 -124 -154 -190 -126 0
-143 -135 -145 -190 -137 0
-152 -135 -154 -190 -137 0
-152 -145 -154 -190 -147 0
-122 -112 -124 -101 -114 0
-133 -112 -135 -101 -114 0
-143 -112 -145 -101 -114 0
-152 -112 -154 -101 -114 0
-133 -124 -135 -101 -126 0
-143 -124 -145 -101 -126 0
-152 -124 -154 -101 -126 0
-143 -135 -145 -101 -137 0
-152 -135 -154 -101 -137 0
-152 -145 -154 -101 -147 0
-133 -124 -135 -114 -126 0
-143 -124 -145 -114 -126 0
-152 -124 -154 -114 -126 0
-143 -135 -145 -114 -137 0
-152 -135 -154 -114 -137 0
-152 -145 -154 -114 -147 0
-143 -135 -145 -126 -137 0
-152 -135 -154 -126 -137 0
-152 -145 -154 -126 -147 0
-152 -145 -154 -137 -147 0
-168 -180 -181 -191 -192 0
-97 -180 -99 -191 -192 0
-110 -180 -112 -191 -192 0
-122 -180 -124 -191 -192 0
-133 -180 -135 -191 -192 0
-143 -180 -145 -191 -192 0
-152 -180 -154 -191 -192 0
-97 -181 -99 -191 -193 0
-110 -181 -112 -191 -193 0
-122 -181 -124 -191 -193 0
-133 -181 -135 -191 -193 0
-143 -181 -145 -191 -193 0
-152 -181 -154 -191 -193 0
-110 -99 -112 -191 -102 0
-122 -99 -124 -191 -102 0
-133 -99 -135 -191 -102 0
-143 -99 -145 -191 -102 0
-152 -99 -154 -191 -102 0
-122 -112 -124 -191 -115 0
-133 -112 -135 -191 -115 0
-143 -112 -145 -191 -115 0
-152 -112 -154 -191 -115 0
-133 -124 -135 -191 -127 0
-143 -124 -145 -191 -127 0
-152 -124 -154 -191 -127 0
-143 -135 -145 -191 -138 0
-152 -135 -154 -191 -138 0
-152 -145 -154 -191 -148 0
-97 -181 -99 -192 -193 0
-110 -181 -112 -192 -193 0
-122 -181 -124 -192 -193 0
-133 -181 -135 -192 -193 0
-143 -181 -145 -192 -193 0
-152 -181 -154 -192 -193 0
-110 -99 -112 -192 -102 0
-122 -99 -124 -192 -102 0
-133 -99 -135 -192 -102 0
-143 -99 -145 -192 -102 0
-152 -99 -154 -192 -102 0
-122 -112 -124 -192 -115 0
-133 -112 -135 -192 -115 0
-143 -112 -145 -192 -115 0
-152 -112 -154 -192 -115 0
-133 -124 -135 -192 -127 0
-143 -124 -145 -192 -127 0
-152 -124 -154 -192 -127 0
-143 -135 -145 -192 -138 0
-152 -135 -154 -192 -138 0
-152 -145 -154 -192 -148 0
-110 -99 -112 -193 -102 0
-122 -99 -124 -193 -102 0
-133 -99 -135 -193 -102 0
-143 -99 -145 -193 -102 0
-152 -99 -154 -193 -102 0
-122 -112 -124 -193 -115 0
-133 -112 -135 -193 -115 0
-143 -112 -145 -193 -115 0
-152 -112 -154 -193 -115 0
-133 -124 -135 -193 -127 0
-143 -124 -145 -193 -127 0
-152 -124 -154 -193 -127 0
-143 -135 -145 -193 -138 0
-152 -135 -154 -193 -138 0
-152 -145 -154 -193 -148 0
-122 -112 -124 -102 -115 0
-133 -112 -135 -102 -115 0
-143 -112 -145 -102 -115 0
-152 -112 -154 -102 -115 0
-133 -124 -135 -102 -127 0
-143 -124 -145 -102 -127 0
-152 -124 -154 -102 -127 0
-143 -135 -145 -102 -138 0
-152 -135 -154 -102 -138 0
-152 -145 -154 -102 -148 0
-133 -124 -135 -115 -127 0
-143 -124 -145 -115 -127 0
-152 -124 -154 -115 -127 0
-143 -135 -145 -115 -138 0
-152 -135 -154 -115 -138 0
-152 -145 -154 -115 -148 0
-143 -135 -145 -127 -138 0
-152 -135 -154 -127 -138 0
-152 -145 -154 -127 -148 0
-152 -145 -154 -138 -148 0
-97 -181 -99 -194 -195 0
-110 -181 -112 -194 -195 0
-122 -181 -124 -194 -195 0
-133 -181 -135 -194 -195 0
-143 -181 -145 -194 -195 0
-152 -181 -154 -194 -195 0
-110 -99 -112 -194 -103 0
-122 -99 -124 -194 -103 0
-133 -99 -135 -194 -103 0
-143 -99 -145 -194 -103 0
-152 -99 -154 -194 -103 0
-122 -112 -124 -194 -116 0
-133 -112 -135 -194 -116 0
-143 -112 -145 -194 -116 0
-152 -112 -154 -194 -116 0
-133 -124 -135 -194 -128 0
-143 -124 -145 -194 -128 0
-152 -124 -154 -194 -128 0
-143 -135 -145 -194 -139 0
-152 -135 -154 -194 -139 0
-152 -145 -154 -194 -149 0
-110 -99 -112 -195 -103 0
-122 -99 -124 -195 -103 0
-133 -99 -135 -195 -103 0
-143 -99 -145 -195 -103 0
-152 -99 -154 -195 -103 0
-122 -112 -124 -195 -116 0
-133 -112 -135 -195 -116 0
-143 -112 -145 -195 -116 0
-152 -112 -154 -195 -116 0
-133 -124 -135 -195 -128 0
-143 -124 -145 -195 -128 0
-152 -124 -154 -195 -128 0
-143 -135 -145 -195 -139 0
-152 -135 -154 -195 -139 0
-152 -145 -154 -195 -149 0
-122 -112 -124 -103 -116 0
-133 -112 -135 -103 -116 0
-143 -112 -145 -103 -116 0
-152 -112 -154 -103 -116 0
-133 -124 -135 -103 -128 0
-143 -124 -145 -103 -128 0
-152 -124 -154 -103 -128 0
-143 -135 -145 -103 -139 0
-152 -135 -154 -103 -139 0
-152 -145 -154 -103 -149 0
-133 -124 -135 -116 -128 0
-143 -124 -145 -116 -128 0
-152 -124 -154 -116 -128 0
-143 -135 -145 -116 -139 0
-152 -135 -154 -116 -139 0
-152 -145 -154 -116 -149 0
-143 -135 -145 -128 -139 0
-152 -135 -154 -128 -139 0
-152 -145 -154 -128 -149 0
-152 -145 -154 -139 -149 0
-110 -99 -112 -196 -104 0
-122 -99 -124 -196 -104 0
-133 -99 -135 -196 -104 0
-143 -99 -145 -196 -104 0
-152 -99 -154 -196 -104 0
-122 -112 -124 -196 -117 0
-133 -112 -135 -196 -117 0
-143 -112 -145 -196 -117 0
-152 -112 -154 -196 -117 0
-133 -124 -135 -196 -129 0
-143 -124 -145 -196 -129 0
-152 -124 -154 -196 -129 0
-143 -135 -145 -196 -140 0
-152 -135 -154 -196 -140 0
-152 -145 -154 -196 -150 0
-122 -112 -124 -104 -117 0
-133 -112 -135 -104 -117 0
-143 -112 -145 -104 -117 0
-152 -112 -154 -104 -117 0
-133 -124 -135 -104 -129 0
-143 -124 -145 -104 -129 0
-152 -124 -154 -104 -129 0
-143 -135 -145 -104 -140 0
-152 -135 -154 -104 -140 0
-152 -145 -154 -104 -150 0
-133 -124 -135 -117 -129 0
-143 -124 -145 -117 -129 0
-152 -124 -154 -117 -129 0
-143 -135 -145 -117 -140 0
-152 -135 -154 -117 -140 0
-152 -145 -154 -117 -150 0
-143 -135 -145 -129 -140 0
-152 -135 -154 -129 -140 0
-152 -145 -154 -129 -150 0
-152 -145 -154 -140 -150 0
-122 -112 -124 -105 -118 0
-133 -112 -135 -105 -118 0
-143 -112 -145 -105 -118 0
-152 -112 -154 -105 -118 0
-133 -124 -135 -105 -130 0
-143 -124 -145 -105 -130 0
-152 -124 -154 -105 -130 0
-143 -135 -145 -105 -141 0
-152 -135 -154 -105 -141 0
-152 -145 -154 -105 -151 0
-133 -124 -135 -118 -130 0
-143 -124 -145 -118 -130 0
-152 -124 -154 -118 -130 0
-143 -135 -145 -118 -141 0
-152 -135 -154 -118 -141 0
-152 -145 -154 -118 -151 0
-143 -135 -145 -130 -141 0
-152 -135 -154 -130 -141 0
-152 -145 -154 -130 -151 0
-152 -145 -154 -141 -151 0
-133 -124 -135 -92 -93 0
-143 -124 -145 -92 -93 0
-152 -124 -154 -92 -93 0
-143 -135 -145 -92 -94 0
-152 -135 -154 -92 -94 0
-152 -145 -154 -92 -95 0
-143 -135 -145 -93 -94 0
-152 -135 -154 -93 -94 0
-152 -145 -154 -93 -95 0
-152 -145 -154 -94 -95 0
-143 -135 -145 -106 -107 0
-152 -135 -154 -106 -107 0
-152 -145 -154 -106 -108 0
-152 -145 -154 -107 -108 0
-152 -145 -154 -119 -120 0
-167 -184 -185 -187 -188 0
-168 -184 -186 -187 -188 0
-97 -184 -100 -187 -188 0
-110 -184 -113 -187 -188 0
-122 -184 -125 -187 -188 0
-133 -184 -136 -187 -188 0
-143 -184 -146 -187 -188 0
-152 -184 -155 -187 -188 0
-168 -185 -186 -187 -189 0
-97 -185 -100 -187 -189 0
-110 -185 -113 -187 -189 0
-122 -185 -125 -187 -189 0
-133 -185 -136 -187 -189 0
-143 -185 -146 -187 -189 0
-152 -185 -155 -187 -189 0
-97 -186 -100 -187 -190 0
-110 -186 -113 -187 -190 0
-122 -186 -125 -187 -190 0
-133 -186 -136 -187 -190 0
-143 -186 -146 -187 -190 0
-152 -186 -155 -187 -190 0
-110 -100 -113 -187 -101 0
-122 -100 -125 -187 -101 0
-133 -100 -136 -187 -101 0
-143 -100 -146 -187 -101 0
-152 -100 -155 -187 -101 0
-122 -113 -125 -187 -114 0
-133 -113 -136 -187 -114 0
-143 -113 -146 -187 -114 0
-152 -113 -155 -187 -114 0
-133 -125 -136 -187 -126 0
-143 -125 -146 -187 -126 0
-152 -125 -155 -187 -126 0
-143 -136 -146 -187 -137 0
-152 -136 -155 -187 -137 0
-152 -146 -155 -187 -147 0
-168 -185 -186 -188 -189 0
-97 -185 -100 -188 -189 0
-110 -185 -113 -188 -189 0
-122 -185 -125 -188 -189 0
-133 -185 -136 -188 -189 0
-143 -185 -146 -188 -189 0
-152 -185 -155 -188 -189 0
-97 -186 -100 -188 -190 0
-110 -186 -113 -188 -190 0
-122 -186 -125 -188 -190 0
-133 -186 -136 -188 -190 0
-143 -186 -146 -188 -190 0
-152 -186 -155 -188 -190 0
-110 -100 -113 -188 -101 0
-122 -100 -125 -188 -101 0
-133 -100 -136 -188 -101 0
-143 -100 -146 -188 -101 0
-152 -100 -155 -188 -101 0
-122 -113 -125 -188 -114 0
-133 -113 -136 -188 -114 0
-143 -113 -146 -188 -114 0
-152 -113 -155 -188 -114 0
-133 -125 -136 -188 -126 0
-143 -125 -146 -188 -126 0
-152 -125 -155 -188 -126 0
-143 -136 -146 -188 -137 0
-152 -136 -155 -188 -137 0
-152 -146 -155 -188 -147 0
-97 -186 -100 -189 -190 0
-110 -186 -113 -189 -190 0
-122 -186 -125 -189 -190 0
-133 -186 -136 -189 -190 0
-143 -186 -146 -189 -190 0
-152 -186 -155 -189 -190 0
-110 -100 -113 -189 -101 0
-122 -100 -125 -189 -101 0
-133 -100 -136 -189 -101 0
-143 -100 -146 -189 -101 0
-152 -100 -155 -189 -101 0
-122 -113 -125 -189 -114 0
-133 -113 -136 -189 -114 0
-143 -113 -146 -189 -114 0
-152 -113 -155 -189 -114 0
-133 -125 -136 -189 -126 0
-143 -125 -146 -189 -126 0
-152 -125 -155 -189 -126 0
-143 -136 -146 -189 -137 0
-152 -136 -155 -189 -137 0
-152 -146 -155 -189 -147 0
-110 -100 -113 -190 -101 0
-122 -100 -125 -190 -101 0
-133 -100 -136 -190 -101 0
-143 -100 -146 -190 -101 0
-152 -100 -155 -190 -101 0
-122 -113 -125 -190 -114 0
-133 -113 -136 -190 -114 0
-143 -113 -146 -190 -114 0
-152 -113 -155 -190 -114 0
-133 -125 -136 -190 -126 0
-143 -125 -146 -190 -126 0
-152 -125 -155 -190 -126 0
-143 -136 -146 -190 -137 0
-152 -136 -155 -190 -137 0
-152 -146 -155 -190 -147 0
-122 -113 -125 -101 -114 0
-133 -113 -136 -101 -114 0
-143 -113 -146 -101 -114 0
-152 -113 -155 -101 -114 0
-133 -125 -136 -101 -126 0
-143 -125 -146 -101 -126 0
-152 -125 -155 -101 -126 0
-143 -136 -146 -101 -137 0
-152 -136 -155 -101 -137 0
-152 -146 -155 -101 -147 0
-133 -125 -136 -114 -126 0
-143 -125 -146 -114 -126 0
-152 -125 -155 -114 -126 0
-143 -136 -146 -114 -137 0
-152 -136 -155 -114 -137 0
-152 -146 -155 -114 -147 0
-143 -136 -146 -126 -137 0
-152 -136 -155 -126 -137 0
-152 -146 -155 -126 -147 0
-152 -146 -155 -137 -147 0
-168 -185 -186 -191 -192 0
-97 -185 -100 -191 -192 0
-110 -185 -113 -191 -192 0
-122 -185 -125 -191 -192 0
-133 -185 -136 -191 -192 0
-143 -185 -146 -191 -192 0
-152 -185 -155 -191 -192 0
-97 -186 -100 -191 -193 0
-110 -186 -113 -191 -193 0
-122 -186 -125 -191 -193 0
-133 -186 -136 -191 -193 0
-143 -186 -146 -191 -193 0
-152 -186 -155 -191 -193 0
-110 -100 -113 -191 -102 0
-122 -100 -125 -191 -102 0
-133 -100 -136 -191 -102 0
-143 -100 -146 -191 -102 0
-152 -100 -155 -191 -102 0
-122 -113 -125 -191 -115 0
-133 -113 -136 -191 -115 0
-143 -113 -146 -191 -115 0
-152 -113 -155 -191 -115 0
-133 -125 -136 -191 -127 0
-143 -125 -146 -191 -127 0
-152 -125 -155 -191 -127 0
-143 -136 -146 -191 -138 0
-152 -136 -155 -191 -138 0
-152 -146 -155 -191 -148 0
-97 -186 -100 -192 -193 0
-110 -186 -113 -192 -193 0
-122 -186 -125 -192 -193 0
-133 -186 -136 -192 -193 0
-143 -186 -146 -192 -193 0
-152 -186 -155 -192 -193 0
-110 -100 -113 -192 -102 0
-122 -100 -125 -192 -102 0
-133 -100 -136 -192 -102 0
-143 -100 -146 -192 -102 0
-152 -100 -155 -192 -102 0
-122 -113 -125 -192 -115 0
-133 -113 -136 -192 -115 0
-143 -113 -146 -192 -115 0
-152 -113 -155 -192 -115 0
-133 -125 -136 -192 -127 0
-143 -125 -146 -192 -127 0
-152 -125 -155 -192 -127 0
-143 -136 -146 -192 -138 0
-152 -136 -155 -192 -138 0
-152 -146 -155 -192 -148 0
-110 -100 -113 -193 -102 0
-122 -100 -125 -193 -102 0
-133 -100 -136 -193 -102 0
-143 -100 -146 -193 -102 0
-152 -100 -155 -193 -102 0
-122 -113 -125 -193 -115 0
-133 -113 -136 -193 -115 0
-143 -113 -146 -193 -115 0
-152 -113 -155 -193 -115 0
-133 -125 -136 -193 -127 0
-143 -125 -146 -193 -127 0
-152 -125 -155 -193 -127 0
-143 -136 -146 -193 -138 0
-152 -136 -155 -193 -138 0
-152 -146 -155 -193 -148 0
-122 -113 -125 -102 -115 0
-133 -113 -136 -102 -115 0
-143 -113 -146 -102 -115 0
-152 -113 -155 -102 -115 0
-133 -125 -136 -102 -127 0
-143 -125 -146 -102 -127 0
-152 -125 -155 -102 -127 0
-143 -136 -146 -102 -138 0
-152 -136 -155 -102 -138 0
-152 -146 -155 -102 -148 0
-133 -125 -136 -115 -127 0
-143 -125 -146 -115 -127 0
-152 -125 -155 -115 -127 0
-143 -136 -146 -115 -138 0
-152 -136 -155 -115 -138 0
-152 -146 -155 -115 -148 0
-143 -136 -146 -127 -138 0
-152 -136 -155 -127 -138 0
-152 -146 -155 -127 -148 0
-152 -146 -155 -138 -148 0
-97 -186 -100 -194 -195 0
-110 -186 -113 -194 -195 0
-122 -186 -125 -194 -195 0
-133 -186 -136 -194 -195 0
-143 -186 -146 -194 -195 0
-152 -186 -155 -194 -195 0
-110 -100 -113 -194 -103 0
-122 -100 -125 -194 -103 0
-133 -100 -136 -194 -103 0
-143 -100 -146 -194 -103 0
-152 -100 -155 -194 -103 0
-122 -113 -125 -194 -116 0
-133 -113 -136 -194 -116 0
-143 -113 -146 -194 -116 0
-152 -113 -155 -194 -116 0
-133 -125 -136 -194 -128 0
-143 -125 -146 -194 -128 0
-152 -125 -155 -194 -128 0
-143 -136 -146 -194 -139 0
-152 -136 -155 -194 -139 0
-152 -146 -155 -194 -149 0
-110 -100 -113 -195 -103 0
-122 -100 -125 -195 -103 0
-133 -100 -136 -195 -103 0
-143 -100 -146 -195 -103 0
-152 -100 -155 -195 -103 0
-122 -113 -125 -195 -116 0
-133 -113 -136 -195 -116 0
-143 -113 -146 -195 -116 0
-152 -113 -155 -195 -116 0
-133 -125 -136 -195 -128 0
-143 -125 -146 -195 -128 0
-152 -125 -155 -195 -128 0
-143 -136 -146 -195 -139 0
-152 -136 -155 -195 -139 0
-152 -146 -155 -195 -149 0
-122 -113 -125 -103 -116 0
-133 -113 -136 -103 -116 0
-143 -113 -146 -103 -116 0
-152 -113 -155 -103 -116 0
-133 -125 -136 -103 -128 0
-143 -125 -146 -103 -128 0
-152 -125 -155 -103 -128 0
-143 -136 -146 -103 -139 0
-152 -136 -155 -103 -139 0
-152 -146 -155 -103 -149 0
-133 -125 -136 -116 -128 0
-143 -125 -146 -116 -128 0
-152 -125 -155 -116 -128 0
-143 -136 -146 -116 -139 0
-152 -136 -155 -116 -139 0
-152 -146 -155 -116 -149 0
-143 -136 -146 -128 -139 0
-152 -136 -155 -128 -139 0
-152 -146 -155 -128 -149 0
-152 -146 -155 -139 -149 0
-110 -100 -113 -196 -104 0
-122 -100 -125 -196 -104 0
-133 -100 -136 -196 -104 0
-143 -100 -146 -196 -104 0
-152 -100 -155 -196 -104 0
-122 -113 -125 -196 -117 0
-133 -113 -136 -196 -117 0
-143 -113 -146 -196 -117 0
-152 -113 -155 -196 -117 0
-133 -125 -136 -196 -129 0
-143 -125 -146 -196 -129 0
-152 -125 -155 -196 -129 0
-143 -136 -146 -196 -140 0
-152 -136 -155 -196 -140 0
-152 -146 -155 -196 -150 0
-122 -113 -125 -104 -117 0
-133 -113 -136 -104 -117 0
-143 -113 -146 -104 -117 0
-152 -113 -155 -104 -117 0
-133 -125 -136 -104 -129 0
-143 -125 -146 -104 -129 0
-152 -125 -155 -104 -129 0
-143 -136 -146 -104 -140 0
-152 -136 -155 -104 -140 0
-152 -146 -155 -104 -150 0
-133 -125 -136 -117 -129 0
-143 -125 -146 -117 -129 0
-152 -125 -155 -117 -129 0
-143 -136 -146 -117 -140 0
-152 -136 -155 -117 -140 0
-152 -146 -155 -117 -150 0
-143 -136 -146 -129 -140 0
-152 -136 -155 -129 -140 0
-152 -146 -155 -129 -150 0
-152 -146 -155 -140 -150 0
-122 -113 -125 -105 -118 0
-133 -113 -136 -105 -118 0
-143 -113 -146 -105 -118 0
-152 -113 -155 -105 -118 0
-133 -125 -136 -105 -130 0
-143 -125 -146 -105 -130 0
-152 -125 -155 -105 -130 0
-143 -136 -146 -105 -141 0
-152 -136 -155 -105 -141 0
-152 -146 -155 -105 -151 0
-133 -125 -136 -118 -130 0
-143 -125 -146 -118 -130 0
-152 -125 -155 -118 -130 0
-143 -136 -146 -118 -141 0
-152 -136 -155 -118 -141 0
-152 -146 -155 -118 -151 0
-143 -136 -146 -130 -141 0
-152 -136 -155 -130 -141 0
-152 -146 -155 -130 -151 0
-152 -146 -155 -141 -151 0
-133 -125 -136 -92 -93 0
-143 -125 -146 -92 -93 0
-152 -125 -155 -92 -93 0
-143 -136 -146 -92 -94 0
-152 -136 -155 -92 -94 0
-152 -146 -155 -92 -95 0
-143 -136 -146 -93 -94 0
-152 -136 -155 -93 -94 0
-152 -146 -155 -93 -95 0
-152 -146 -155 -94 -95 0
-143 -136 -146 -106 -107 0
-152 -136 -155 -106 -107 0
-152 -146 -155 -106 -108 0
-152 -146 -155 -107 -108 0
-152 -146 -155 -119 -120 0
-168 -189 -190 -191 -192 0
-97 -189 -101 -191 -192 0
-110 -189 -114 -191 -192 0
-122 -189 -126 -191 -192 0
-133 -189 -137 -191 -192 0
-143 -189 -147 -191 -192 0
-152 -189 -156 -191 -192 0
-97 -190 -101 -191 -193 0
-110 -190 -114 -191 -193 0
-122 -190 -126 -191 -193 0
-133 -190 -137 -191 -193 0
-143 -190 -147 -191 -193 0
-152 -190 -156 -191 -193 0
-110 -101 -114 -191 -102 0
-122 -101 -126 -191 -102 0
-133 -101 -137 -191 -102 0
-143 -101 -147 -191 -102 0
-152 -101 -156 -191 -102 0
-122 -114 -126 -191 -115 0
-133 -114 -137 -191 -115 0
-143 -114 -147 -191 -115 0
-152 -114 -156 -191 -115 0
-133 -126 -137 -191 -127 0
-143 -126 -147 -191 -127 0
-152 -126 -156 -191 -127 0
-143 -137 -147 -191 -138 0
-152 -137 -156 -191 -138 0
-152 -147 -156 -191 -148 0
-97 -190 -101 -192 -193 0
-110 -190 -114 -192 -193 0
-122 -190 -126 -192 -193 0
-133 -190 -137 -192 -193 0
-143 -190 -147 -192 -193 0
-152 -190 -156 -192 -193 0
-110 -101 -114 -192 -102 0
-122 -101 -126 -192 -102 0
-133 -101 -137 -192 -102 0
-143 -101 -147 -192 -102 0
-152 -101 -156 -192 -102 0
-122 -114 -126 -192 -115 0
-133 -114 -137 -192 -115 0
-143 -114 -147 -192 -115 0
-152 -114 -156 -192 -115 0
-133 -126 -137 -192 -127 0
-143 -126 -147 -192 -127 0
-152 -126 -156 -192 -127 0
-143 -137 -147 -192 -138 0
-152 -137 -156 -192 -138 0
-152 -147 -156 -192 -148 0
-110 -101 -114 -193 -102 0
-122 -101 -126 -193 -102 0
-133 -101 -137 -193 -102 0
-143 -101 -147 -193 -102 0
-152 -101 -156 -193 -102 0
-122 -114 -126 -193 -115 0
-133 -114 -137 -193 -115 0
-143 -114 -147 -193 -115 0
-152 -114 -156 -193 -115 0
-133 -126 -137 -193 -127 0
-143 -126 -147 -193 -127 0
-152 -126 -156 -193 -127 0
-143 -137 -147 -193 -138 0
-152 -137 -156 -193 -138 0
-152 -147 -156 -193 -148 0
-122 -114 -126 -102 -115 0
-133 -114 -137 -102 -115 0
-143 -114 -147 -102 -115 0
-152 -114 -156 -102 -115 0
-133 -126 -137 -102 -127 0
-143 -126 -147 -102 -127 0
-152 -126 -156 -102 -127 0
-143 -137 -147 -102 -138 0
-152 -137 -156 -102 -138 0
-152 -147 -156 -102 -148 0
-133 -126 -137 -115 -127 0
-143 -126 -147 -115 -127 0
-152 -126 -156 -115 -127 0
-143 -137 -147 -115 -138 0
-152 -137 -156 -115 -138 0
-152 -147 -156 -115 -148 0
-143 -137 -147 -127 -138 0
-152 -137 -156 -127 -138 0
-152 -147 -156 -127 -148 0
-152 -147 -156 -138 -148 0
-97 -190 -101 -194 -195 0
-110 -190 -114 -194 -195 0
-122 -190 -126 -194 -195 0
-133 -190 -137 -194 -195 0
-143 -190 -147 -194 -195 0
-152 -190 -156 -194 -195 0
-110 -101 -114 -194 -103 0
-122 -101 -126 -194 -103 0
-133 -101 -137 -194 -103 0
-143 -101 -147 -194 -103 0
-152 -101 -156 -194 -103 0
-122 -114 -126 -194 -116 0
-133 -114 -137 -194 -116 0
-143 -114 -147 -194 -116 0
-152 -114 -156 -194 -116 0
-133 -126 -137 -194 -128 0
-143 -126 -147 -194 -128 0
-152 -126 -156 -194 -128 0
-143 -137 -147 -194 -139 0
-152 -137 -156 -194 -139 0
-152 -147 -156 -194 -149 0
-110 -101 -114 -195 -103 0
-122 -101 -126 -195 -103 0
-133 -101 -137 -195 -103 0
-143 -101 -147 -195 -103 0
-152 -101 -156 -195 -103 0
-122 -114 -126 -195 -116 0
-133 -114 -137 -195 -116 0
-143 -114 -147 -195 -116 0
-152 -114 -156 -195 -116 0
-133 -126 -137 -195 -128 0
-143 -126 -147 -195 -128 0
-152 -126 -156 -195 -128 0
-143 -137 -147 -195 -139 0
-152 -137 -156 -195 -139 0
-152 -147 -156 -195 -149 0
-122 -114 -126 -103 -116 0
-133 -114 -137 -103 -116 0
-143 -114 -147 -103 -116 0
-152 -114 -156 -103 -116 0
-133 -126 -137 -103 -128 0
-143 -126 -147 -103 -128 0
-152 -126 -156 -103 -128 0
-143 -137 -147 -103 -139 0
-152 -137 -156 -103 -139 0
-152 -147 -156 -103 -149 0
-133 -126 -137 -116 -128 0
-143 -126 -147 -116 -128 0
-152 -126 -156 -116 -128 0
-143 -137 -147 -116 -139 0
-152 -137 -156 -116 -139 0
-152 -147 -156 -116 -149 0
-143 -137 -147 -128 -139 0
-152 -137 -156 -128 -139 0
-152 -147 -156 -128 -149 0
-152 -147 -156 -139 -149 0
-110 -101 -114 -196 -104 0
-122 -101 -126 -196 -104 0
-133 -101 -137 -196 -104 0
-143 -101 -147 -196 -104 0
-152 -101 -156 -196 -104 0
-122 -114 -126 -196 -117 0
-133 -114 -137 -196 -117 0
-143 -114 -147 -196 -117 0
-152 -114 -156 -196 -117 0
-133 -126 -137 -196 -129 0
-143 -126 -147 -196 -129 0
-152 -126 -156 -196 -129 0
-143 -137 -147 -196 -140 0
-152 -137 -156 -196 -140 0
-152 -147 -156 -196 -150 0
-122 -114 -126 -104 -117 0
-133 -114 -137 -104 -117 0
-143 -114 -147 -104 -117 0
-152 -114 -156 -104 -117 0
-133 -126 -137 -104 -129 0
-143 -126 -147 -104 -129 0
-152 -126 -156 -104 -129 0
-143 -137 -147 -104 -140 0
-152 -137 -156 -104 -140 0
-152 -147 -156 -104 -150 0
-133 -126 -137 -117 -129 0
-143 -126 -147 -117 -129 0
-152 -126 -156 -117 -129 0
-143 -137 -147 -117 -140 0
-152 -137 -156 -117 -140 0
-152 -147 -156 -117 -150 0
-143 -137 -147 -129 -140 0
-152 -137 -156 -129 -140 0
-152 -147 -156 -129 -150 0
-152 -147 -156 -140 -150 0
-122 -114 -126 -105 -118 0
-133 -114 -137 -105 -118 0
-143 -114 -147 -105 -118 0
-152 -114 -156 -105 -118 0
-133 -126 -137 -105 -130 0
-143 -126 -147 -105 -130 0
-152 -126 -156 -105 -130 0
-143 -137 -147 -105 -141 0
-152 -137 -156 -105 -141 0
-152 -147 -156 -105 -151 0
-133 -126 -137 -118 -130 0
-143 -126 -147 -118 -130 0
-152 -126 -156 -118 -130 0
-143 -137 -147 -118 -141 0
-152 -137 -156 -118 -141 0
-152 -147 -156 -118 -151 0
-143 -137 -147 -130 -141 0
-152 -137 -156 -130 -141 0
-152 -147 -156 -130 -151 0
-152 -147 -156 -141 -151 0
-133 -126 -137 -92 -93 0
-143 -126 -147 -92 -93 0
-152 -126 -156 -92 -93 0
-143 -137 -147 -92 -94 0
-152 -137 -156 -92 -94 0
-152 -147 -156 -92 -95 0
-143 -137 -147 -93 -94 0
-152 -137 -156 -93 -94 0
-152 -147 -156 -93 -95 0
-152 -147 -156 -94 -95 0
-143 -137 -147 -106 -107 0
-152 -137 -156 -106 -107 0
-152 -147 -156 -106 -108 0
-152 -147 -156 -107 -108 0
-152 -147 -156 -119 -120 0
-97 -193 -102 -194 -195 0
-110 -193 -115 -194 -195 0
-122 -193 -127 -194 -195 0
-133 -193 -138 -194 -195 0
-143 -193 -148 -194 -195 0
-152 -193 -157 -194 -195 0
-110 -102 -115 -194 -103 0
-122 -102 -127 -194 -103 0
-133 -102 -138 -194 -103 0
-143 -102 -148 -194 -103 0
-152 -102 -157 -194 -103 0
-122 -115 -127 -194 -116 0
-133 -115 -138 -194 -116 0
-143 -115 -148 -194 -116 0
-152 -115 -157 -194 -116 0
-133 -127 -138 -194 -128 0
-143 -127 -148 -194 -128 0
-152 -127 -157 -194 -128 0
-143 -138 -148 -194 -139 0
-152 -138 -157 -194 -139 0
-152 -148 -157 -194 -149 0
-110 -102 -115 -195 -103 0
-122 -102 -127 -195 -103 0
-133 -102 -138 -195 -103 0
-143 -102 -148 -195 -103 0
-152 -102 -157 -195 -103 0
-122 -115 -127 -195 -116 0
-133 -115 -138 -195 -116 0
-143 -115 -148 -195 -116 0
-152 -115 -157 -195 -116 0
-133 -127 -138 -195 -128 0
-143 -127 -148 -195 -128 0
-152 -127 -157 -195 -128 0
-143 -138 -148 -195 -139 0
-152 -138 -157 -195 -139 0
-152 -148 -157 -195 -149 0
-122 -115 -127 -103 -116 0
-133 -115 -138 -103 -116 0
-143 -115 -148 -103 -116 0
-152 -115 -157 -103 -116 0
-133 -127 -138 -103 -128 0
-143 -127 -148 -103 -128 0
-152 -127 -157 -103 -128 0
-143 -138 -148 -103 -139 0
-152 -138 -157 -103 -139 0
-152 -148 -157 -103 -149 0
-133 -127 -138 -116 -128 0
-143 -127 -148 -116 -128 0
-152 -127 -157 -116 -128 0
-143 -138 -148 -116 -139 0
-152 -138 -157 -116 -139 0
-152 -148 -157 -116 -149 0
-143 -138 -148 -128 -139 0
-152 -138 -157 -128 -139 0
-152 -148 -157 -128 -149 0
-152 -148 -157 -139 -149 0
-110 -102 -115 -196 -104 0
-122 -102 -127 -196 -104 0
-133 -102 -138 -196 -104 0
-143 -102 -148 -196 -104 0
-152 -102 -157 -196 -104 0
-122 -115 -127 -196 -117 0
-133 -115 -138 -196 -117 0
-143 -115 -148 -196 -117 0
-152 -115 -157 -196 -117 0
-133 -127 -138 -196 -129 0
-143 -127 -148 -196 -129 0
-152 -127 -157 -196 -129 0
-143 -138 -148 -196 -140 0
-152 -138 -157 -196 -140 0
-152 -148 -157 -196 -150 0
-122 -115 -127 -104 -117 0
-133 -115 -138 -104 -117 0
-143 -115 -148 -104 -117 0
-152 -115 -157 -104 -117 0
-133 -127 -138 -104 -129 0
-143 -127 -148 -104 -129 0
-152 -127 -157 -104 -129 0
-143 -138 -148 -104 -140 0
-152 -138 -157 -104 -140 0
-152 -148 -157 -104 -150 0
-133 -127 -138 -117 -129 0
-143 -127 -148 -117 -129 0
-152 -127 -157 -117 -129 0
-143 -138 -148 -117 -140 0
-152 -138 -157 -117 -140 0
-152 -148 -157 -117 -150 0
-143 -138 -148 -129 -140 0
-152 -138 -157 -129 -140 0
-152 -148 -157 -129 -150 0
-152 -148 -157 -140 -150 0
-122 -115 -127 -105 -118 0
-133 -115 -138 -105 -118 0
-143 -115 -148 -105 -118 0
-152 -115 -157 -105 -118 0
-133 -127 -138 -105 -130 0
-143 -127 -148 -105 -130 0
-152 -127 -157 -105 -130 0
-143 -138 -148 -105 -141 0
-152 -138 -157 -105 -141 0
-152 -148 -157 -105 -151 0
-133 -127 -138 -118 -130 0
-143 -127 -148 -118 -130 0
-152 -127 -157 -118 -130 0
-143 -138 -148 -118 -141 0
-152 -138 -157 -118 -141 0
-152 -148 -157 -118 -151 0
-143 -138 -148 -130 -141 0
-152 -138 -157 -130 -141 0
-152 -148 -157 -130 -151 0
-152 -148 -157 -141 -151 0
-133 -127 -138 -92 -93 0
-143 -127 -148 -92 -93 0
-152 -127 -157 -92 -93 0
-143 -138 -148 -92 -94 0
-152 -138 -157 -92 -94 0
-152 -148 -157 -92 -95 0
-143 -138 -148 -93 -94 0
-152 -138 -157 -93 -94 0
-152 -148 -157 -93 -95 0
-152 -148 -157 -94 -95 0
-143 -138 -148 -106 -107 0
-152 -138 -157 -106 -107 0
-152 -148 -157 -106 -108 0
-152 -148 -157 -107 -108 0
-152 -148 -157 -119 -120 0
-110 -103 -116 -196 -104 0
-122 -103 -128 -196 -104 0
-133 -103 -139 -196 -104 0
-143 -103 -149 -196 -104 0
-152 -103 -158 -196 -104 0
-122 -116 -128 -196 -117 0
-133 -116 -139 -196 -117 0
-143 -116 -149 -196 -117 0
-152 -116 -158 -196 -117 0
-133 -128 -139 -196 -129 0
-143 -128 -149 -196 -129 0
-152 -128 -158 -196 -129 0
-143 -139 -149 -196 -140 0
-152 -139 -158 -196 -140 0
-152 -149 -158 -196 -150 0
-122 -116 -128 -104 -117 0
-133 -116 -139 -104 -117 0
-143 -116 -149 -104 -117 0
-152 -116 -158 -104 -117 0
-133 -128 -139 -104 -129 0
-143 -128 -149 -104 -129 0
-152 -128 -158 -104 -129 0
-143 -139 -149 -104 -140 0
-152 -139 -158 -104 -140 0
-152 -149 -158 -104 -150 0
-133 -128 -139 -117 -129 0
-143 -128 -149 -117 -129 0
-152 -128 -158 -117 -129 0
-143 -139 -149 -117 -140 0
-152 -139 -158 -117 -140 0
-152 -149 -158 -117 -150 0
-143 -139 -149 -129 -140 0
-152 -139 -158 -129 -140 0
-152 -149 -158 -129 -150 0
-152 -149 -158 -140 -150 0
-122 -116 -128 -105 -118 0
-133 -116 -139 -105 -118 0
-143 -116 -149 -105 -118 0
-152 -116 -158 -105 -118 0
-133 -128 -139 -105 -130 0
-143 -128 -149 -105 -130 0
-152 -128 -158 -105 -130 0
-143 -139 -149 -105 -141 0
-152 -139 -158 -105 -141 0
-152 -149 -158 -105 -151 0
-133 -128 -139 -118 -130 0
-143 -128 -149 -118 -130 0
-152 -128 -158 -118 -130 0
-143 -139 -149 -118 -141 0
-152 -139 -158 -118 -141 0
-152 -149 -158 -118 -151 0
-143 -139 -149 -130 -141 0
-152 -139 -158 -130 -141 0
-152 -149 -158 -130 -151 0
-152 -149 -158 -141 -151 0
-133 -128 -139 -92 -93 0
-143 -128 -149 -92 -93 0
-152 -128 -158 -92 -93 0
-143 -139 -149 -92 -94 0
-152 -139 -158 -92 -94 0
-152 -149 -158 -92 -95 0
-143 -139 -149 -93 -94 0
-152 -139 -158 -93 -94 0
-152 -149 -158 -93 -95 0
-152 -149 -158 -94 -95 0
-143 -139 -149 -106 -107 0
-152 -139 -158 -106 -107 0
-152 -149 -158 -106 -108 0
-152 -149 -158 -107 -108 0
-152 -149 -158 -119 -120 0
-122 -117 -129 -105 -118 0
-133 -117 -140 -105 -118 0
-143 -117 -150 -105 -118 0
-152 -117 -159 -105 -118 0
-133 -129 -140 -105 -130 0
-143 -129 -150 -105 -130 0
-152 -129 -159 -105 -130 0
-143 -140 -150 -105 -141 0
-152 -140 -159 -105 -141 0
-152 -150 -159 -105 -151 0
-133 -129 -140 -118 -130 0
-143 -129 -150 -118 -130 0
-152 -129 -159 -118 -130 0
-143 -140 -150 -118 -141 0
-152 -140 -159 -118 -141 0
-152 -150 -159 -118 -151 0
-143 -140 -150 -130 -141 0
-152 -140 -159 -130 -141 0
-152 -150 -159 -130 -151 0
-152 -150 -159 -141 -151 0
-133 -129 -140 -92 -93 0
-143 -129 -150 -92 -93 0
-152 -129 -159 -92 -93 0
-143 -140 -150 -92 -94 0
-152 -140 -159 -92 -94 0
-152 -150 -159 -92 -95 0
-143 -140 -150 -93 -94 0
-152 -140 -159 -93 -94 0
-152 -150 -159 -93 -95 0
-152 -150 -159 -94 -95 0
-143 -140 -150 -106 -107 0
-152 -140 -159 -106 -107 0
-152 -150 -159 -106 -108 0
-152 -150 -159 -107 -108 0
-152 -150 -159 -119 -120 0
-133 -130 -141 -92 -93 0
-143 -130 -151 -92 -93 0
-152 -130 -160 -92 -93 0
-143 -141 -151 -92 -94 0
-152 -141 -160 -92 -94 0
-152 -151 -160 -92 -95 0
-143 -141 -151 -93 -94 0
-152 -141 -160 -93 -94 0
-152 -151 -160 -93 -95 0
-152 -151 -160 -94 -95 0
-143 -141 -151 -106 -107 0
-152 -141 -160 -106 -107 0
-152 -151 -160 -106 -108 0
-152 -151 -160 -107 -108 0
-152 -151 -160 -119 -120 0
-143 -94 -95 -106 -107 0
-152 -94 -96 -106 -107 0
-152 -95 -96 -106 -108 0
-152 -95 -96 -107 -108 0
-152 -95 -96 -119 -120 0
-152 -108 -109 -119 -120 0
-173 -178 -179 -182 -183 0
-174 -178 -180 -182 -183 0
-175 -178 -181 -182 -183 0
-98 -178 -99 -182 -183 0
-111 -178 -112 -182 -183 0
-123 -178 -124 -182 -183 0
-134 -178 -135 -182 -183 0
-144 -178 -145 -182 -183 0
-153 -178 -154 -182 -183 0
-161 -178 -162 -182 -183 0
-174 -179 -180 -182 -184 0
-175 -179 -181 -182 -184 0
-98 -179 -99 -182 -184 0
-111 -179 -112 -182 -184 0
-123 -179 -124 -182 -184 0
-134 -179 -135 -182 -184 0
-144 -179 -145 -182 -184 0
-153 -179 -154 -182 -184 0
-161 -179 -162 -182 -184 0
-175 -180 -181 -182 -185 0
-98 -180 -99 -182 -185 0
-111 -180 -112 -182 -185 0
-123 -180 -124 -182 -185 0
-134 -180 -135 -182 -185 0
-144 -180 -145 -182 -185 0
-153 -180 -154 -182 -185 0
-161 -180 -162 -182 -185 0
-98 -181 -99 -182 -186 0
-111 -181 -112 -182 -186 0
-123 -181 -124 -182 -186 0
-134 -181 -135 -182 -186 0
-144 -181 -145 -182 -186 0
-153 -181 -154 -182 -186 0
-161 -181 -162 -182 -186 0
-111 -99 -112 -182 -100 0
-123 -99 -124 -182 -100 0
-134 -99 -135 -182 -100 0
-144 -99 -145 -182 -100 0
-153 -99 -154 -182 -100 0
-161 -99 -162 -182 -100 0
-123 -112 -124 -182 -113 0
-134 -112 -135 -182 -113 0
-144 -112 -145 -182 -113 0
-153 -112 -154 -182 -113 0
-161 -112 -162 -182 -113 0
-134 -124 -135 -182 -125 0
-144 -124 -145 -182 -125 0
-153 -124 -154 -182 -125 0
-161 -124 -162 -182 -125 0
-144 -135 -145 -182 -136 0
-153 -135 -154 -182 -136 0
-161 -135 -162 -182 -136 0
-153 -145 -154 -182 -146 0
-161 -145 -162 -182 -146 0
-161 -154 -162 -182 -155 0
-174 -179 -180 -183 -184 0
-175 -179 -181 -183 -184 0
-98 -179 -99 -183 -184 0
-111 -179 -112 -183 -184 0
-123 -179 -124 -183 -184 0
-134 -179 -135 -183 -184 0
-144 -179 -145 -183 -184 0
-153 -179 -154 -183 -184 0
-161 -179 -162 -183 -184 0
-175 -180 -181 -183 -185 0
-98 -180 -99 -183 -185 0
-111 -180 -112 -183 -185 0
-123 -180 -124 -183 -185 0
-134 -180 -135 -183 -185 0
-144 -180 -145 -183 -185 0
-153 -180 -154 -183 -185 0
-161 -180 -162 -183 -185 0
-98 -181 -99 -183 -186 0
-111 -181 -112 -183 -186 0
-123 -181 -124 -183 -186 0
-134 -181 -135 -183 -186 0
-144 -181 -145 -183 -186 0
-153 -181 -154 -183 -186 0
-161 -181 -162 -183 -186 0
-111 -99 -112 -183 -100 0
-123 -99 -124 -183 -100 0
-134 -99 -135 -183 -100 0
-144 -99 -145 -183 -100 0
-153 -99 -154 -183 -100 0
-161 -99 -162 -183 -100 0
-123 -112 -124 -183 -113 0
-134 -112 -135 -183 -113 0
-144 -112 -145 -183 -113 0
-153 -112 -154 -183 -113 0
-161 -112 -162 -183 -113 0
-134 -124 -135 -183 -125 0
-144 -124 -145 -183 -125 0
-153 -124 -154 -183 -125 0
-161 -124 -162 -183 -125 0
-144 -135 -145 -183 -136 0
-153 -135 -154 -183 -136 0
-161 -135 -162 -183 -136 0
-153 -145 -154 -183 -146 0
-161 -145 -162 -183 -146 0
-161 -154 -162 -183 -155 0
-175 -180 -181 -184 -185 0
-98 -180 -99 -184 -185 0
-111 -180 -112 -184 -185 0
-123 -180 -124 -184 -185 0
-134 -180 -135 -184 -185 0
-144 -180 -145 -184 -185 0
-153 -180 -154 -184 -185 0
-161 -180 -162 -184 -185 0
-98 -181 -99 -184 -186 0
-111 -181 -112 -184 -186 0
-123 -181 -124 -184 -186 0
-134 -181 -135 -184 -186 0
-144 -181 -145 -184 -186 0
-153 -181 -154 -184 -186 0
-161 -181 -162 -184 -186 0
-111 -99 -112 -184 -100 0
-123 -99 -124 -184 -100 0
-134 -99 -135 -184 -100 0
-144 -99 -145 -184 -100 0
-153 -99 -154 -184 -100 0
-161 -99 -162 -184 -100 0
-123 -112 -124 -184 -113 0
-134 -112 -135 -184 -113 0
-144 -112 -145 -184 -113 0
-153 -112 -154 -184 -113 0
-161 -112 -162 -184 -113 0
-134 -124 -135 -184 -125 0
-144 -124 -145 -184 -125 0
-153 -124 -154 -184 -125 0
-161 -124 -162 -184 -125 0
-144 -135 -145 -184 -136 0
-153 -135 -154 -184 -136 0
-161 -135 -162 -184 -136 0
-153 -145 -154 -184 -146 0
-161 -145 -162 -184 -146 0
-161 -154 -162 -184 -155 0
-98 -181 -99 -185 -186 0
-111 -181 -112 -185 -186 0
-123 -181 -124 -185 -186 0
-134 -181 -135 -185 -186 0
-144 -181 -145 -185 -186 0
-153 -181 -154 -185 -186 0
-161 -181 -162 -185 -186 0
-111 -99 -112 -185 -100 0
-123 -99 -124 -185 -100 0
-134 -99 -135 -185 -100 0
-144 -99 -145 -185 -100 0
-153 -99 -154 -185 -100 0
-161 -99 -162 -185 -100 0
-123 -112 -124 -185 -113 0
-134 -112 -135 -185 -113 0
-144 -112 -145 -185 -113 0
-153 -112 -154 -185 -113 0
-161 -112 -162 -185 -113 0
-134 -124 -135 -185 -125 0
-144 -124 -145 -185 -125 0
-153 -124 -154 -185 -125 0
-161 -124 -162 -185 -125 0
-144 -135 -145 -185 -136 0
-153 -135 -154 -185 -136 0
-161 -135 -162 -185 -136 0
-153 -145 -154 -185 -146 0
-161 -145 -162 -185 -146 0
-161 -154 -162 -185 -155 0
-111 -99 -112 -186 -100 0
-123 -99 -124 -186 -100 0
-134 -99 -135 -186 -100 0
-144 -99 -145 -186 -100 0
-153 -99 -154 -186 -100 0
-161 -99 -162 -186 -100 0
-123 -112 -124 -186 -113 0
-134 -112 -135 -186 -113 0
-144 -112 -145 -186 -113 0
-153 -112 -154 -186 -113 0
-161 -112 -162 -186 -113 0
-134 -124 -135 -186 -125 0
-144 -124 -145 -186 -125 0
-153 -124 -154 -186 -125 0
-161 -124 -162 -186 -125 0
-144 -135 -145 -186 -136 0
-153 -135 -154 -186 -136 0
-161 -135 -162 -186 -136 0
-153 -145 -154 -186 -146 0
-161 -145 -162 -186 -146 0
-161 -154 -162 -186 -155 0
-123 -112 -124 -100 -113 0
-134 -112 -135 -100 -113 0
-144 -112 -145 -100 -113 0
-153 -112 -154 -100 -113 0
-161 -112 -162 -100 -113 0
-134 -124 -135 -100 -125 0
-144 -124 -145 -100 -125 0
-153 -124 -154 -100 -125 0
-161 -124 -162 -100 -125 0
-144 -135 -145 -100 -136 0
-153 -135 -154 -100 -136 0
-161 -135 -162 -100 -136 0
-153 -145 -154 -100 -146 0
-161 -145 -162 -100 -146 0
-161 -154 -162 -100 -155 0
-134 -124 -135 -113 -125 0
-144 -124 -145 -113 -125 0
-153 -124 -154 -113 -125 0
-161 -124 -162 -113 -125 0
-144 -135 -145 -113 -136 0
-153 -135 -154 -113 -136 0
-161 -135 -162 -113 -136 0
-153 -145 -154 -113 -146 0
-161 -145 -162 -113 -146 0
-161 -154 -162 -113 -155 0
-144 -135 -145 -125 -136 0
-153 -135 -154 -125 -136 0
-161 -135 -162 -125 -136 0
-153 -145 -154 -125 -146 0
-161 -145 -162 -125 -146 0
-161 -154 -162 -125 -155 0
-153 -145 -154 -136 -146 0
-161 -145 -162 -136 -146 0
-161 -154 -162 -136 -155 0
-161 -154 -162 -146 -155 0
-174 -179 -180 -187 -188 0
-175 -179 -181 -187 -188 0
-98 -179 -99 -187 -188 0
-111 -179 -112 -187 -188 0
-123 -179 -124 -187 -188 0
-134 -179 -135 -187 -188 0
-144 -179 -145 -187 -188 0
-153 -179 -154 -187 -188 0
-161 -179 -162 -187 -188 0
-175 -180 -181 -187 -189 0
-98 -180 -99 -187 -189 0
-111 -180 -112 -187 -189 0
-123 -180 -124 -187 -189 0
-134 -180 -135 -187 -189 0
-144 -180 -145 -187 -189 0
-153 -180 -154 -187 -189 0
-161 -180 -162 -187 -189 0
-98 -181 -99 -187 -190 0
-111 -181 -112 -187 -190 0
-123 -181 -124 -187 -190 0
-134 -181 -135 -187 -190 0
-144 -181 -145 -187 -190 0
-153 -181 -154 -187 -190 0
-161 -181 -162 -187 -190 0
-111 -99 -112 -187 -101 0
-123 -99 -124 -187 -101 0
-134 -99 -135 -187 -101 0
-144 -99 -145 -187 -101 0
-153 -99 -154 -187 -101 0
-161 -99 -162 -187 -101 0
-123 -112 -124 -187 -114 0
-134 -112 -135 -187 -114 0
-144 -112 -145 -187 -114 0
-153 -112 -154 -187 -114 0
-161 -112 -162 -187 -114 0
-134 -124 -135 -187 -126 0
-144 -124 -145 -187 -126 0
-153 -124 -154 -187 -126 0
-161 -124 -162 -187 -126 0
-144 -135 -145 -187 -137 0
-153 -135 -154 -187 -137 0
-161 -135 -162 -187 -137 0
-153 -145 -154 -187 -147 0
-161 -145 -162 -187 -147 0
-161 -154 -162 -187 -156 0
-175 -180 -181 -188 -189 0
-98 -180 -99 -188 -189 0
-111 -180 -112 -188 -189 0
-123 -180 -124 -188 -189 0
-134 -180 -135 -188 -189 0
-144 -180 -145 -188 -189 0
-153 -180 -154 -188 -189 0
-161 -180 -162 -188 -189 0
-98 -181 -99 -188 -190 0
-111 -181 -112 -188 -190 0
-123 -181 -124 -188 -190 0
-134 -181 -135 -188 -190 0
-144 -181 -145 -188 -190 0
-153 -181 -154 -188 -190 0
-161 -181 -162 -188 -190 0
-111 -99 -112 -188 -101 0
-123 -99 -124 -188 -101 0
-134 -99 -135 -188 -101 0
-144 -99 -145 -188 -101 0
-153 -99 -154 -188 -101 0
-161 -99 -162 -188 -101 0
-123 -112 -124 -188 -114 0
-134 -112 -135 -188 -114 0
-144 -112 -145 -188 -114 0
-153 -112 -154 -188 -114 0
-161 -112 -162 -188 -114 0
-134 -124 -135 -188 -126 0
-144 -124 -145 -188 -126 0
-153 -124 -154 -188 -126 0
-161 -124 -162 -188 -126 0
-144 -135 -145 -188 -137 0
-153 -135 -154 -188 -137 0
-161 -135 -162 -188 -137 0
-153 -145 -154 -188 -147 0
-161 -145 -162 -188 -147 0
-161 -154 -162 -188 -156 0
-98 -181 -99 -189 -190 0
-111 -181 -112 -189 -190 0
-123 -181 -124 -189 -190 0
-134 -181 -135 -189 -190 0
-144 -181 -145 -189 -190 0
-153 -181 -154 -189 -190 0
-161 -181 -162 -189 -190 0
-111 -99 -112 -189 -101 0
-123 -99 -124 -189 -101 0
-134 -99 -135 -189 -101 0
-144 -99 -145 -189 -101 0
-153 -99 -154 -189 -101 0
-161 -99 -162 -189 -101 0
-123 -112 -124 -189 -114 0
-134 -112 -135 -189 -114 0
-144 -112 -145 -189 -114 0
-153 -112 -154 -189 -114 0
-161 -112 -162 -189 -114 0
-134 -124 -135 -189 -126 0
-144 -124 -145 -189 -126 0
-153 -124 -154 -189 -126 0
-161 -124 -162 -189 -126 0
-144 -135 -145 -189 -137 0
-153 -135 -154 -189 -137 0
-161 -135 -162 -189 -137 0
-153 -145 -154 -189 -147 0
-161 -145 -162 -189 -147 0
-161 -154 -162 -189 -156 0
-111 -99 -112 -190 -101 0
-123 -99 -124 -190 -101 0
-134 -99 -135 -190 -101 0
-144 -99 -145 -190 -101 0
-153 -99 -154 -190 -101 0
-161 -99 -162 -190 -101 0
-123 -112 -124 -190 -114 0
-134 -112 -135 -190 -114 0
-144 -112 -145 -190 -114 0
-153 -112 -154 -190 -114 0
-161 -112 -162 -190 -114 0
-134 -124 -135 -190 -126 0
-144 -124 -145 -190 -126 0
-153 -124 -154 -190 -126 0
-161 -124 -162 -190 -126 0
-144 -135 -145 -190 -137 0
-153 -135 -154 -190 -137 0
-161 -135 -162 -190 -137 0
-153 -145 -154 -190 -147 0
-161 -145 -162 -190 -147 0
-161 -154 -162 -190 -156 0
-123 -112 -124 -101 -114 0
-134 -112 -135 -101 -114 0
-144 -112 -145 -101 -114 0
-153 -112 -154 -101 -114 0
-161 -112 -162 -101 -114 0
-134 -124 -135 -101 -126 0
-144 -124 -145 -101 -126 0
-153 -124 -154 -101 -126 0
-161 -124 -162 -101 -126 0
-144 -135 -145 -101 -137 0
-153 -135 -154 -101 -137 0
-161 -135 -162 -101 -137 0
-153 -145 -154 -101 -147 0
-161 -145 -162 -101 -147 0
-161 -154 -162 -101 -156 0
-134 -124 -135 -114 -126 0
-144 -124 -145 -114 -126 0
-153 -124 -154 -114 -126 0
-161 -124 -162 -114 -126 0
-144 -135 -145 -114 -137 0
-153 -135 -154 -114 -137 0
-161 -135 -162 -114 -137 0
-153 -145 -154 -114 -147 0
-161 -145 -162 -114 -147 0
-161 -154 -162 -114 -156 0
-144 -135 -145 -126 -137 0
-153 -135 -154 -126 -137 0
-161 -135 -162 -126 -137 0
-153 -145 -154 -126 -147 0
-161 -145 -162 -126 -147 0
-161 -154 -162 -126 -156 0
-153 -145 -154 -137 -147 0
-161 -145 -162 -137 -147 0
-161 -154 -162 -137 -156 0
-161 -154 -162 -147 -156 0
-175 -180 -181 -191 -192 0
-98 -180 -99 -191 -192 0
-111 -180 -112 -191 -192 0
-123 -180 -124 -191 -192 0
-134 -180 -135 -191 -192 0
-144 -180 -145 -191 -192 0
-153 -180 -154 -191 -192 0
-161 -180 -162 -191 -192 0
-98 -181 -99 -191 -193 0
-111 -181 -112 -191 -193 0
-123 -181 -124 -191 -193 0
-134 -181 -135 -191 -193 0
-144 -181 -145 -191 -193 0
-153 -181 -154 -191 -193 0
-161 -181 -162 -191 -193 0
-111 -99 -112 -191 -102 0
-123 -99 -124 -191 -102 0
-134 -99 -135 -191 -102 0
-144 -99 -145 -191 -102 0
-153 -99 -154 -191 -102 0
-161 -99 -162 -191 -102 0
-123 -112 -124 -191 -115 0
-134 -112 -135 -191 -115 0
-144 -112 -145 -191 -115 0
-153 -112 -154 -191 -115 0
-161 -112 -162 -191 -115 0
-134 -124 -135 -191 -127 0
-144 -124 -145 -191 -127 0
-153 -124 -154 -191 -127 0
-161 -124 -162 -191 -127 0
-144 -135 -145 -191 -138 0
-153 -135 -154 -191 -138 0
-161 -135 -162 -191 -138 0
-153 -145 -154 -191 -148 0
-161 -145 -162 -191 -148 0
-161 -154 -162 -191 -157 0
-98 -181 -99 -192 -193 0
-111 -181 -112 -192 -193 0
-123 -181 -124 -192 -193 0
-134 -181 -135 -192 -193 0
-144 -181 -145 -192 -193 0
-153 -181 -154 -192 -193 0
-161 -181 -162 -192 -193 0
-111 -99 -112 -192 -102 0
-123 -99 -124 -192 -102 0
-134 -99 -135 -192 -102 0
-144 -99 -145 -192 -102 0
-153 -99 -154 -192 -102 0
-161 -99 -162 -192 -102 0
-123 -112 -124 -192 -115 0
-134 -112 -135 -192 -115 0
-144 -112 -145 -192 -115 0
-153 -112 -154 -192 -115 0
-161 -112 -162 -192 -115 0
-134 -124 -135 -192 -127 0
-144 -124 -145 -192 -127 0
-153 -124 -154 -192 -127 0
-161 -124 -162 -192 -127 0
-144 -135 -145 -192 -138 0
-153 -135 -154 -192 -138 0
-161 -135 -162 -192 -138 0
-153 -145 -154 -192 -148 0
-161 -145 -162 -192 -148 0
-161 -154 -162 -192 -157 0
-111 -99 -112 -193 -102 0
-123 -99 -124 -193 -102 0
-134 -99 -135 -193 -102 0
-144 -99 -145 -193 -102 0
-153 -99 -154 -193 -102 0
-161 -99 -162 -193 -102 0
-123 -112 -124 -193 -115 0
-134 -112 -135 -193 -115 0
-144 -112 -145 -193 -115 0
-153 -112 -154 -193 -115 0
-161 -112 -162 -193 -115 0
-134 -124 -135 -193 -127 0
-144 -124 -145 -193 -127 0
-153 -124 -154 -193 -127 0
-161 -124 -162 -193 -127 0
-144 -135 -145 -193 -138 0
-153 -135 -154 -193 -138 0
-161 -135 -162 -193 -138 0
-153 -145 -154 -193 -148 0
-161 -145 -162 -193 -148 0
-161 -154 -162 -193 -157 0
-123 -112 -124 -102 -115 0
-134 -112 -135 -102 -115 0
-144 -112 -145 -102 -115 0
-153 -112 -154 -102 -115 0
-161 -112 -162 -102 -115 0
-134 -124 -135 -102 -127 0
-144 -124 -145 -102 -127 0
-153 -124 -154 -102 -127 0
-161 -124 -162 -102 -127 0
-144 -135 -145 -102 -138 0
-153 -135 -154 -102 -138 0
-161 -135 -162 -102 -138 0
-153 -145 -154 -102 -148 0
-161 -145 -162 -102 -148 0
-161 -154 -162 -102 -157 0
-134 -124 -135 -115 -127 0
-144 -124 -145 -115 -127 0
-153 -124 -154 -115 -127 0
-161 -124 -162 -115 -127 0
-144 -135 -145 -115 -138 0
-153 -135 -154 -115 -138 0
-161 -135 -162 -115 -138 0
-153 -145 -154 -115 -148 0
-161 -145 -162 -115 -148 0
-161 -154 -162 -115 -157 0
-144 -135 -145 -127 -138 0
-153 -135 -154 -127 -138 0
-161 -135 -162 -127 -138 0
-153 -145 -154 -127 -148 0
-161 -145 -162 -127 -148 0
-161 -154 -162 -127 -157 0
-153 -145 -154 -138 -148 0
-161 -145 -162 -138 -148 0
-161 -154 -162 -138 -157 0
-161 -154 -162 -148 -157 0
-98 -181 -99 -194 -195 0
-111 -181 -112 -194 -195 0
-123 -181 -124 -194 -195 0
-134 -181 -135 -194 -195 0
-144 -181 -145 -194 -195 0
-153 -181 -154 -194 -195 0
-161 -181 -162 -194 -195 0
-111 -99 -112 -194 -103 0
-123 -99 -124 -194 -103 0
-134 -99 -135 -194 -103 0
-144 -99 -145 -194 -103 0
-153 -99 -154 -194 -103 0
-161 -99 -162 -194 -103 0
-123 -112 -124 -194 -116 0
-134 -112 -135 -194 -116 0
-144 -112 -145 -194 -116 0
-153 -112 -154 -194 -116 0
-161 -112 -162 -194 -116 0
-134 -124 -135 -194 -128 0
-144 -124 -145 -194 -128 0
-153 -124 -154 -194 -128 0
-161 -124 -162 -194 -128 0
-144 -135 -145 -194 -139 0
-153 -135 -154 -194 -139 0
-161 -135 -162 -194 -139 0
-153 -145 -154 -194 -149 0
-161 -145 -162 -194 -149 0
-161 -154 -162 -194 -158 0
-111 -99 -112 -195 -103 0
-123 -99 -124 -195 -103 0
-134 -99 -135 -195 -103 0
-144 -99 -145 -195 -103 0
-153 -99 -154 -195 -103 0
-161 -99 -162 -195 -103 0
-123 -112 -124 -195 -116 0
-134 -112 -135 -195 -116 0
-144 -112 -145 -195 -116 0
-153 -112 -154 -195 -116 0
-161 -112 -162 -195 -116 0
-134 -124 -135 -195 -128 0
-144 -124 -145 -195 -128 0
-153 -124 -154 -195 -128 0
-161 -124 -162 -195 -128 0
-144 -135 -145 -195 -139 0
-153 -135 -154 -195 -139 0
-161 -135 -162 -195 -139 0
-153 -145 -154 -195 -149 0
-161 -145 -162 -195 -149 0
-161 -154 -162 -195 -158 0
-123 -112 -124 -103 -116 0
-134 -112 -135 -103 -116 0
-144 -112 -145 -103 -116 0
-153 -112 -154 -103 -116 0
-161 -112 -162 -103 -116 0
-134 -124 -135 -103 -128 0
-144 -124 -145 -103 -128 0
-153 -124 -154 -103 -128 0
-161 -124 -162 -103 -128 0
-144 -135 -145 -103 -139 0
-153 -135 -154 -103 -139 0
-161 -135 -162 -103 -139 0
-153 -145 -154 -103 -149 0
-161 -145 -162 -103 -149 0
-161 -154 -162 -103 -158 0
-134 -124 -135 -116 -128 0
-144 -124 -145 -116 -128 0
-153 -124 -154 -116 -128 0
-161 -124 -162 -116 -128 0
-144 -135 -145 -116 -139 0
-153 -135 -154 -116 -139 0
-161 -135 -162 -116 -139 0
-153 -145 -154 -116 -149 0
-161 -145 -162 -116 -149 0
-161 -154 -162 -116 -158 0
-144 -135 -145 -128 -139 0
-153 -135 -154 -128 -139 0
-161 -135 -162 -128 -139 0
-153 -145 -154 -128 -149 0
-161 -145 -162 -128 -149 0
-161 -154 -162 -128 -158 0
-153 -145 -154 -139 -149 0
-161 -145 -162 -139 -149 0
-161 -154 -162 -139 -158 0
-161 -154 -162 -149 -158 0
-111 -99 -112 -196 -104 0
-123 -99 -124 -196 -104 0
-134 -99 -135 -196 -104 0
-144 -99 -145 -196 -104 0
-153 -99 -154 -196 -104 0
-161 -99 -162 -196 -104 0
-123 -112 -124 -196 -117 0
-134 -112 -135 -196 -117 0
-144 -112 -145 -196 -117 0
-153 -112 -154 -196 -117 0
-161 -112 -162 -196 -117 0
-134 -124 -135 -196 -129 0
-144 -124 -145 -196 -129 0
-153 -124 -154 -196 -129 0
-161 -124 -162 -196 -129 0
-144 -135 -145 -196 -140 0
-153 -135 -154 -196 -140 0
-161 -135 -162 -196 -140 0
-153 -145 -154 -196 -150 0
-161 -145 -162 -196 -150 0
-161 -154 -162 -196 -159 0
-123 -112 -124 -104 -117 0
-134 -112 -135 -104 -117 0
-144 -112 -145 -104 -117 0
-153 -112 -154 -104 -117 0
-161 -112 -162 -104 -117 0
-134 -124 -135 -104 -129 0
-144 -124 -145 -104 -129 0
-153 -124 -154 -104 -129 0
-161 -124 -162 -104 -129 0
-144 -135 -145 -104 -140 0
-153 -135 -154 -104 -140 0
-161 -135 -162 -104 -140 0
-153 -145 -154 -104 -150 0
-161 -145 -162 -104 -150 0
-161 -154 -162 -104 -159 0
-134 -124 -135 -117 -129 0
-144 -124 -145 -117 -129 0
-153 -124 -154 -117 -129 0
-161 -124 -162 -117 -129 0
-144 -135 -145 -117 -140 0
-153 -135 -154 -117 -140 0
-161 -135 -162 -117 -140 0
-153 -145 -154 -117 -150 0
-161 -145 -162 -117 -150 0
-161 -154 -162 -117 -159 0
-144 -135 -145 -129 -140 0
-153 -135 -154 -129 -140 0
-161 -135 -162 -129 -140 0
-153 -145 -154 -129 -150 0
-161 -145 -162 -129 -150 0
-161 -154 -162 -129 -159 0
-153 -145 -154 -140 -150 0
-161 -145 -162 -140 -150 0
-161 -154 -162 -140 -159 0
-161 -154 -162 -150 -159 0
-123 -112 -124 -105 -118 0
-134 -112 -135 -105 -118 0
-144 -112 -145 -105 -118 0
-153 -112 -154 -105 -118 0
-161 -112 -162 -105 -118 0
-134 -124 -135 -105 -130 0
-144 -124 -145 -105 -130 0
-153 -124 -154 -105 -130 0
-161 -124 -162 -105 -130 0
-144 -135 -145 -105 -141 0
-153 -135 -154 -105 -141 0
-161 -135 -162 -105 -141 0
-153 -145 -154 -105 -151 0
-161 -145 -162 -105 -151 0
-161 -154 -162 -105 -160 0
-134 -124 -135 -118 -130 0
-144 -124 -145 -118 -130 0
-153 -124 -154 -118 -130 0
-161 -124 -162 -118 -130 0
-144 -135 -145 -118 -141 0
-153 -135 -154 -118 -141 0
-161 -135 -162 -118 -141 0
-153 -145 -154 -118 -151 0
-161 -145 -162 -118 -151 0
-161 -154 -162 -118 -160 0
-144 -135 -145 -130 -141 0
-153 -135 -154 -130 -141 0
-161 -135 -162 -130 -141 0
-153 -145 -154 -130 -151 0
-161 -145 -162 -130 -151 0
-161 -154 -162 -130 -160 0
-153 -145 -154 -141 -151 0
-161 -145 -162 -141 -151 0
-161 -154 -162 -141 -160 0
-161 -154 -162 -151 -160 0
-134 -124 -135 -92 -93 0
-144 -124 -145 -92 -93 0
-153 -124 -154 -92 -93 0
-161 -124 -162 -92 -93 0
-144 -135 -145 -92 -94 0
-153 -135 -154 -92 -94 0
-161 -135 -162 -92 -94 0
-153 -145 -154 -92 -95 0
-161 -145 -162 -92 -95 0
-161 -154 -162 -92 -96 0
-144 -135 -145 -93 -94 0
-153 -135 -154 -93 -94 0
-161 -135 -162 -93 -94 0
-153 -145 -154 -93 -95 0
-161 -145 -162 -93 -95 0
-161 -154 -162 -93 -96 0
-153 -145 -154 -94 -95 0
-161 -145 -162 -94 -95 0
-161 -154 -162 -94 -96 0
-161 -154 -162 -95 -96 0
-144 -135 -145 -106 -107 0
-153 -135 -154 -106 -107 0
-161 -135 -162 -106 -107 0
-153 -145 -154 -106 -108 0
-161 -145 -162 -106 -108 0
-161 -154 -162 -106 -109 0
-153 -145 -154 -107 -108 0
-161 -145 -162 -107 -108 0
-161 -154 -162 -107 -109 0
-161 -154 -162 -108 -109 0
-153 -145 -154 -119 -120 0
-161 -145 -162 -119 -120 0
-161 -154 -162 -119 -121 0
-161 -154 -162 -120 -121 0
-161 -154 -162 -131 -132 0
-174 -184 -185 -187 -188 0
-175 -184 -186 -187 -188 0
-98 -184 -100 -187 -188 0
-111 -184 -113 -187 -188 0
-123 -184 -125 -187 -188 0
-134 -184 -136 -187 -188 0
-144 -184 -146 -187 -188 0
-153 -184 -155 -187 -188 0
-161 -184 -163 -187 -188 0
-175 -185 -186 -187 -189 0
-98 -185 -100 -187 -189 0
-111 -185 -113 -187 -189 0
-123 -185 -125 -187 -189 0
-134 -185 -136 -187 -189 0
-144 -185 -146 -187 -189 0
-153 -185 -155 -187 -189 0
-161 -185 -163 -187 -189 0
-98 -186 -100 -187 -190 0
-111 -186 -113 -187 -190 0
-123 -186 -125 -187 -190 0
-134 -186 -136 -187 -190 0
-144 -186 -146 -187 -190 0
-153 -186 -155 -187 -190 0
-161 -186 -163 -187 -190 0
-111 -100 -113 -187 -101 0
-123 -100 -125 -187 -101 0
-134 -100 -136 -187 -101 0
-144 -100 -146 -187 -101 0
-153 -100 -155 -187 -101 0
-161 -100 -163 -187 -101 0
-123 -113 -125 -187 -114 0
-134 -113 -136 -187 -114 0
-144 -113 -146 -187 -114 0
-153 -113 -155 -187 -114 0
-161 -113 -163 -187 -114 0
-134 -125 -136 -187 -126 0
-144 -125 -146 -187 -126 0
-153 -125 -155 -187 -126 0
-161 -125 -163 -187 -126 0
-144 -136 -146 -187 -137 0
-153 -136 -155 -187 -137 0
-161 -136 -163 -187 -137 0
-153 -146 -155 -187 -147 0
-161 -146 -163 -187 -147 0
-161 -155 -163 -187 -156 0
-175 -185 -186 -188 -189 0
-98 -185 -100 -188 -189 0
-111 -185 -113 -188 -189 0
-123 -185 -125 -188 -189 0
-134 -185 -136 -188 -189 0
-144 -185 -146 -188 -189 0
-153 -185 -155 -188 -189 0
-161 -185 -163 -188 -189 0
-98 -186 -100 -188 -190 0
-111 -186 -113 -188 -190 0
-123 -186 -125 -188 -190 0
-134 -186 -136 -188 -190 0
-144 -186 -146 -188 -190 0
-153 -186 -155 -188 -190 0
-161 -186 -163 -188 -190 0
-111 -100 -113 -188 -101 0
-123 -100 -125 -188 -101 0
-134 -100 -136 -188 -101 0
-144 -100 -146 -188 -101 0
-153 -100 -155 -188 -101 0
-161 -100 -163 -188 -101 0
-123 -113 -125 -188 -114 0
-134 -113 -136 -188 -114 0
-144 -113 -146 -188 -114 0
-153 -113 -155 -188 -114 0
-161 -113 -163 -188 -114 0
-134 -125 -136 -188 -126 0
-144 -125 -146 -188 -126 0
-153 -125 -155 -188 -126 0
-161 -125 -163 -188 -126 0
-144 -136 -146 -188 -137 0
-153 -136 -155 -188 -137 0
-161 -136 -163 -188 -137 0
-153 -146 -155 -188 -147 0
-161 -146 -163 -188 -147 0
-161 -155 -163 -188 -156 0
-98 -186 -100 -189 -190 0
-111 -186 -113 -189 -190 0
-123 -186 -125 -189 -190 0
-134 -186 -136 -189 -190 0
-144 -186 -146 -189 -190 0
-153 -186 -155 -189 -190 0
-161 -186 -163 -189 -190 0
-111 -100 -113 -189 -101 0
-123 -100 -125 -189 -101 0
-134 -100 -136 -189 -101 0
-144 -100 -146 -189 -101 0
-153 -100 -155 -189 -101 0
-161 -100 -163 -189 -101 0
-123 -113 -125 -189 -114 0
-134 -113 -136 -189 -114 0
-144 -113 -146 -189 -114 0
-153 -113 -155 -189 -114 0
-161 -113 -163 -189 -114 0
-134 -125 -136 -189 -126 0
-144 -125 -146 -189 -126 0
-153 -125 -155 -189 -126 0
-161 -125 -163 -189 -126 0
-144 -136 -146 -189 -137 0
-153 -136 -155 -189 -137 0
-161 -136 -163 -189 -137 0
-153 -146 -155 -189 -147 0
-161 -146 -163 -189 -147 0
-161 -155 -163 -189 -156 0
-111 -100 -113 -190 -101 0
-123 -100 -125 -190 -101 0
-134 -100 -136 -190 -101 0
-144 -100 -146 -190 -101 0
-153 -100 -155 -190 -101 0
-161 -100 -163 -190 -101 0
-123 -113 -125 -190 -114 0
-134 -113 -136 -190 -114 0
-144 -113 -146 -190 -114 0
-153 -113 -155 -190 -114 0
-161 -113 -163 -190 -114 0
-134 -125 -136 -190 -126 0
-144 -125 -146 -190 -126 0
-153 -125 -155 -190 -126 0
-161 -125 -163 -190 -126 0
-144 -136 -146 -190 -137 0
-153 -136 -155 -190 -137 0
-161 -136 -163 -190 -137 0
-153 -146 -155 -190 -147 0
-161 -146 -163 -190 -147 0
-161 -155 -163 -190 -156 0
-123 -113 -125 -101 -114 0
-134 -113 -136 -101 -114 0
-144 -113 -146 -101 -114 0
-153 -113 -155 -101 -114 0
-161 -113 -163 -101 -114 0
-134 -125 -136 -101 -126 0
-144 -125 -146 -101 -126 0
-153 -125 -155 -101 -126 0
-161 -125 -163 -101 -126 0
-144 -136 -146 -101 -137 0
-153 -136 -155 -101 -137 0
-161 -136 -163 -101 -137 0
-153 -146 -155 -101 -147 0
-161 -146 -163 -101 -147 0
-161 -155 -163 -101 -156 0
-134 -125 -136 -114 -126 0
-144 -125 -146 -114 -126 0
-153 -125 -155 -114 -126 0
-161 -125 -163 -114 -126 0
-144 -136 -146 -114 -137 0
-153 -136 -155 -114 -137 0
-161 -136 -163 -114 -137 0
-153 -146 -155 -114 -147 0
-161 -146 -163 -114 -147 0
-161 -155 -163 -114 -156 0
-144 -136 -146 -126 -137 0
-153 -136 -155 -126 -137 0
-161 -136 -163 -126 -137 0
-153 -146 -155 -126 -147 0
-161 -146 -163 -126 -147 0
-161 -155 -163 -126 -156 0
-153 -146 -155 -137 -147 0
-161 -146 -163 -137 -147 0
-161 -155 -163 -137 -156 0
-161 -155 -163 -147 -156 0
-175 -185 -186 -191 -192 0
-98 -185 -100 -191 -192 0
-111 -185 -113 -191 -192 0
-123 -185 -125 -191 -192 0
-134 -185 -136 -191 -192 0
-144 -185 -146 -191 -192 0
-153 -185 -155 -191 -192 0
-161 -185 -163 -191 -192 0
-98 -186 -100 -191 -193 0
-111 -186 -113 -191 -193 0
-123 -186 -125 -191 -193 0
-134 -186 -136 -191 -193 0
-144 -186 -146 -191 -193 0
-153 -186 -155 -191 -193 0
-161 -186 -163 -191 -193 0
-111 -100 -113 -191 -102 0
-123 -100 -125 -191 -102 0
-134 -100 -136 -191 -102 0
-144 -100 -146 -191 -102 0
-153 -100 -155 -191 -102 0
-161 -100 -163 -191 -102 0
-123 -113 -125 -191 -115 0
-134 -113 -136 -191 -115 0
-144 -113 -146 -191 -115 0
-153 -113 -155 -191 -115 0
-161 -113 -163 -191 -115 0
-134 -125 -136 -191 -127 0
-144 -125 -146 -191 -127 0
-153 -125 -155 -191 -127 0
-161 -125 -163 -191 -127 0
-144 -136 -146 -191 -138 0
-153 -136 -155 -191 -138 0
-161 -136 -163 -191 -138 0
-153 -146 -155 -191 -148 0
-161 -146 -163 -191 -148 0
-161 -155 -163 -191 -157 0
-98 -186 -100 -192 -193 0
-111 -186 -113 -192 -193 0
-123 -186 -125 -192 -193 0
-134 -186 -136 -192 -193 0
-144 -186 -146 -192 -193 0
-153 -186 -155 -192 -193 0
-161 -186 -163 -192 -193 0
-111 -100 -113 -192 -102 0
-123 -100 -125 -192 -102 0
-134 -100 -136 -192 -102 0
-144 -100 -146 -192 -102 0
-153 -100 -155 -192 -102 0
-161 -100 -163 -192 -102 0
-123 -113 -125 -192 -115 0
-134 -113 -136 -192 -115 0
-144 -113 -146 -192 -115 0
-153 -113 -155 -192 -115 0
-161 -113 -163 -192 -115 0
-134 -125 -136 -192 -127 0
-144 -125 -146 -192 -127 0
-153 -125 -155 -192 -127 0
-161 -125 -163 -192 -127 0
-144 -136 -146 -192 -138 0
-153 -136 -155 -192 -138 0
-161 -136 -163 -192 -138 0
-153 -146 -155 -192 -148 0
-161 -146 -163 -192 -148 0
-161 -155 -163 -192 -157 0
-111 -100 -113 -193 -102 0
-123 -100 -125 -193 -102 0
-134 -100 -136 -193 -102 0
-144 -100 -146 -193 -102 0
-153 -100 -155 -193 -102 0
-161 -100 -163 -193 -102 0
-123 -113 -125 -193 -115 0
-134 -113 -136 -193 -115 0
-144 -113 -146 -193 -115 0
-153 -113 -155 -193 -115 0
-161 -113 -163 -193 -115 0
-134 -125 -136 -193 -127 0
-144 -125 -146 -193 -127 0
-153 -125 -155 -193 -127 0
-161 -125 -163 -193 -127 0
-144 -136 -146 -193 -138 0
-153 -136 -155 -193 -138 0
-161 -136 -163 -193 -138 0
-153 -146 -155 -193 -148 0
-161 -146 -163 -193 -148 0
-161 -155 -163 -193 -157 0
-123 -113 -125 -102 -115 0
-134 -113 -136 -102 -115 0
-144 -113 -146 -102 -115 0
-153 -113 -155 -102 -115 0
-161 -113 -163 -102 -115 0
-134 -125 -136 -102 -127 0
-144 -125 -146 -102 -127 0
-153 -125 -155 -102 -127 0
-161 -125 -163 -102 -127 0
-144 -136 -146 -102 -138 0
-153 -136 -155 -102 -138 0
-161 -136 -163 -102 -138 0
-153 -146 -155 -102 -148 0
-161 -146 -163 -102 -148 0
-161 -155 -163 -102 -157 0
-134 -125 -136 -115 -127 0
-144 -125 -146 -115 -127 0
-153 -125 -155 -115 -127 0
-161 -125 -163 -115 -127 0
-144 -136 -146 -115 -138 0
-153 -136 -155 -115 -138 0
-161 -136 -163 -115 -138 0
-153 -146 -155 -115 -148 0
-161 -146 -163 -115 -148 0
-161 -155 -163 -115 -157 0
-144 -136 -146 -127 -138 0
-153 -136 -155 -127 -138 0
-161 -136 -163 -127 -138 0
-153 -146 -155 -127 -148 0
-161 -146 -163 -127 -148 0
-161 -155 -163 -127 -157 0
-153 -146 -155 -138 -148 0
-161 -146 -163 -138 -148 0
-161 -155 -163 -138 -157 0
-161 -155 -163 -148 -157 0
-98 -186 -100 -194 -195 0
-111 -186 -113 -194 -195 0
-123 -186 -125 -194 -195 0
-134 -186 -136 -194 -195 0
-144 -186 -146 -194 -195 0
-153 -186 -155 -194 -195 0
-161 -186 -163 -194 -195 0
-111 -100 -113 -194 -103 0
-123 -100 -125 -194 -103 0
-134 -100 -136 -194 -103 0
-144 -100 -146 -194 -103 0
-153 -100 -155 -194 -103 0
-161 -100 -163 -194 -103 0
-123 -113 -125 -194 -116 0
-134 -113 -136 -194 -116 0
-144 -113 -146 -194 -116 0
-153 -113 -155 -194 -116 0
-161 -113 -163 -194 -116 0
-134 -125 -136 -194 -128 0
-144 -125 -146 -194 -128 0
-153 -125 -155 -194 -128 0
-161 -125 -163 -194 -128 0
-144 -136 -146 -194 -139 0
-153 -136 -155 -194 -139 0
-161 -136 -163 -194 -139 0
-153 -146 -155 -194 -149 0
-161 -146 -163 -194 -149 0
-161 -155 -163 -194 -158 0
-111 -100 -113 -195 -103 0
-123 -100 -125 -195 -103 0
-134 -100 -136 -195 -103 0
-144 -100 -146 -195 -103 0
-153 -100 -155 -195 -103 0
-161 -100 -163 -195 -103 0
-123 -113 -125 -195 -116 0
-134 -113 -136 -195 -116 0
-144 -113 -146 -195 -116 0
-153 -113 -155 -195 -116 0
-161 -113 -163 -195 -116 0
-134 -125 -136 -195 -128 0
-144 -125 -146 -195 -128 0
-153 -125 -155 -195 -128 0
-161 -125 -163 -195 -128 0
-144 -136 -146 -195 -139 0
-153 -136 -155 -195 -139 0
-161 -136 -163 -195 -139 0
-153 -146 -155 -195 -149 0
-161 -146 -163 -195 -149 0
-161 -155 -163 -195 -158 0
-123 -113 -125 -103 -116 0
-134 -113 -136 -103 -116 0
-144 -113 -146 -103 -116 0
-153 -113 -155 -103 -116 0
-161 -113 -163 -103 -116 0
-134 -125 -136 -103 -128 0
-144 -125 -146 -103 -128 0
-153 -125 -155 -103 -128 0
-161 -125 -163 -103 -128 0
-144 -136 -146 -103 -139 0
-153 -136 -155 -103 -139 0
-161 -136 -163 -103 -139 0
-153 -146 -155 -103 -149 0
-161 -146 -163 -103 -149 0
-161 -155 -163 -103 -158 0
-134 -125 -136 -116 -128 0
-144 -125 -146 -116 -128 0
-153 -125 -155 -116 -128 0
-161 -125 -163 -116 -128 0
-144 -136 -146 -116 -139 0
-153 -136 -155 -116 -139 0
-161 -136 -163 -116 -139 0
-153 -146 -155 -116 -149 0
-161 -146 -163 -116 -149 0
-161 -155 -163 -116 -158 0
-144 -136 -146 -128 -139 0
-153 -136 -155 -128 -139 0
-161 -136 -163 -128 -139 0
-153 -146 -155 -128 -149 0
-161 -146 -163 -128 -149 0
-161 -155 -163 -128 -158 0
-153 -146 -155 -139 -149 0
-161 -146 -163 -139 -149 0
-161 -155 -163 -139 -158 0
-161 -155 -163 -149 -158 0
-111 -100 -113 -196 -104 0
-123 -100 -125 -196 -104 0
-134 -100 -136 -196 -104 0
-144 -100 -146 -196 -104 0
-153 -100 -155 -196 -104 0
-161 -100 -163 -196 -104 0
-123 -113 -125 -196 -117 0
-134 -113 -136 -196 -117 0
-144 -113 -146 -196 -117 0
-153 -113 -155 -196 -117 0
-161 -113 -163 -196 -117 0
-134 -125 -136 -196 -129 0
-144 -125 -146 -196 -129 0
-153 -125 -155 -196 -129 0
-161 -125 -163 -196 -129 0
-144 -136 -146 -196 -140 0
-153 -136 -155 -196 -140 0
-161 -136 -163 -196 -140 0
-153 -146 -155 -196 -150 0
-161 -146 -163 -196 -150 0
-161 -155 -163 -196 -159 0
-123 -113 -125 -104 -117 0
-134 -113 -136 -104 -117 0
-144 -113 -146 -104 -117 0
-153 -113 -155 -104 -117 0
-161 -113 -163 -104 -117 0
-134 -125 -136 -104 -129 0
-144 -125 -146 -104 -129 0
-153 -125 -155 -104 -129 0
-161 -125 -163 -104 -129 0
-144 -136 -146 -104 -140 0
-153 -136 -155 -104 -140 0
-161 -136 -163 -104 -140 0
-153 -146 -155 -104 -150 0
-161 -146 -163 -104 -150 0
-161 -155 -163 -104 -159 0
-134 -125 -136 -117 -129 0
-144 -125 -146 -117 -129 0
-153 -125 -155 -117 -129 0
-161 -125 -163 -117 -129 0
-144 -136 -146 -117 -140 0
-153 -136 -155 -117 -140 0
-161 -136 -163 -117 -140 0
-153 -146 -155 -117 -150 0
-161 -146 -163 -117 -150 0
-161 -155 -163 -117 -159 0
-144 -136 -146 -129 -140 0
-153 -136 -155 -129 -140 0
-161 -136 -163 -129 -140 0
-153 -146 -155 -129 -150 0
-161 -146 -163 -129 -150 0
-161 -155 -163 -129 -159 0
-153 -146 -155 -140 -150 0
-161 -146 -163 -140 -150 0
-161 -155 -163 -140 -159 0
-161 -155 -163 -150 -159 0
-123 -113 -125 -105 -118 0
-134 -113 -136 -105 -118 0
-144 -113 -146 -105 -118 0
-153 -113 -155 -105 -118 0
-161 -113 -163 -105 -118 0
-134 -125 -136 -105 -130 0
-144 -125 -146 -105 -130 0
-153 -125 -155 -105 -130 0
-161 -125 -163 -105 -130 0
-144 -136 -146 -105 -141 0
-153 -136 -155 -105 -141 0
-161 -136 -163 -105 -141 0
-153 -146 -155 -105 -151 0
-161 -146 -163 -105 -151 0
-161 -155 -163 -105 -160 0
-134 -125 -136 -118 -130 0
-144 -125 -146 -118 -130 0
-153 -125 -155 -118 -130 0
-161 -125 -163 -118 -130 0
-144 -136 -146 -118 -141 0
-153 -136 -155 -118 -141 0
-161 -136 -163 -118 -141 0
-153 -146 -155 -118 -151 0
-161 -146 -163 -118 -151 0
-161 -155 -163 -118 -160 0
-144 -136 -146 -130 -141 0
-153 -136 -155 -130 -141 0
-161 -136 -163 -130 -141 0
-153 -146 -155 -130 -151 0
-161 -146 -163 -130 -151 0
-161 -155 -163 -130 -160 0
-153 -146 -155 -141 -151 0
-161 -146 -163 -141 -151 0
-161 -155 -163 -141 -160 0
-161 -155 -163 -151 -160 0
-134 -125 -136 -92 -93 0
-144 -125 -146 -92 -93 0
-153 -125 -155 -92 -93 0
-161 -125 -163 -92 -93 0
-144 -136 -146 -92 -94 0
-153 -136 -155 -92 -94 0
-161 -136 -163 -92 -94 0
-153 -146 -155 -92 -95 0
-161 -146 -163 -92 -95 0
-161 -155 -163 -92 -96 0
-144 -136 -146 -93 -94 0
-153 -136 -155 -93 -94 0
-161 -136 -163 -93 -94 0
-153 -146 -155 -93 -95 0
-161 -146 -163 -93 -95 0
-161 -155 -163 -93 -96 0
-153 -146 -155 -94 -95 0
-161 -146 -163 -94 -95 0
-161 -155 -163 -94 -96 0
-161 -155 -163 -95 -96 0
-144 -136 -146 -106 -107 0
-153 -136 -155 -106 -107 0
-161 -136 -163 -106 -107 0
-153 -146 -155 -106 -108 0
-161 -146 -163 -106 -108 0
-161 -155 -163 -106 -109 0
-153 -146 -155 -107 -108 0
-161 -146 -163 -107 -108 0
-161 -155 -163 -107 -109 0
-161 -155 -163 -108 -109 0
-153 -146 -155 -119 -120 0
-161 -146 -163 -119 -120 0
-161 -155 -163 -119 -121 0
-161 -155 -163 -120 -121 0
-161 -155 -163 -131 -132 0
-175 -189 -190 -191 -192 0
-98 -189 -101 -191 -192 0
-111 -189 -114 -191 -192 0
-123 -189 -126 -191 -192 0
-134 -189 -137 -191 -192 0
-144 -189 -147 -191 -192 0
-153 -189 -156 -191 -192 0
-161 -189 -164 -191 -192 0
-98 -190 -101 -191 -193 0
-111 -190 -114 -191 -193 0
-123 -190 -126 -191 -193 0
-134 -190 -137 -191 -193 0
-144 -190 -147 -191 -193 0
-153 -190 -156 -191 -193 0
-161 -190 -164 -191 -193 0
-111 -101 -114 -191 -102 0
-123 -101 -126 -191 -102 0
-134 -101 -137 -191 -102 0
-144 -101 -147 -191 -102 0
-153 -101 -156 -191 -102 0
-161 -101 -164 -191 -102 0
-123 -114 -126 -191 -115 0
-134 -114 -137 -191 -115 0
-144 -114 -147 -191 -115 0
-153 -114 -156 -191 -115 0
-161 -114 -164 -191 -115 0
-134 -126 -137 -191 -127 0
-144 -126 -147 -191 -127 0
-153 -126 -156 -191 -127 0
-161 -126 -164 -191 -127 0
-144 -137 -147 -191 -138 0
-153 -137 -156 -191 -138 0
-161 -137 -164 -191 -138 0
-153 -147 -156 -191 -148 0
-161 -147 -164 -191 -148 0
-161 -156 -164 -191 -157 0
-98 -190 -101 -192 -193 0
-111 -190 -114 -192 -193 0
-123 -190 -126 -192 -193 0
-134 -190 -137 -192 -193 0
-144 -190 -147 -192 -193 0
-153 -190 -156 -192 -193 0
-161 -190 -164 -192 -193 0
-111 -101 -114 -192 -102 0
-123 -101 -126 -192 -102 0
-134 -101 -137 -192 -102 0
-144 -101 -147 -192 -102 0
-153 -101 -156 -192 -102 0
-161 -101 -164 -192 -102 0
-123 -114 -126 -192 -115 0
-134 -114 -137 -192 -115 0
-144 -114 -147 -192 -115 0
-153 -114 -156 -192 -115 0
-161 -114 -164 -192 -115 0
-134 -126 -137 -192 -127 0
-144 -126 -147 -192 -127 0
-153 -126 -156 -192 -127 0
-161 -126 -164 -192 -127 0
-144 -137 -147 -192 -138 0
-153 -137 -156 -192 -138 0
-161 -137 -164 -192 -138 0
-153 -147 -156 -192 -148 0
-161 -147 -164 -192 -148 0
-161 -156 -164 -192 -157 0
-111 -101 -114 -193 -102 0
-123 -101 -126 -193 -102 0
-134 -101 -137 -193 -102 0
-144 -101 -147 -193 -102 0
-153 -101 -156 -193 -102 0
-161 -101 -164 -193 -102 0
-123 -114 -126 -193 -115 0
-134 -114 -137 -193 -115 0
-144 -114 -147 -193 -115 0
-153 -114 -156 -193 -115 0
-161 -114 -164 -193 -115 0
-134 -126 -137 -193 -127 0
-144 -126 -147 -193 -127 0
-153 -126 -156 -193 -127 0
-161 -126 -164 -193 -127 0
-144 -137 -147 -193 -138 0
-153 -137 -156 -193 -138 0
-161 -137 -164 -193 -138 0
-153 -147 -156 -193 -148 0
-161 -147 -164 -193 -148 0
-161 -156 -164 -193 -157 0
-123 -114 -126 -102 -115 0
-134 -114 -137 -102 -115 0
-144 -114 -147 -102 -115 0
-153 -114 -156 -102 -115 0
-161 -114 -164 -102 -115 0
-134 -126 -137 -102 -127 0
-144 -126 -147 -102 -127 0
-153 -126 -156 -102 -127 0
-161 -126 -164 -102 -127 0
-144 -137 -147 -102 -138 0
-153 -137 -156 -102 -138 0
-161 -137 -164 -102 -138 0
-153 -147 -156 -102 -148 0
-161 -147 -164 -102 -148 0
-161 -156 -164 -102 -157 0
-134 -126 -137 -115 -127 0
-144 -126 -147 -115 -127 0
-153 -126 -156 -115 -127 0
-161 -126 -164 -115 -127 0
-144 -137 -147 -115 -138 0
-153 -137 -156 -115 -138 0
-161 -137 -164 -115 -138 0
-153 -147 -156 -115 -148 0
-161 -147 -164 -115 -148 0
-161 -156 -164 -115 -157 0
-144 -137 -147 -127 -138 0
-153 -137 -156 -127 -138 0
-161 -137 -164 -127 -138 0
-153 -147 -156 -127 -148 0
-161 -147 -164 -127 -148 0
-161 -156 -164 -127 -157 0
-153 -147 -156 -138 -148 0
-161 -147 -164 -138 -148 0
-161 -156 -164 -138 -157 0
-161 -156 -164 -148 -157 0
-98 -190 -101 -194 -195 0
-111 -190 -114 -194 -195 0
-123 -190 -126 -194 -195 0
-134 -190 -137 -194 -195 0
-144 -190 -147 -194 -195 0
-153 -190 -156 -194 -195 0
-161 -190 -164 -194 -195 0
-111 -101 -114 -194 -103 0
-123 -101 -126 -194 -103 0
-134 -101 -137 -194 -103 0
-144 -101 -147 -194 -103 0
-153 -101 -156 -194 -103 0
-161 -101 -164 -194 -103 0
-123 -114 -126 -194 -116 0
-134 -114 -137 -194 -116 0
-144 -114 -147 -194 -116 0
-153 -114 -156 -194 -116 0
-161 -114 -164 -194 -116 0
-134 -126 -137 -194 -128 0
-144 -126 -147 -194 -128 0
-153 -126 -156 -194 -128 0
-161 -126 -164 -194 -128 0
-144 -137 -147 -194 -139 0
-153 -137 -156 -194 -139 0
-161 -137 -164 -194 -139 0
-153 -147 -156 -194 -149 0
-161 -147 -164 -194 -149 0
-161 -156 -164 -194 -158 0
-111 -101 -114 -195 -103 0
-123 -101 -126 -195 -103 0
-134 -101 -137 -195 -103 0
-144 -101 -147 -195 -103 0
-153 -101 -156 -195 -103 0
-161 -101 -164 -195 -103 0
-123 -114 -126 -195 -116 0
-134 -114 -137 -195 -116 0
-144 -114 -147 -195 -116 0
-153 -114 -156 -195 -116 0
-161 -114 -164 -195 -116 0
-134 -126 -137 -195 -128 0
-144 -126 -147 -195 -128 0
-153 -126 -156 -195 -128 0
-161 -126 -164 -195 -128 0
-144 -137 -147 -195 -139 0
-153 -137 -156 -195 -139 0
-161 -137 -164 -195 -139 0
-153 -147 -156 -195 -149 0
-161 -147 -164 -195 -149 0
-161 -156 -164 -195 -158 0
-123 -114 -126 -103 -116 0
-134 -114 -137 -103 -116 0
-144 -114 -147 -103 -116 0
-153 -114 -156 -103 -116 0
-161 -114 -164 -103 -116 0
-134 -126 -137 -103 -128 0
-144 -126 -147 -103 -128 0
-153 -126 -156 -103 -128 0
-161 -126 -164 -103 -128 0
-144 -137 -147 -103 -139 0
-153 -137 -156 -103 -139 0
-161 -137 -164 -103 -139 0
-153 -147 -156 -103 -149 0
-161 -147 -164 -103 -149 0
-161 -156 -164 -103 -158 0
-134 -126 -137 -116 -128 0
-144 -126 -147 -116 -128 0
-153 -126 -156 -116 -128 0
-161 -126 -164 -116 -128 0
-144 -137 -147 -116 -139 0
-153 -137 -156 -116 -139 0
-161 -137 -164 -116 -139 0
-153 -147 -156 -116 -149 0
-161 -147 -164 -116 -149 0
-161 -156 -164 -116 -158 0
-144 -137 -147 -128 -139 0
-153 -137 -156 -128 -139 0
-161 -137 -164 -128 -139 0
-153 -147 -156 -128 -149 0
-161 -147 -164 -128 -149 0
-161 -156 -164 -128 -158 0
-153 -147 -156 -139 -149 0
-161 -147 -164 -139 -149 0
-161 -156 -164 -139 -158 0
-161 -156 -164 -149 -158 0
-111 -101 -114 -196 -104 0
-123 -101 -126 -196 -104 0
-134 -101 -137 -196 -104 0
-144 -101 -147 -196 -104 0
-153 -101 -156 -196 -104 0
-161 -101 -164 -196 -104 0
-123 -114 -126 -196 -117 0
-134 -114 -137 -196 -117 0
-144 -114 -147 -196 -117 0
-153 -114 -156 -196 -117 0
-161 -114 -164 -196 -117 0
-134 -126 -137 -196 -129 0
-144 -126 -147 -196 -129 0
-153 -126 -156 -196 -129 0
-161 -126 -164 -196 -129 0
-144 -137 -147 -196 -140 0
-153 -137 -156 -196 -140 0
-161 -137 -164 -196 -140 0
-153 -147 -156 -196 -150 0
-161 -147 -164 -196 -150 0
-161 -156 -164 -196 -159 0
-123 -114 -126 -104 -117 0
-134 -114 -137 -104 -117 0
-144 -114 -147 -104 -117 0
-153 -114 -156 -104 -117 0
-161 -114 -164 -104 -117 0
-134 -126 -137 -104 -129 0
-144 -126 -147 -104 -129 0
-153 -126 -156 -104 -129 0
-161 -126 -164 -104 -129 0
-144 -137 -147 -104 -140 0
-153 -137 -156 -104 -140 0
-161 -137 -164 -104 -140 0
-153 -147 -156 -104 -150 0
-161 -147 -164 -104 -150 0
-161 -156 -164 -104 -159 0
-134 -126 -137 -117 -129 0
-144 -126 -147 -117 -129 0
-153 -126 -156 -117 -129 0
-161 -126 -164 -117 -129 0
-144 -137 -147 -117 -140 0
-153 -137 -156 -117 -140 0
-161 -137 -164 -117 -140 0
-153 -147 -156 -117 -150 0
-161 -147 -164 -117 -150 0
-161 -156 -164 -117 -159 0
-144 -137 -147 -129 -140 0
-153 -137 -156 -129 -140 0
-161 -137 -164 -129 -140 0
-153 -147 -156 -129 -150 0
-161 -147 -164 -129 -150 0
-161 -156 -164 -129 -159 0
-153 -147 -156 -140 -150 0
-161 -147 -164 -140 -150 0
-161 -156 -164 -140 -159 0
-161 -156 -164 -150 -159 0
-123 -114 -126 -105 -118 0
-134 -114 -137 -105 -118 0
-144 -114 -147 -105 -118 0
-153 -114 -156 -105 -118 0
-161 -114 -164 -105 -118 0
-134 -126 -137 -105 -130 0
-144 -126 -147 -105 -130 0
-153 -126 -156 -105 -130 0
-161 -126 -164 -105 -130 0
-144 -137 -147 -105 -141 0
-153 -137 -156 -105 -141 0
-161 -137 -164 -105 -141 0
-153 -147 -156 -105 -151 0
-161 -147 -164 -105 -151 0
-161 -156 -164 -105 -160 0
-134 -126 -137 -118 -130 0
-144 -126 -147 -118 -130 0
-153 -126 -156 -118 -130 0
-161 -126 -164 -118 -130 0
-144 -137 -147 -118 -141 0
-153 -137 -156 -118 -141 0
-161 -137 -164 -118 -141 0
-153 -147 -156 -118 -151 0
-161 -147 -164 -118 -151 0
-161 -156 -164 -118 -160 0
-144 -137 -147 -130 -141 0
-153 -137 -156 -130 -141 0
-161 -137 -164 -130 -141 0
-153 -147 -156 -130 -151 0
-161 -147 -164 -130 -151 0
-161 -156 -164 -130 -160 0
-153 -147 -156 -141 -151 0
-161 -147 -164 -141 -151 0
-161 -156 -164 -141 -160 0
-161 -156 -164 -151 -160 0
-134 -126 -137 -92 -93 0
-144 -126 -147 -92 -93 0
-153 -126 -156 -92 -93 0
-161 -126 -164 -92 -93 0
-144 -137 -147 -92 -94 0
-153 -137 -156 -92 -94 0
-161 -137 -164 -92 -94 0
-153 -147 -156 -92 -95 0
-161 -147 -164 -92 -95 0
-161 -156 -164 -92 -96 0
-144 -137 -147 -93 -94 0
-153 -137 -156 -93 -94 0
-161 -137 -164 -93 -94 0
-153 -147 -156 -93 -95 0
-161 -147 -164 -93 -95 0
-161 -156 -164 -93 -96 0
-153 -147 -156 -94 -95 0
-161 -147 -164 -94 -95 0
-161 -156 -164 -94 -96 0
-161 -156 -164 -95 -96 0
-144 -137 -147 -106 -107 0
-153 -137 -156 -106 -107 0
-161 -137 -164 -106 -107 0
-153 -147 -156 -106 -108 0
-161 -147 -164 -106 -108 0
-161 -156 -164 -106 -109 0
-153 -147 -156 -107 -108 0
-161 -147 -164 -107 -108 0
-161 -156 -164 -107 -109 0
-161 -156 -164 -108 -109 0
-153 -147 -156 -119 -120 0
-161 -147 -164 -119 -120 0
-161 -156 -164 -119 -121 0
-161 -156 -164 -120 -121 0
-161 -156 -164 -131 -132 0
-98 -193 -102 -194 -195 0
-111 -193 -115 -194 -195 0
-123 -193 -127 -194 -195 0
-134 -193 -138 -194 -195 0
-144 -193 -148 -194 -195 0
-153 -193 -157 -194 -195 0
-161 -193 -165 -194 -195 0
-111 -102 -115 -194 -103 0
-123 -102 -127 -194 -103 0
-134 -102 -138 -194 -103 0
-144 -102 -148 -194 -103 0
-153 -102 -157 -194 -103 0
-161 -102 -165 -194 -103 0
-123 -115 -127 -194 -116 0
-134 -115 -138 -194 -116 0
-144 -115 -148 -194 -116 0
-153 -115 -157 -194 -116 0
-161 -115 -165 -194 -116 0
-134 -127 -138 -194 -128 0
-144 -127 -148 -194 -128 0
-153 -127 -157 -194 -128 0
-161 -127 -165 -194 -128 0
-144 -138 -148 -194 -139 0
-153 -138 -157 -194 -139 0
-161 -138 -165 -194 -139 0
-153 -148 -157 -194 -149 0
-161 -148 -165 -194 -149 0
-161 -157 -165 -194 -158 0
-111 -102 -115 -195 -103 0
-123 -102 -127 -195 -103 0
-134 -102 -138 -195 -103 0
-144 -102 -148 -195 -103 0
-153 -102 -157 -195 -103 0
-161 -102 -165 -195 -103 0
-123 -115 -127 -195 -116 0
-134 -115 -138 -195 -116 0
-144 -115 -148 -195 -116 0
-153 -115 -157 -195 -116 0
-161 -115 -165 -195 -116 0
-134 -127 -138 -195 -128 0
-144 -127 -148 -195 -128 0
-153 -127 -157 -195 -128 0
-161 -127 -165 -195 -128 0
-144 -138 -148 -195 -139 0
-153 -138 -157 -195 -139 0
-161 -138 -165 -195 -139 0
-153 -148 -157 -195 -149 0
-161 -148 -165 -195 -149 0
-161 -157 -165 -195 -158 0
-123 -115 -127 -103 -116 0
-134 -115 -138 -103 -116 0
-144 -115 -148 -103 -116 0
-153 -115 -157 -103 -116 0
-161 -115 -165 -103 -116 0
-134 -127 -138 -103 -128 0
-144 -127 -148 -103 -128 0
-153 -127 -157 -103 -128 0
-161 -127 -165 -103 -128 0
-144 -138 -148 -103 -139 0
-153 -138 -157 -103 -139 0
-161 -138 -165 -103 -139 0
-153 -148 -157 -103 -149 0
-161 -148 -165 -103 -149 0
-161 -157 -165 -103 -158 0
-134 -127 -138 -116 -128 0
-144 -127 -148 -116 -128 0
-153 -127 -157 -116 -128 0
-161 -127 -165 -116 -128 0
-144 -138 -148 -116 -139 0
-153 -138 -157 -116 -139 0
-161 -138 -165 -116 -139 0
-153 -148 -157 -116 -149 0
-161 -148 -165 -116 -149 0
-161 -157 -165 -116 -158 0
-144 -138 -148 -128 -139 0
-153 -138 -157 -128 -139 0
-161 -138 -165 -128 -139 0
-153 -148 -157 -128 -149 0
-161 -148 -165 -128 -149 0
-161 -157 -165 -128 -158 0
-153 -148 -157 -139 -149 0
-161 -148 -165 -139 -149 0
-161 -157 -165 -139 -158 0
-161 -157 -165 -149 -158 0
-111 -102 -115 -196 -104 0
-123 -102 -127 -196 -104 0
-134 -102 -138 -196 -104 0
-144 -102 -148 -196 -104 0
-153 -102 -157 -196 -104 0
-161 -102 -165 -196 -104 0
-123 -115 -127 -196 -117 0
-134 -115 -138 -196 -117 0
-144 -115 -148 -196 -117 0
-153 -115 -157 -196 -117 0
-161 -115 -165 -196 -117 0
-134 -127 -138 -196 -129 0
-144 -127 -148 -196 -129 0
-153 -127 -157 -196 -129 0
-161 -127 -165 -196 -129 0
-144 -138 -148 -196 -140 0
-153 -138 -157 -196 -140 0
-161 -138 -165 -196 -140 0
-153 -148 -157 -196 -150 0
-161 -148 -165 -196 -150 0
-161 -157 -165 -196 -159 0
-123 -115 -127 -104 -117 0
-134 -115 -138 -104 -117 0
-144 -115 -148 -104 -117 0
-153 -115 -157 -104 -117 0
-161 -115 -165 -104 -117 0
-134 -127 -138 -104 -129 0
-144 -127 -148 -104 -129 0
-153 -127 -157 -104 -129 0
-161 -127 -165 -104 -129 0
-144 -138 -148 -104 -140 0
-153 -138 -157 -104 -140 0
-161 -138 -165 -104 -140 0
-153 -148 -157 -104 -150 0
-161 -148 -165 -104 -150 0
-161 -157 -165 -104 -159 0
-134 -127 -138 -117 -129 0
-144 -127 -148 -117 -129 0
-153 -127 -157 -117 -129 0
-161 -127 -165 -117 -129 0
-144 -138 -148 -117 -140 0
-153 -138 -157 -117 -140 0
-161 -138 -165 -117 -140 0
-153 -148 -157 -117 -150 0
-161 -148 -165 -117 -150 0
-161 -157 -165 -117 -159 0
-144 -138 -148 -129 -140 0
-153 -138 -157 -129 -140 0
-161 -138 -165 -129 -140 0
-153 -148 -157 -129 -150 0
-161 -148 -165 -129 -150 0
-161 -157 -165 -129 -159 0
-153 -148 -157 -140 -150 0
-161 -148 -165 -140 -150 0
-161 -157 -165 -140 -159 0
-161 -157 -165 -150 -159 0
-123 -115 -127 -105 -118 0
-134 -115 -138 -105 -118 0
-144 -115 -148 -105 -118 0
-153 -115 -157 -105 -118 0
-161 -115 -165 -105 -118 0
-134 -127 -138 -105 -130 0
-144 -127 -148 -105 -130 0
-153 -127 -157 -105 -130 0
-161 -127 -165 -105 -130 0
-144 -138 -148 -105 -141 0
-153 -138 -157 -105 -141 0
-161 -138 -165 -105 -141 0
-153 -148 -157 -105 -151 0
-161 -148 -165 -105 -151 0
-161 -157 -165 -105 -160 0
-134 -127 -138 -118 -130 0
-144 -127 -148 -118 -130 0
-153 -127 -157 -118 -130 0
-161 -127 -165 -118 -130 0
-144 -138 -148 -118 -141 0
-153 -138 -157 -118 -141 0
-161 -138 -165 -118 -141 0
-153 -148 -157 -118 -151 0
-161 -148 -165 -118 -151 0
-161 -157 -165 -118 -160 0
-144 -138 -148 -130 -141 0
-153 -138 -157 -130 -141 0
-161 -138 -165 -130 -141 0
-153 -148 -157 -130 -151 0
-161 -148 -165 -130 -151 0
-161 -157 -165 -130 -160 0
-153 -148 -157 -141 -151 0
-161 -148 -165 -141 -151 0
-161 -157 -165 -141 -160 0
-161 -157 -165 -151 -160 0
-134 -127 -138 -92 -93 0
-144 -127 -148 -92 -93 0
-153 -127 -157 -92 -93 0
-161 -127 -165 -92 -93 0
-144 -138 -148 -92 -94 0
-153 -138 -157 -92 -94 0
-161 -138 -165 -92 -94 0
-153 -148 -157 -92 -95 0
-161 -148 -165 -92 -95 0
-161 -157 -165 -92 -96 0
-144 -138 -148 -93 -94 0
-153 -138 -157 -93 -94 0
-161 -138 -165 -93 -94 0
-153 -148 -157 -93 -95 0
-161 -148 -165 -93 -95 0
-161 -157 -165 -93 -96 0
-153 -148 -157 -94 -95 0
-161 -148 -165 -94 -95 0
-161 -157 -165 -94 -96 0
-161 -157 -165 -95 -96 0
-144 -138 -148 -106 -107 0
-153 -138 -157 -106 -107 0
-161 -138 -165 -106 -107 0
-153 -148 -157 -106 -108 0
-161 -148 -165 -106 -108 0
-161 -157 -165 -106 -109 0
-153 -148 -157 -107 -108 0
-161 -148 -165 -107 -108 0
-161 -157 -165 -107 -109 0
-161 -157 -165 -108 -109 0
-153 -148 -157 -119 -120 0
-161 -148 -165 -119 -120 0
-161 -157 -165 -119 -121 0
-161 -157 -165 -120 -121 0
-161 -157 -165 -131 -132 0
-111 -103 -116 -196 -104 0
-123 -103 -128 -196 -104 0
-134 -103 -139 -196 -104 0
-144 -103 -149 -196 -104 0
-153 -103 -158 -196 -104 0
-161 -103 -166 -196 -104 0
-123 -116 -128 -196 -117 0
-134 -116 -139 -196 -117 0
-144 -116 -149 -196 -117 0
-153 -116 -158 -196 -117 0
-161 -116 -166 -196 -117 0
-134 -128 -139 -196 -129 0
-144 -128 -149 -196 -129 0
-153 -128 -158 -196 -129 0
-161 -128 -166 -196 -129 0
-144 -139 -149 -196 -140 0
-153 -139 -158 -196 -140 0
-161 -139 -166 -196 -140 0
-153 -149 -158 -196 -150 0
-161 -149 -166 -196 -150 0
-161 -158 -166 -196 -159 0
-123 -116 -128 -104 -117 0
-134 -116 -139 -104 -117 0
-144 -116 -149 -104 -117 0
-153 -116 -158 -104 -117 0
-161 -116 -166 -104 -117 0
-134 -128 -139 -104 -129 0
-144 -128 -149 -104 -129 0
-153 -128 -158 -104 -129 0
-161 -128 -166 -104 -129 0
-144 -139 -149 -104 -140 0
-153 -139 -158 -104 -140 0
-161 -139 -166 -104 -140 0
-153 -149 -158 -104 -150 0
-161 -149 -166 -104 -150 0
-161 -158 -166 -104 -159 0
-134 -128 -139 -117 -129 0
-144 -128 -149 -117 -129 0
-153 -128 -158 -117 -129 0
-161 -128 -166 -117 -129 0
-144 -139 -149 -117 -140 0
-153 -139 -158 -117 -140 0
-161 -139 -166 -117 -140 0
-153 -149 -158 -117 -150 0
-161 -149 -166 -117 -150 0
-161 -158 -166 -117 -159 0
-144 -139 -149 -129 -140 0
-153 -139 -158 -129 -140 0
-161 -139 -166 -129 -140 0
-153 -149 -158 -129 -150 0
-161 -149 -166 -129 -150 0
-161 -158 -166 -129 -159 0
-153 -149 -158 -140 -150 0
-161 -149 -166 -140 -150 0
-161 -158 -166 -140 -159 0
-161 -158 -166 -150 -159 0
-123 -116 -128 -105 -118 0
-134 -116 -139 -105 -118 0
-144 -116 -149 -105 -118 0
-153 -116 -158 -105 -118 0
-161 -116 -166 -105 -118 0
-134 -128 -139 -105 -130 0
-144 -128 -149 -105 -130 0
-153 -128 -158 -105 -130 0
-161 -128 -166 -105 -130 0
-144 -139 -149 -105 -141 0
-153 -139 -158 -105 -141 0
-161 -139 -166 -105 -141 0
-153 -149 -158 -105 -151 0
-161 -149 -166 -105 -151 0
-161 -158 -166 -105 -160 0
-134 -128 -139 -118 -130 0
-144 -128 -149 -118 -130 0
-153 -128 -158 -118 -130 0
-161 -128 -166 -118 -130 0
-144 -139 -149 -118 -141 0
-153 -139 -158 -118 -141 0
-161 -139 -166 -118 -141 0
-153 -149 -158 -118 -151 0
-161 -149 -166 -118 -151 0
-161 -158 -166 -118 -160 0
-144 -139 -149 -130 -141 0
-153 -139 -158 -130 -141 0
-161 -139 -166 -130 -141 0
-153 -149 -158 -130 -151 0
-161 -149 -166 -130 -151 0
-161 -158 -166 -130 -160 0
-153 -149 -158 -141 -151 0
-161 -149 -166 -141 -151 0
-161 -158 -166 -141 -160 0
-161 -158 -166 -151 -160 0
-134 -128 -139 -92 -93 0
-144 -128 -149 -92 -93 0
-153 -128 -158 -92 -93 0
-161 -128 -166 -92 -93 0
-144 -139 -149 -92 -94 0
-153 -139 -158 -92 -94 0
-161 -139 -166 -92 -94 0
-153 -149 -158 -92 -95 0
-161 -149 -166 -92 -95 0
-161 -158 -166 -92 -96 0
-144 -139 -149 -93 -94 0
-153 -139 -158 -93 -94 0
-161 -139 -166 -93 -94 0
-153 -149 -158 -93 -95 0
-161 -149 -166 -93 -95 0
-161 -158 -166 -93 -96 0
-153 -149 -158 -94 -95 0
-161 -149 -166 -94 -95 0
-161 -158 -166 -94 -96 0
-161 -158 -166 -95 -96 0
-144 -139 -149 -106 -107 0
-153 -139 -158 -106 -107 0
-161 -139 -166 -106 -107 0
-153 -149 -158 -106 -108 0
-161 -149 -166 -106 -108 0
-161 -158 -166 -106 -109 0
-153 -149 -158 -107 -108 0
-161 -149 -166 -107 -108 0
-161 -158 -166 -107 -109 0
-161 -158 -166 -108 -109 0
-153 -149 -158 -119 -120 0
-161 -149 -166 -119 -120 0
-161 -158 -166 -119 -121 0
-161 -158 -166 -120 -121 0
-161 -158 -166 -131 -132 0
-123 -117 -129 -105 -118 0
-134 -117 -140 -105 -118 0
-144 -117 -150 -105 -118 0
-153 -117 -159 -105 -118 0
-161 -117 -167 -105 -118 0
-134 -129 -140 -105 -130 0
-144 -129 -150 -105 -130 0
-153 -129 -159 -105 -130 0
-161 -129 -167 -105 -130 0
-144 -140 -150 -105 -141 0
-153 -140 -159 -105 -141 0
-161 -140 -167 -105 -141 0
-153 -150 -159 -105 -151 0
-161 -150 -167 -105 -151 0
-161 -159 -167 -105 -160 0
-134 -129 -140 -118 -130 0
-144 -129 -150 -118 -130 0
-153 -129 -159 -118 -130 0
-161 -129 -167 -118 -130 0
-144 -140 -150 -118 -141 0
-153 -140 -159 -118 -141 0
-161 -140 -167 -118 -141 0
-153 -150 -159 -118 -151 0
-161 -150 -167 -118 -151 0
-161 -159 -167 -118 -160 0
-144 -140 -150 -130 -141 0
-153 -140 -159 -130 -141 0
-161 -140 -167 -130 -141 0
-153 -150 -159 -130 -151 0
-161 -150 -167 -130 -151 0
-161 -159 -167 -130 -160 0
-153 -150 -159 -141 -151 0
-161 -150 -167 -141 -151 0
-161 -159 -167 -141 -160 0
-161 -159 -167 -151 -160 0
-134 -129 -140 -92 -93 0
-144 -129 -150 -92 -93 0
-153 -129 -159 -92 -93 0
-161 -129 -167 -92 -93 0
-144 -140 -150 -92 -94 0
-153 -140 -159 -92 -94 0
-161 -140 -167 -92 -94 0
-153 -150 -159 -92 -95 0
-161 -150 -167 -92 -95 0
-161 -159 -167 -92 -96 0
-144 -140 -150 -93 -94 0
-153 -140 -159 -93 -94 0
-161 -140 -167 -93 -94 0
-153 -150 -159 -93 -95 0
-161 -150 -167 -93 -95 0
-161 -159 -167 -93 -96 0
-153 -150 -159 -94 -95 0
-161 -150 -167 -94 -95 0
-161 -159 -167 -94 -96 0
-161 -159 -167 -95 -96 0
-144 -140 -150 -106 -107 0
-153 -140 -159 -106 -107 0
-161 -140 -167 -106 -107 0
-153 -150 -159 -106 -108 0
-161 -150 -167 -106 -108 0
-161 -159 -167 -106 -109 0
-153 -150 -159 -107 -108 0
-161 -150 -167 -107 -108 0
-161 -159 -167 -107 -109 0
-161 -159 -167 -108 -109 0
-153 -150 -159 -119 -120 0
-161 -150 -167 -119 -120 0
-161 -159 -167 -119 -121 0
-161 -159 -167 -120 -121 0
-161 -159 -167 -131 -132 0
-134 -130 -141 -92 -93 0
-144 -130 -151 -92 -93 0
-153 -130 -160 -92 -93 0
-161 -130 -168 -92 -93 0
-144 -141 -151 -92 -94 0
-153 -141 -160 -92 -94 0
-161 -141 -168 -92 -94 0
-153 -151 -160 -92 -95 0
-161 -151 -168 -92 -95 0
-161 -160 -168 -92 -96 0
-144 -141 -151 -93 -94 0
-153 -141 -160 -93 -94 0
-161 -141 -168 -93 -94 0
-153 -151 -160 -93 -95 0
-161 -151 -168 -93 -95 0
-161 -160 -168 -93 -96 0
-153 -151 -160 -94 -95 0
-161 -151 -168 -94 -95 0
-161 -160 -168 -94 -96 0
-161 -160 -168 -95 -96 0
-144 -141 -151 -106 -107 0
-153 -141 -160 -106 -107 0
-161 -141 -168 -106 -107 0
-153 -151 -160 -106 -108 0
-161 -151 -168 -106 -108 0
-161 -160 -168 -106 -109 0
-153 -151 -160 -107 -108 0
-161 -151 -168 -107 -108 0
-161 -160 -168 -107 -109 0
-161 -160 -168 -108 -109 0
-153 -151 -160 -119 -120 0
-161 -151 -168 -119 -120 0
-161 -160 -168 -119 -121 0
-161 -160 -168 -120 -121 0
-161 -160 -168 -131 -132 0
-144 -94 -95 -106 -107 0
-153 -94 -96 -106 -107 0
-161 -94 -97 -106 -107 0
-153 -95 -96 -106 -108 0
-161 -95 -97 -106 -108 0
-161 -96 -97 -106 -109 0
-153 -95 -96 -107 -108 0
-161 -95 -97 -107 -108 0
-161 -96 -97 -107 -109 0
-161 -96 -97 -108 -109 0
-153 -95 -96 -119 -120 0
-161 -95 -97 -119 -120 0
-161 -96 -97 -119 -121 0
-161 -96 -97 -120 -121 0
-161 -96 -97 -131 -132 0
-153 -108 -109 -119 -120 0
-161 -108 -110 -119 -120 0
-161 -109 -110 -119 -121 0
-161 -109 -110 -120 -121 0
-161 -109 -110 -131 -132 0
-161 -121 -122 -131 -132 0
-180 -184 -185 -187 -188 0
-181 -184 -186 -187 -188 0
-99 -184 -100 -187 -188 0
-112 -184 -113 -187 -188 0
-124 -184 -125 -187 -188 0
-135 -184 -136 -187 -188 0
-145 -184 -146 -187 -188 0
-154 -184 -155 -187 -188 0
-162 -184 -163 -187 -188 0
-169 -184 -170 -187 -188 0
-181 -185 -186 -187 -189 0
-99 -185 -100 -187 -189 0
-112 -185 -113 -187 -189 0
-124 -185 -125 -187 -189 0
-135 -185 -136 -187 -189 0
-145 -185 -146 -187 -189 0
-154 -185 -155 -187 -189 0
-162 -185 -163 -187 -189 0
-169 -185 -170 -187 -189 0
-99 -186 -100 -187 -190 0
-112 -186 -113 -187 -190 0
-124 -186 -125 -187 -190 0
-135 -186 -136 -187 -190 0
-145 -186 -146 -187 -190 0
-154 -186 -155 -187 -190 0
-162 -186 -163 -187 -190 0
-169 -186 -170 -187 -190 0
-112 -100 -113 -187 -101 0
-124 -100 -125 -187 -101 0
-135 -100 -136 -187 -101 0
-145 -100 -146 -187 -101 0
-154 -100 -155 -187 -101 0
-162 -100 -163 -187 -101 0
-169 -100 -170 -187 -101 0
-124 -113 -125 -187 -114 0
-135 -113 -136 -187 -114 0
-145 -113 -146 -187 -114 0
-154 -113 -155 -187 -114 0
-162 -113 -163 -187 -114 0
-169 -113 -170 -187 -114 0
-135 -125 -136 -187 -126 0
-145 -125 -146 -187 -126 0
-154 -125 -155 -187 -126 0
-162 -125 -163 -187 -126 0
-169 -125 -170 -187 -126 0
-145 -136 -146 -187 -137 0
-154 -136 -155 -187 -137 0
-162 -136 -163 -187 -137 0
-169 -136 -170 -187 -137 0
-154 -146 -155 -187 -147 0
-162 -146 -163 -187 -147 0
-169 -146 -170 -187 -147 0
-162 -155 -163 -187 -156 0
-169 -155 -170 -187 -156 0
-169 -163 -170 -187 -164 0
-181 -185 -186 -188 -189 0
-99 -185 -100 -188 -189 0
-112 -185 -113 -188 -189 0
-124 -185 -125 -188 -189 0
-135 -185 -136 -188 -189 0
-145 -185 -146 -188 -189 0
-154 -185 -155 -188 -189 0
-162 -185 -163 -188 -189 0
-169 -185 -170 -188 -189 0
-99 -186 -100 -188 -190 0
-112 -186 -113 -188 -190 0
-124 -186 -125 -188 -190 0
-135 -186 -136 -188 -190 0
-145 -186 -146 -188 -190 0
-154 -186 -155 -188 -190 0
-162 -186 -163 -188 -190 0
-169 -186 -170 -188 -190 0
-112 -100 -113 -188 -101 0
-124 -100 -125 -188 -101 0
-135 -100 -136 -188 -101 0
-145 -100 -146 -188 -101 0
-154 -100 -155 -188 -101 0
-162 -100 -163 -188 -101 0
-169 -100 -170 -188 -101 0
-124 -113 -125 -188 -114 0
-135 -113 -136 -188 -114 0
-145 -113 -146 -188 -114 0
-154 -113 -155 -188 -114 0
-162 -113 -163 -188 -114 0
-169 -113 -170 -188 -114 0
-135 -125 -136 -188 -126 0
-145 -125 -146 -188 -126 0
-154 -125 -155 -188 -126 0
-162 -125 -163 -188 -126 0
-169 -125 -170 -188 -126 0
-145 -136 -146 -188 -137 0
-154 -136 -155 -188 -137 0
-162 -136 -163 -188 -137 0
-169 -136 -170 -188 -137 0
-154 -146 -155 -188 -147 0
-162 -146 -163 -188 -147 0
-169 -146 -170 -188 -147 0
-162 -155 -163 -188 -156 0
-169 -155 -170 -188 -156 0
-169 -163 -170 -188 -164 0
-99 -186 -100 -189 -190 0
-112 -186 -113 -189 -190 0
-124 -186 -125 -189 -190 0
-135 -186 -136 -189 -190 0
-145 -186 -146 -189 -190 0
-154 -186 -155 -189 -190 0
-162 -186 -163 -189 -190 0
-169 -186 -170 -189 -190 0
-112 -100 -113 -189 -101 0
-124 -100 -125 -189 -101 0
-135 -100 -136 -189 -101 0
-145 -100 -146 -189 -101 0
-154 -100 -155 -189 -101 0
-162 -100 -163 -189 -101 0
-169 -100 -170 -189 -101 0
-124 -113 -125 -189 -114 0
-135 -113 -136 -189 -114 0
-145 -113 -146 -189 -114 0
-154 -113 -155 -189 -114 0
-162 -113 -163 -189 -114 0
-169 -113 -170 -189 -114 0
-135 -125 -136 -189 -126 0
-145 -125 -146 -189 -126 0
-154 -125 -155 -189 -126 0
-162 -125 -163 -189 -126 0
-169 -125 -170 -189 -126 0
-145 -136 -146 -189 -137 0
-154 -136 -155 -189 -137 0
-162 -136 -163 -189 -137 0
-169 -136 -170 -189 -137 0
-154 -146 -155 -189 -147 0
-162 -146 -163 -189 -147 0
-169 -146 -170 -189 -147 0
-162 -155 -163 -189 -156 0
-169 -155 -170 -189 -156 0
-169 -163 -170 -189 -164 0
-112 -100 -113 -190 -101 0
-124 -100 -125 -190 -101 0
-135 -100 -136 -190 -101 0
-145 -100 -146 -190 -101 0
-154 -100 -155 -190 -101 0
-162 -100 -163 -190 -101 0
-169 -100 -170 -190 -101 0
-124 -113 -125 -190 -114 0
-135 -113 -136 -190 -114 0
-145 -113 -146 -190 -114 0
-154 -113 -155 -190 -114 0
-162 -113 -163 -190 -114 0
-169 -113 -170 -190 -114 0
-135 -125 -136 -190 -126 0
-145 -125 -146 -190 -126 0
-154 -125 -155 -190 -126 0
-162 -125 -163 -190 -126 0
-169 -125 -170 -190 -126 0
-145 -136 -146 -190 -137 0
-154 -136 -155 -190 -137 0
-162 -136 -163 -190 -137 0
-169 -136 -170 -190 -137 0
-154 -146 -155 -190 -147 0
-162 -146 -163 -190 -147 0
-169 -146 -170 -190 -147 0
-162 -155 -163 -190 -156 0
-169 -155 -170 -190 -156 0
-169 -163 -170 -190 -164 0
-124 -113 -125 -101 -114 0
-135 -113 -136 -101 -114 0
-145 -113 -146 -101 -114 0
-154 -113 -155 -101 -114 0
-162 -113 -163 -101 -114 0
-169 -113 -170 -101 -114 0
-135 -125 -136 -101 -126 0
-145 -125 -146 -101 -126 0
-154 -125 -155 -101 -126 0
-162 -125 -163 -101 -126 0
-169 -125 -170 -101 -126 0
-145 -136 -146 -101 -137 0
-154 -136 -155 -101 -137 0
-162 -136 -163 -101 -137 0
-169 -136 -170 -101 -137 0
-154 -146 -155 -101 -147 0
-162 -146 -163 -101 -147 0
-169 -146 -170 -101 -147 0
-162 -155 -163 -101 -156 0
-169 -155 -170 -101 -156 0
-169 -163 -170 -101 -164 0
-135 -125 -136 -114 -126 0
-145 -125 -146 -114 -126 0
-154 -125 -155 -114 -126 0
-162 -125 -163 -114 -126 0
-169 -125 -170 -114 -126 0
-145 -136 -146 -114 -137 0
-154 -136 -155 -114 -137 0
-162 -136 -163 -114 -137 0
-169 -136 -170 -114 -137 0
-154 -146 -155 -114 -147 0
-162 -146 -163 -114 -147 0
-169 -146 -170 -114 -147 0
-162 -155 -163 -114 -156 0
-169 -155 -170 -114 -156 0
-169 -163 -170 -114 -164 0
-145 -136 -146 -126 -137 0
-154 -136 -155 -126 -137 0
-162 -136 -163 -126 -137 0
-169 -136 -170 -126 -137 0
-154 -146 -155 -126 -147 0
-162 -146 -163 -126 -147 0
-169 -146 -170 -126 -147 0
-162 -155 -163 -126 -156 0
-169 -155 -170 -126 -156 0
-169 -163 -170 -126 -164 0
-154 -146 -155 -137 -147 0
-162 -146 -163 -137 -147 0
-169 -146 -170 -137 -147 0
-162 -155 -163 -137 -156 0
-169 -155 -170 -137 -156 0
-169 -163 -170 -137 -164 0
-162 -155 -163 -147 -156 0
-169 -155 -170 -147 -156 0
-169 -163 -170 -147 -164 0
-169 -163 -170 -156 -164 0
-181 -185 -186 -191 -192 0
-99 -185 -100 -191 -192 0
-112 -185 -113 -191 -192 0
-124 -185 -125 -191 -192 0
-135 -185 -136 -191 -192 0
-145 -185 -146 -191 -192 0
-154 -185 -155 -191 -192 0
-162 -185 -163 -191 -192 0
-169 -185 -170 -191 -192 0
-99 -186 -100 -191 -193 0
-112 -186 -113 -191 -193 0
-124 -186 -125 -191 -193 0
-135 -186 -136 -191 -193 0
-145 -186 -146 -191 -193 0
-154 -186 -155 -191 -193 0
-162 -186 -163 -191 -193 0
-169 -186 -170 -191 -193 0
-112 -100 -113 -191 -102 0
-124 -100 -125 -191 -102 0
-135 -100 -136 -191 -102 0
-145 -100 -146 -191 -102 0
-154 -100 -155 -191 -102 0
-162 -100 -163 -191 -102 0
-169 -100 -170 -191 -102 0
-124 -113 -125 -191 -115 0
-135 -113 -136 -191 -115 0
-145 -113 -146 -191 -115 0
-154 -113 -155 -191 -115 0
-162 -113 -163 -191 -115 0
-169 -113 -170 -191 -115 0
-135 -125 -136 -191 -127 0
-145 -125 -146 -191 -127 0
-154 -125 -155 -191 -127 0
-162 -125 -163 -191 -127 0
-169 -125 -170 -191 -127 0
-145 -136 -146 -191 -138 0
-154 -136 -155 -191 -138 0
-162 -136 -163 -191 -138 0
-169 -136 -170 -191 -138 0
-154 -146 -155 -191 -148 0
-162 -146 -163 -191 -148 0
-169 -146 -170 -191 -148 0
-162 -155 -163 -191 -157 0
-169 -155 -170 -191 -157 0
-169 -163 -170 -191 -165 0
-99 -186 -100 -192 -193 0
-112 -186 -113 -192 -193 0
-124 -186 -125 -192 -193 0
-135 -186 -136 -192 -193 0
-145 -186 -146 -192 -193 0
-154 -186 -155 -192 -193 0
-162 -186 -163 -192 -193 0
-169 -186 -170 -192 -193 0
-112 -100 -113 -192 -102 0
-124 -100 -125 -192 -102 0
-135 -100 -136 -192 -102 0
-145 -100 -146 -192 -102 0
-154 -100 -155 -192 -102 0
-162 -100 -163 -192 -102 0
-169 -100 -170 -192 -102 0
-124 -113 -125 -192 -115 0
-135 -113 -136 -192 -115 0
-145 -113 -146 -192 -115 0
-154 -113 -155 -192 -115 0
-162 -113 -163 -192 -115 0
-169 -113 -170 -192 -115 0
-135 -125 -136 -192 -127 0
-145 -125 -146 -192 -127 0
-154 -125 -155 -192 -127 0
-162 -125 -163 -192 -127 0
-169 -125 -170 -192 -127 0
-145 -136 -146 -192 -138 0
-154 -136 -155 -192 -138 0
-162 -136 -163 -192 -138 0
-169 -136 -170 -192 -138 0
-154 -146 -155 -192 -148 0
-162 -146 -163 -192 -148 0
-169 -146 -170 -192 -148 0
-162 -155 -163 -192 -157 0
-169 -155 -170 -192 -157 0
-169 -163 -170 -192 -165 0
-112 -100 -113 -193 -102 0
-124 -100 -125 -193 -102 0
-135 -100 -136 -193 -102 0
-145 -100 -146 -193 -102 0
-154 -100 -155 -193 -102 0
-162 -100 -163 -193 -102 0
-169 -100 -170 -193 -102 0
-124 -113 -125 -193 -115 0
-135 -113 -136 -193 -115 0
-145 -113 -146 -193 -115 0
-154 -113 -155 -193 -115 0
-162 -113 -163 -193 -115 0
-169 -113 -170 -193 -115 0
-135 -125 -136 -193 -127 0
-145 -125 -146 -193 -127 0
-154 -125 -155 -193 -127 0
-162 -125 -163 -193 -127 0
-169 -125 -170 -193 -127 0
-145 -136 -146 -193 -138 0
-154 -136 -155 -193 -138 0
-162 -136 -163 -193 -138 0
-169 -136 -170 -193 -138 0
-154 -146 -155 -193 -148 0
-162 -146 -163 -193 -148 0
-169 -146 -170 -193 -148 0
-162 -155 -163 -193 -157 0
-169 -155 -170 -193 -157 0
-169 -163 -170 -193 -165 0
-124 -113 -125 -102 -115 0
-135 -113 -136 -102 -115 0
-145 -113 -146 -102 -115 0
-154 -113 -155 -102 -115 0
-162 -113 -163 -102 -115 0
-169 -113 -170 -102 -115 0
-135 -125 -136 -102 -127 0
-145 -125 -146 -102 -127 0
-154 -125 -155 -102 -127 0
-162 -125 -163 -102 -127 0
-169 -125 -170 -102 -127 0
-145 -136 -146 -102 -138 0
-154 -136 -155 -102 -138 0
-162 -136 -163 -102 -138 0
-169 -136 -170 -102 -138 0
-154 -146 -155 -102 -148 0
-162 -146 -163 -102 -148 0
-169 -146 -170 -102 -148 0
-162 -155 -163 -102 -157 0
-169 -155 -170 -102 -157 0
-169 -163 -170 -102 -165 0
-135 -125 -136 -115 -127 0
-145 -125 -146 -115 -127 0
-154 -125 -155 -115 -127 0
-162 -125 -163 -115 -127 0
-169 -125 -170 -115 -127 0
-145 -136 -146 -115 -138 0
-154 -136 -155 -115 -138 0
-162 -136 -163 -115 -138 0
-169 -136 -170 -115 -138 0
-154 -146 -155 -115 -148 0
-162 -146 -163 -115 -148 0
-169 -146 -170 -115 -148 0
-162 -155 -163 -115 -157 0
-169 -155 -170 -115 -157 0
-169 -163 -170 -115 -165 0
-145 -136 -146 -127 -138 0
-154 -136 -155 -127 -138 0
-162 -136 -163 -127 -138 0
-169 -136 -170 -127 -138 0
-154 -146 -155 -127 -148 0
-162 -146 -163 -127 -148 0
-169 -146 -170 -127 -148 0
-162 -155 -163 -127 -157 0
-169 -155 -170 -127 -157 0
-169 -163 -170 -127 -165 0
-154 -146 -155 -138 -148 0
-162 -146 -163 -138 -148 0
-169 -146 -170 -138 -148 0
-162 -155 -163 -138 -157 0
-169 -155 -170 -138 -157 0
-169 -163 -170 -138 -165 0
-162 -155 -163 -148 -157 0
-169 -155 -170 -148 -157 0
-169 -163 -170 -148 -165 0
-169 -163 -170 -157 -165 0
-99 -186 -100 -194 -195 0
-112 -186 -113 -194 -195 0
-124 -186 -125 -194 -195 0
-135 -186 -136 -194 -195 0
-145 -186 -146 -194 -195 0
-154 -186 -155 -194 -195 0
-162 -186 -163 -194 -195 0
-169 -186 -170 -194 -195 0
-112 -100 -113 -194 -103 0
-124 -100 -125 -194 -103 0
-135 -100 -136 -194 -103 0
-145 -100 -146 -194 -103 0
-154 -100 -155 -194 -103 0
-162 -100 -163 -194 -103 0
-169 -100 -170 -194 -103 0
-124 -113 -125 -194 -116 0
-135 -113 -136 -194 -116 0
-145 -113 -146 -194 -116 0
-154 -113 -155 -194 -116 0
-162 -113 -163 -194 -116 0
-169 -113 -170 -194 -116 0
-135 -125 -136 -194 -128 0
-145 -125 -146 -194 -128 0
-154 -125 -155 -194 -128 0
-162 -125 -163 -194 -128 0
-169 -125 -170 -194 -128 0
-145 -136 -146 -194 -139 0
-154 -136 -155 -194 -139 0
-162 -136 -163 -194 -139 0
-169 -136 -170 -194 -139 0
-154 -146 -155 -194 -149 0
-162 -146 -163 -194 -149 0
-169 -146 -170 -194 -149 0
-162 -155 -163 -194 -158 0
-169 -155 -170 -194 -158 0
-169 -163 -170 -194 -166 0
-112 -100 -113 -195 -103 0
-124 -100 -125 -195 -103 0
-135 -100 -136 -195 -103 0
-145 -100 -146 -195 -103 0
-154 -100 -155 -195 -103 0
-162 -100 -163 -195 -103 0
-169 -100 -170 -195 -103 0
-124 -113 -125 -195 -116 0
-135 -113 -136 -195 -116 0
-145 -113 -146 -195 -116 0
-154 -113 -155 -195 -116 0
-162 -113 -163 -195 -116 0
-169 -113 -170 -195 -116 0
-135 -125 -136 -195 -128 0
-145 -125 -146 -195 -128 0
-154 -125 -155 -195 -128 0
-162 -125 -163 -195 -128 0
-169 -125 -170 -195 -128 0
-145 -136 -146 -195 -139 0
-154 -136 -155 -195 -139 0
-162 -136 -163 -195 -139 0
-169 -136 -170 -195 -139 0
-154 -146 -155 -195 -149 0
-162 -146 -163 -195 -149 0
-169 -146 -170 -195 -149 0
-162 -155 -163 -195 -158 0
-169 -155 -170 -195 -158 0
-169 -163 -170 -195 -166 0
-124 -113 -125 -103 -116 0
-135 -113 -136 -103 -116 0
-145 -113 -146 -103 -116 0
-154 -113 -155 -103 -116 0
-162 -113 -163 -103 -116 0
-169 -113 -170 -103 -116 0
-135 -125 -136 -103 -128 0
-145 -125 -146 -103 -128 0
-154 -125 -155 -103 -128 0
-162 -125 -163 -103 -128 0
-169 -125 -170 -103 -128 0
-145 -136 -146 -103 -139 0
-154 -136 -155 -103 -139 0
-162 -136 -163 -103 -139 0
-169 -136 -170 -103 -139 0
-154 -146 -155 -103 -149 0
-162 -146 -163 -103 -149 0
-169 -146 -170 -103 -149 0
-162 -155 -163 -103 -158 0
-169 -155 -170 -103 -158 0
-169 -163 -170 -103 -166 0
-135 -125 -136 -116 -128 0
-145 -125 -146 -116 -128 0
-154 -125 -155 -116 -128 0
-162 -125 -163 -116 -128 0
-169 -125 -170 -116 -128 0
-145 -136 -146 -116 -139 0
-154 -136 -155 -116 -139 0
-162 -136 -163 -116 -139 0
-169 -136 -170 -116 -139 0
-154 -146 -155 -116 -149 0
-162 -146 -163 -116 -149 0
-169 -146 -170 -116 -149 0
-162 -155 -163 -116 -158 0
-169 -155 -170 -116 -158 0
-169 -163 -170 -116 -166 0
-145 -136 -146 -128 -139 0
-154 -136 -155 -128 -139 0
-162 -136 -163 -128 -139 0
-169 -136 -170 -128 -139 0
-154 -146 -155 -128 -149 0
-162 -146 -163 -128 -149 0
-169 -146 -170 -128 -149 0
-162 -155 -163 -128 -158 0
-169 -155 -170 -128 -158 0
-169 -163 -170 -128 -166 0
-154 -146 -155 -139 -149 0
-162 -146 -163 -139 -149 0
-169 -146 -170 -139 -149 0
-162 -155 -163 -139 -158 0
-169 -155 -170 -139 -158 0
-169 -163 -170 -139 -166 0
-162 -155 -163 -149 -158 0
-169 -155 -170 -149 -158 0
-169 -163 -170 -149 -166 0
-169 -163 -170 -158 -166 0
-112 -100 -113 -196 -104 0
-124 -100 -125 -196 -104 0
-135 -100 -136 -196 -104 0
-145 -100 -146 -196 -104 0
-154 -100 -155 -196 -104 0
-162 -100 -163 -196 -104 0
-169 -100 -170 -196 -104 0
-124 -113 -125 -196 -117 0
-135 -113 -136 -196 -117 0
-145 -113 -146 -196 -117 0
-154 -113 -155 -196 -117 0
-162 -113 -163 -196 -117 0
-169 -113 -170 -196 -117 0
-135 -125 -136 -196 -129 0
-145 -125 -146 -196 -129 0
-154 -125 -155 -196 -129 0
-162 -125 -163 -196 -129 0
-169 -125 -170 -196 -129 0
-145 -136 -146 -196 -140 0
-154 -136 -155 -196 -140 0
-162 -136 -163 -196 -140 0
-169 -136 -170 -196 -140 0
-154 -146 -155 -196 -150 0
-162 -146 -163 -196 -150 0
-169 -146 -170 -196 -150 0
-162 -155 -163 -196 -159 0
-169 -155 -170 -196 -159 0
-169 -163 -170 -196 -167 0
-124 -113 -125 -104 -117 0
-135 -113 -136 -104 -117 0
-145 -113 -146 -104 -117 0
-154 -113 -155 -104 -117 0
-162 -113 -163 -104 -117 0
-169 -113 -170 -104 -117 0
-135 -125 -136 -104 -129 0
-145 -125 -146 -104 -129 0
-154 -125 -155 -104 -129 0
-162 -125 -163 -104 -129 0
-169 -125 -170 -104 -129 0
-145 -136 -146 -104 -140 0
-154 -136 -155 -104 -140 0
-162 -136 -163 -104 -140 0
-169 -136 -170 -104 -140 0
-154 -146 -155 -104 -150 0
-162 -146 -163 -104 -150 0
-169 -146 -170 -104 -150 0
-162 -155 -163 -104 -159 0
-169 -155 -170 -104 -159 0
-169 -163 -170 -104 -167 0
-135 -125 -136 -117 -129 0
-145 -125 -146 -117 -129 0
-154 -125 -155 -117 -129 0
-162 -125 -163 -117 -129 0
-169 -125 -170 -117 -129 0
-145 -136 -146 -117 -140 0
-154 -136 -155 -117 -140 0
-162 -136 -163 -117 -140 0
-169 -136 -170 -117 -140 0
-154 -146 -155 -117 -150 0
-162 -146 -163 -117 -150 0
-169 -146 -170 -117 -150 0
-162 -155 -163 -117 -159 0
-169 -155 -170 -117 -159 0
-169 -163 -170 -117 -167 0
-145 -136 -146 -129 -140 0
-154 -136 -155 -129 -140 0
-162 -136 -163 -129 -140 0
-169 -136 -170 -129 -140 0
-154 -146 -155 -129 -150 0
-162 -146 -163 -129 -150 0
-169 -146 -170 -129 -150 0
-162 -155 -163 -129 -159 0
-169 -155 -170 -129 -159 0
-169 -163 -170 -129 -167 0
-154 -146 -155 -140 -150 0
-162 -146 -163 -140 -150 0
-169 -146 -170 -140 -150 0
-162 -155 -163 -140 -159 0
-169 -155 -170 -140 -159 0
-169 -163 -170 -140 -167 0
-162 -155 -163 -150 -159 0
-169 -155 -170 -150 -159 0
-169 -163 -170 -150 -167 0
-169 -163 -170 -159 -167 0
-124 -113 -125 -105 -118 0
-135 -113 -136 -105 -118 0
-145 -113 -146 -105 -118 0
-154 -113 -155 -105 -118 0
-162 -113 -163 -105 -118 0
-169 -113 -170 -105 -118 0
-135 -125 -136 -105 -130 0
-145 -125 -146 -105 -130 0
-154 -125 -155 -105 -130 0
-162 -125 -163 -105 -130 0
-169 -125 -170 -105 -130 0
-145 -136 -146 -105 -141 0
-154 -136 -155 -105 -141 0
-162 -136 -163 -105 -141 0
-169 -136 -170 -105 -141 0
-154 -146 -155 -105 -151 0
-162 -146 -163 -105 -151 0
-169 -146 -170 -105 -151 0
-162 -155 -163 -105 -160 0
-169 -155 -170 -105 -160 0
-169 -163 -170 -105 -168 0
-135 -125 -136 -118 -130 0
-145 -125 -146 -118 -130 0
-154 -125 -155 -118 -130 0
-162 -125 -163 -118 -130 0
-169 -125 -170 -118 -130 0
-145 -136 -146 -118 -141 0
-154 -136 -155 -118 -141 0
-162 -136 -163 -118 -141 0
-169 -136 -170 -118 -141 0
-154 -146 -155 -118 -151 0
-162 -146 -163 -118 -151 0
-169 -146 -170 -118 -151 0
-162 -155 -163 -118 -160 0
-169 -155 -170 -118 -160 0
-169 -163 -170 -118 -168 0
-145 -136 -146 -130 -141 0
-154 -136 -155 -130 -141 0
-162 -136 -163 -130 -141 0
-169 -136 -170 -130 -141 0
-154 -146 -155 -130 -151 0
-162 -146 -163 -130 -151 0
-169 -146 -170 -130 -151 0
-162 -155 -163 -130 -160 0
-169 -155 -170 -130 -160 0
-169 -163 -170 -130 -168 0
-154 -146 -155 -141 -151 0
-162 -146 -163 -141 -151 0
-169 -146 -170 -141 -151 0
-162 -155 -163 -141 -160 0
-169 -155 -170 -141 -160 0
-169 -163 -170 -141 -168 0
-162 -155 -163 -151 -160 0
-169 -155 -170 -151 -160 0
-169 -163 -170 -151 -168 0
-169 -163 -170 -160 -168 0
-135 -125 -136 -92 -93 0
-145 -125 -146 -92 -93 0
-154 -125 -155 -92 -93 0
-162 -125 -163 -92 -93 0
-169 -125 -170 -92 -93 0
-145 -136 -146 -92 -94 0
-154 -136 -155 -92 -94 0
-162 -136 -163 -92 -94 0
-169 -136 -170 -92 -94 0
-154 -146 -155 -92 -95 0
-162 -146 -163 -92 -95 0
-169 -146 -170 -92 -95 0
-162 -155 -163 -92 -96 0
-169 -155 -170 -92 -96 0
-169 -163 -170 -92 -97 0
-145 -136 -146 -93 -94 0
-154 -136 -155 -93 -94 0
-162 -136 -163 -93 -94 0
-169 -136 -170 -93 -94 0
-154 -146 -155 -93 -95 0
-162 -146 -163 -93 -95 0
-169 -146 -170 -93 -95 0
-162 -155 -163 -93 -96 0
-169 -155 -170 -93 -96 0
-169 -163 -170 -93 -97 0
-154 -146 -155 -94 -95 0
-162 -146 -163 -94 -95 0
-169 -146 -170 -94 -95 0
-162 -155 -163 -94 -96 0
-169 -155 -170 -94 -96 0
-169 -163 -170 -94 -97 0
-162 -155 -163 -95 -96 0
-169 -155 -170 -95 -96 0
-169 -163 -170 -95 -97 0
-169 -163 -170 -96 -97 0
-145 -136 -146 -106 -107 0
-154 -136 -155 -106 -107 0
-162 -136 -163 -106 -107 0
-169 -136 -170 -106 -107 0
-154 -146 -155 -106 -108 0
-162 -146 -163 -106 -108 0
-169 -146 -170 -106 -108 0
-162 -155 -163 -106 -109 0
-169 -155 -170 -106 -109 0
-169 -163 -170 -106 -110 0
-154 -146 -155 -107 -108 0
-162 -146 -163 -107 -108 0
-169 -146 -170 -107 -108 0
-162 -155 -163 -107 -109 0
-169 -155 -170 -107 -109 0
-169 -163 -170 -107 -110 0
-162 -155 -163 -108 -109 0
-169 -155 -170 -108 -109 0
-169 -163 -170 -108 -110 0
-169 -163 -170 -109 -110 0
-154 -146 -155 -119 -120 0
-162 -146 -163 -119 -120 0
-169 -146 -170 -119 -120 0
-162 -155 -163 -119 -121 0
-169 -155 -170 -119 -121 0
-169 -163 -170 -119 -122 0
-162 -155 -163 -120 -121 0
-169 -155 -170 -120 -121 0
-169 -163 -170 -120 -122 0
-169 -163 -170 -121 -122 0
-162 -155 -163 -131 -132 0
-169 -155 -170 -131 -132 0
-169 -163 -170 -131 -133 0
-169 -163 -170 -132 -133 0
-169 -163 -170 -142 -143 0
-181 -189 -190 -191 -192 0
-99 -189 -101 -191 -192 0
-112 -189 -114 -191 -192 0
-124 -189 -126 -191 -192 0
-135 -189 -137 -191 -192 0
-145 -189 -147 -191 -192 0
-154 -189 -156 -191 -192 0
-162 -189 -164 -191 -192 0
-169 -189 -171 -191 -192 0
-99 -190 -101 -191 -193 0
-112 -190 -114 -191 -193 0
-124 -190 -126 -191 -193 0
-135 -190 -137 -191 -193 0
-145 -190 -147 -191 -193 0
-154 -190 -156 -191 -193 0
-162 -190 -164 -191 -193 0
-169 -190 -171 -191 -193 0
-112 -101 -114 -191 -102 0
-124 -101 -126 -191 -102 0
-135 -101 -137 -191 -102 0
-145 -101 -147 -191 -102 0
-154 -101 -156 -191 -102 0
-162 -101 -164 -191 -102 0
-169 -101 -171 -191 -102 0
-124 -114 -126 -191 -115 0
-135 -114 -137 -191 -115 0
-145 -114 -147 -191 -115 0
-154 -114 -156 -191 -115 0
-162 -114 -164 -191 -115 0
-169 -114 -171 -191 -115 0
-135 -126 -137 -191 -127 0
-145 -126 -147 -191 -127 0
-154 -126 -156 -191 -127 0
-162 -126 -164 -191 -127 0
-169 -126 -171 -191 -127 0
-145 -137 -147 -191 -138 0
-154 -137 -156 -191 -138 0
-162 -137 -164 -191 -138 0
-169 -137 -171 -191 -138 0
-154 -147 -156 -191 -148 0
-162 -147 -164 -191 -148 0
-169 -147 -171 -191 -148 0
-162 -156 -164 -191 -157 0
-169 -156 -171 -191 -157 0
-169 -164 -171 -191 -165 0
-99 -190 -101 -192 -193 0
-112 -190 -114 -192 -193 0
-124 -190 -126 -192 -193 0
-135 -190 -137 -192 -193 0
-145 -190 -147 -192 -193 0
-154 -190 -156 -192 -193 0
-162 -190 -164 -192 -193 0
-169 -190 -171 -192 -193 0
-112 -101 -114 -192 -102 0
-124 -101 -126 -192 -102 0
-135 -101 -137 -192 -102 0
-145 -101 -147 -192 -102 0
-154 -101 -156 -192 -102 0
-162 -101 -164 -192 -102 0
-169 -101 -171 -192 -102 0
-124 -114 -126 -192 -115 0
-135 -114 -137 -192 -115 0
-145 -114 -147 -192 -115 0
-154 -114 -156 -192 -115 0
-162 -114 -164 -192 -115 0
-169 -114 -171 -192 -115 0
-135 -126 -137 -192 -127 0
-145 -126 -147 -192 -127 0
-154 -126 -156 -192 -127 0
-162 -126 -164 -192 -127 0
-169 -126 -171 -192 -127 0
-145 -137 -147 -192 -138 0
-154 -137 -156 -192 -138 0
-162 -137 -164 -192 -138 0
-169 -137 -171 -192 -138 0
-154 -147 -156 -192 -148 0
-162 -147 -164 -192 -148 0
-169 -147 -171 -192 -148 0
-162 -156 -164 -192 -157 0
-169 -156 -171 -192 -157 0
-169 -164 -171 -192 -165 0
-112 -101 -114 -193 -102 0
-124 -101 -126 -193 -102 0
-135 -101 -137 -193 -102 0
-145 -101 -147 -193 -102 0
-154 -101 -156 -193 -102 0
-162 -101 -164 -193 -102 0
-169 -101 -171 -193 -102 0
-124 -114 -126 -193 -115 0
-135 -114 -137 -193 -115 0
-145 -114 -147 -193 -115 0
-154 -114 -156 -193 -115 0
-162 -114 -164 -193 -115 0
-169 -114 -171 -193 -115 0
-135 -126 -137 -193 -127 0
-145 -126 -147 -193 -127 0
-154 -126 -156 -193 -127 0
-162 -126 -164 -193 -127 0
-169 -126 -171 -193 -127 0
-145 -137 -147 -193 -138 0
-154 -137 -156 -193 -138 0
-162 -137 -164 -193 -138 0
-169 -137 -171 -193 -138 0
-154 -147 -156 -193 -148 0
-162 -147 -164 -193 -148 0
-169 -147 -171 -193 -148 0
-162 -156 -164 -193 -157 0
-169 -156 -171 -193 -157 0
-169 -164 -171 -193 -165 0
-124 -114 -126 -102 -115 0
-135 -114 -137 -102 -115 0
-145 -114 -147 -102 -115 0
-154 -114 -156 -102 -115 0
-162 -114 -164 -102 -115 0
-169 -114 -171 -102 -115 0
-135 -126 -137 -102 -127 0
-145 -126 -147 -102 -127 0
-154 -126 -156 -102 -127 0
-162 -126 -164 -102 -127 0
-169 -126 -171 -102 -127 0
-145 -137 -147 -102 -138 0
-154 -137 -156 -102 -138 0
-162 -137 -164 -102 -138 0
-169 -137 -171 -102 -138 0
-154 -147 -156 -102 -148 0
-162 -147 -164 -102 -148 0
-169 -147 -171 -102 -148 0
-162 -156 -164 -102 -157 0
-169 -156 -171 -102 -157 0
-169 -164 -171 -102 -165 0
-135 -126 -137 -115 -127 0
-145 -126 -147 -115 -127 0
-154 -126 -156 -115 -127 0
-162 -126 -164 -115 -127 0
-169 -126 -171 -115 -127 0
-145 -137 -147 -115 -138 0
-154 -137 -156 -115 -138 0
-162 -137 -164 -115 -138 0
-169 -137 -171 -115 -138 0
-154 -147 -156 -115 -148 0
-162 -147 -164 -115 -148 0
-169 -147 -171 -115 -148 0
-162 -156 -164 -115 -157 0
-169 -156 -171 -115 -157 0
-169 -164 -171 -115 -165 0
-145 -137 -147 -127 -138 0
-154 -137 -156 -127 -138 0
-162 -137 -164 -127 -138 0
-169 -137 -171 -127 -138 0
-154 -147 -156 -127 -148 0
-162 -147 -164 -127 -148 0
-169 -147 -171 -127 -148 0
-162 -156 -164 -127 -157 0
-169 -156 -171 -127 -157 0
-169 -164 -171 -127 -165 0
-154 -147 -156 -138 -148 0
-162 -147 -164 -138 -148 0
-169 -147 -171 -138 -148 0
-162 -156 -164 -138 -157 0
-169 -156 -171 -138 -157 0
-169 -164 -171 -138 -165 0
-162 -156 -164 -148 -157 0
-169 -156 -171 -148 -157 0
-169 -164 -171 -148 -165 0
-169 -164 -171 -157 -165 0
-99 -190 -101 -194 -195 0
-112 -190 -114 -194 -195 0
-124 -190 -126 -194 -195 0
-135 -190 -137 -194 -195 0
-145 -190 -147 -194 -195 0
-154 -190 -156 -194 -195 0
-162 -190 -164 -194 -195 0
-169 -190 -171 -194 -195 0
-112 -101 -114 -194 -103 0
-124 -101 -126 -194 -103 0
-135 -101 -137 -194 -103 0
-145 -101 -147 -194 -103 0
-154 -101 -156 -194 -103 0
-162 -101 -164 -194 -103 0
-169 -101 -171 -194 -103 0
-124 -114 -126 -194 -116 0
-135 -114 -137 -194 -116 0
-145 -114 -147 -194 -116 0
-154 -114 -156 -194 -116 0
-162 -114 -164 -194 -116 0
-169 -114 -171 -194 -116 0
-135 -126 -137 -194 -128 0
-145 -126 -147 -194 -128 0
-154 -126 -156 -194 -128 0
-162 -126 -164 -194 -128 0
-169 -126 -171 -194 -128 0
-145 -137 -147 -194 -139 0
-154 -137 -156 -194 -139 0
-162 -137 -164 -194 -139 0
-169 -137 -171 -194 -139 0
-154 -147 -156 -194 -149 0
-162 -147 -164 -194 -149 0
-169 -147 -171 -194 -149 0
-162 -156 -164 -194 -158 0
-169 -156 -171 -194 -158 0
-169 -164 -171 -194 -166 0
-112 -101 -114 -195 -103 0
-124 -101 -126 -195 -103 0
-135 -101 -137 -195 -103 0
-145 -101 -147 -195 -103 0
-154 -101 -156 -195 -103 0
-162 -101 -164 -195 -103 0
-169 -101 -171 -195 -103 0
-124 -114 -126 -195 -116 0
-135 -114 -137 -195 -116 0
-145 -114 -147 -195 -116 0
-154 -114 -156 -195 -116 0
-162 -114 -164 -195 -116 0
-169 -114 -171 -195 -116 0
-135 -126 -137 -195 -128 0
-145 -126 -147 -195 -128 0
-154 -126 -156 -195 -128 0
-162 -126 -164 -195 -128 0
-169 -126 -171 -195 -128 0
-145 -137 -147 -195 -139 0
-154 -137 -156 -195 -139 0
-162 -137 -164 -195 -139 0
-169 -137 -171 -195 -139 0
-154 -147 -156 -195 -149 0
-162 -147 -164 -195 -149 0
-169 -147 -171 -195 -149 0
-162 -156 -164 -195 -158 0
-169 -156 -171 -195 -158 0
-169 -164 -171 -195 -166 0
-124 -114 -126 -103 -116 0
-135 -114 -137 -103 -116 0
-145 -114 -147 -103 -116 0
-154 -114 -156 -103 -116 0
-162 -114 -164 -103 -116 0
-169 -114 -171 -103 -116 0
-135 -126 -137 -103 -128 0
-145 -126 -147 -103 -128 0
-154 -126 -156 -103 -128 0
-162 -126 -164 -103 -128 0
-169 -126 -171 -103 -128 0
-145 -137 -147 -103 -139 0
-154 -137 -156 -103 -139 0
-162 -137 -164 -103 -139 0
-169 -137 -171 -103 -139 0
-154 -147 -156 -103 -149 0
-162 -147 -164 -103 -149 0
-169 -147 -171 -103 -149 0
-162 -156 -164 -103 -158 0
-169 -156 -171 -103 -158 0
-169 -164 -171 -103 -166 0
-135 -126 -137 -116 -128 0
-145 -126 -147 -116 -128 0
-154 -126 -156 -116 -128 0
-162 -126 -164 -116 -128 0
-169 -126 -171 -116 -128 0
-145 -137 -147 -116 -139 0
-154 -137 -156 -116 -139 0
-162 -137 -164 -116 -139 0
-169 -137 -171 -116 -139 0
-154 -147 -156 -116 -149 0
-162 -147 -164 -116 -149 0
-169 -147 -171 -116 -149 0
-162 -156 -164 -116 -158 0
-169 -156 -171 -116 -158 0
-169 -164 -171 -116 -166 0
-145 -137 -147 -128 -139 0
-154 -137 -156 -128 -139 0
-162 -137 -164 -128 -139 0
-169 -137 -171 -128 -139 0
-154 -147 -156 -128 -149 0
-162 -147 -164 -128 -149 0
-169 -147 -171 -128 -149 0
-162 -156 -164 -128 -158 0
-169 -156 -171 -128 -158 0
-169 -164 -171 -128 -166 0
-154 -147 -156 -139 -149 0
-162 -147 -164 -139 -149 0
-169 -147 -171 -139 -149 0
-162 -156 -164 -139 -158 0
-169 -156 -171 -139 -158 0
-169 -164 -171 -139 -166 0
-162 -156 -164 -149 -158 0
-169 -156 -171 -149 -158 0
-169 -164 -171 -149 -166 0
-169 -164 -171 -158 -166 0
-112 -101 -114 -196 -104 0
-124 -101 -126 -196 -104 0
-135 -101 -137 -196 -104 0
-145 -101 -147 -196 -104 0
-154 -101 -156 -196 -104 0
-162 -101 -164 -196 -104 0
-169 -101 -171 -196 -104 0
-124 -114 -126 -196 -117 0
-135 -114 -137 -196 -117 0
-145 -114 -147 -196 -117 0
-154 -114 -156 -196 -117 0
-162 -114 -164 -196 -117 0
-169 -114 -171 -196 -117 0
-135 -126 -137 -196 -129 0
-145 -126 -147 -196 -129 0
-154 -126 -156 -196 -129 0
-162 -126 -164 -196 -129 0
-169 -126 -171 -196 -129 0
-145 -137 -147 -196 -140 0
-154 -137 -156 -196 -140 0
-162 -137 -164 -196 -140 0
-169 -137 -171 -196 -140 0
-154 -147 -156 -196 -150 0
-162 -147 -164 -196 -150 0
-169 -147 -171 -196 -150 0
-162 -156 -164 -196 -159 0
-169 -156 -171 -196 -159 0
-169 -164 -171 -196 -167 0
-124 -114 -126 -104 -117 0
-135 -114 -137 -104 -117 0
-145 -114 -147 -104 -117 0
-154 -114 -156 -104 -117 0
-162 -114 -164 -104 -117 0
-169 -114 -171 -104 -117 0
-135 -126 -137 -104 -129 0
-145 -126 -147 -104 -129 0
-154 -126 -156 -104 -129 0
-162 -126 -164 -104 -129 0
-169 -126 -171 -104 -129 0
-145 -137 -147 -104 -140 0
-154 -137 -156 -104 -140 0
-162 -137 -164 -104 -140 0
-169 -137 -171 -104 -140 0
-154 -147 -156 -104 -150 0
-162 -147 -164 -104 -150 0
-169 -147 -171 -104 -150 0
-162 -156 -164 -104 -159 0
-169 -156 -171 -104 -159 0
-169 -164 -171 -104 -167 0
-135 -126 -137 -117 -129 0
-145 -126 -147 -117 -129 0
-154 -126 -156 -117 -129 0
-162 -126 -164 -117 -129 0
-169 -126 -171 -117 -129 0
-145 -137 -147 -117 -140 0
-154 -137 -156 -117 -140 0
-162 -137 -164 -117 -140 0
-169 -137 -171 -117 -140 0
-154 -147 -156 -117 -150 0
-162 -147 -164 -117 -150 0
-169 -147 -171 -117 -150 0
-162 -156 -164 -117 -159 0
-169 -156 -171 -117 -159 0
-169 -164 -171 -117 -167 0
-145 -137 -147 -129 -140 0
-154 -137 -156 -129 -140 0
-162 -137 -164 -129 -140 0
-169 -137 -171 -129 -140 0
-154 -147 -156 -129 -150 0
-162 -147 -164 -129 -150 0
-169 -147 -171 -129 -150 0
-162 -156 -164 -129 -159 0
-169 -156 -171 -129 -159 0
-169 -164 -171 -129 -167 0
-154 -147 -156 -140 -150 0
-162 -147 -164 -140 -150 0
-169 -147 -171 -140 -150 0
-162 -156 -164 -140 -159 0
-169 -156 -171 -140 -159 0
-169 -164 -171 -140 -167 0
-162 -156 -164 -150 -159 0
-169 -156 -171 -150 -159 0
-169 -164 -171 -150 -167 0
-169 -164 -171 -159 -167 0
-124 -114 -126 -105 -118 0
-135 -114 -137 -105 -118 0
-145 -114 -147 -105 -118 0
-154 -114 -156 -105 -118 0
-162 -114 -164 -105 -118 0
-169 -114 -171 -105 -118 0
-135 -126 -137 -105 -130 0
-145 -126 -147 -105 -130 0
-154 -126 -156 -105 -130 0
-162 -126 -164 -105 -130 0
-169 -126 -171 -105 -130 0
-145 -137 -147 -105 -141 0
-154 -137 -156 -105 -141 0
-162 -137 -164 -105 -141 0
-169 -137 -171 -105 -141 0
-154 -147 -156 -105 -151 0
-162 -147 -164 -105 -151 0
-169 -147 -171 -105 -151 0
-162 -156 -164 -105 -160 0
-169 -156 -171 -105 -160 0
-169 -164 -171 -105 -168 0
-135 -126 -137 -118 -130 0
-145 -126 -147 -118 -130 0
-154 -126 -156 -118 -130 0
-162 -126 -164 -118 -130 0
-169 -126 -171 -118 -130 0
-145 -137 -147 -118 -141 0
-154 -137 -156 -118 -141 0
-162 -137 -164 -118 -141 0
-169 -137 -171 -118 -141 0
-154 -147 -156 -118 -151 0
-162 -147 -164 -118 -151 0
-169 -147 -171 -118 -151 0
-162 -156 -164 -118 -160 0
-169 -156 -171 -118 -160 0
-169 -164 -171 -118 -168 0
-145 -137 -147 -130 -141 0
-154 -137 -156 -130 -141 0
-162 -137 -164 -130 -141 0
-169 -137 -171 -130 -141 0
-154 -147 -156 -130 -151 0
-162 -147 -164 -130 -151 0
-169 -147 -171 -130 -151 0
-162 -156 -164 -130 -160 0
-169 -156 -171 -130 -160 0
-169 -164 -171 -130 -168 0
-154 -147 -156 -141 -151 0
-162 -147 -164 -141 -151 0
-169 -147 -171 -141 -151 0
-162 -156 -164 -141 -160 0
-169 -156 -171 -141 -160 0
-169 -164 -171 -141 -168 0
-162 -156 -164 -151 -160 0
-169 -156 -171 -151 -160 0
-169 -164 -171 -151 -168 0
-169 -164 -171 -160 -168 0
-135 -126 -137 -92 -93 0
-145 -126 -147 -92 -93 0
-154 -126 -156 -92 -93 0
-162 -126 -164 -92 -93 0
-169 -126 -171 -92 -93 0
-145 -137 -147 -92 -94 0
-154 -137 -156 -92 -94 0
-162 -137 -164 -92 -94 0
-169 -137 -171 -92 -94 0
-154 -147 -156 -92 -95 0
-162 -147 -164 -92 -95 0
-169 -147 -171 -92 -95 0
-162 -156 -164 -92 -96 0
-169 -156 -171 -92 -96 0
-169 -164 -171 -92 -97 0
-145 -137 -147 -93 -94 0
-154 -137 -156 -93 -94 0
-162 -137 -164 -93 -94 0
-169 -137 -171 -93 -94 0
-154 -147 -156 -93 -95 0
-162 -147 -164 -93 -95 0
-169 -147 -171 -93 -95 0
-162 -156 -164 -93 -96 0
-169 -156 -171 -93 -96 0
-169 -164 -171 -93 -97 0
-154 -147 -156 -94 -95 0
-162 -147 -164 -94 -95 0
-169 -147 -171 -94 -95 0
-162 -156 -164 -94 -96 0
-169 -156 -171 -94 -96 0
-169 -164 -171 -94 -97 0
-162 -156 -164 -95 -96 0
-169 -156 -171 -95 -96 0
-169 -164 -171 -95 -97 0
-169 -164 -171 -96 -97 0
-145 -137 -147 -106 -107 0
-154 -137 -156 -106 -107 0
-162 -137 -164 -106 -107 0
-169 -137 -171 -106 -107 0
-154 -147 -156 -106 -108 0
-162 -147 -164 -106 -108 0
-169 -147 -171 -106 -108 0
-162 -156 -164 -106 -109 0
-169 -156 -171 -106 -109 0
-169 -164 -171 -106 -110 0
-154 -147 -156 -107 -108 0
-162 -147 -164 -107 -108 0
-169 -147 -171 -107 -108 0
-162 -156 -164 -107 -109 0
-169 -156 -171 -107 -109 0
-169 -164 -171 -107 -110 0
-162 -156 -164 -108 -109 0
-169 -156 -171 -108 -109 0
-169 -164 -171 -108 -110 0
-169 -164 -171 -109 -110 0
-154 -147 -156 -119 -120 0
-162 -147 -164 -119 -120 0
-169 -147 -171 -119 -120 0
-162 -156 -164 -119 -121 0
-169 -156 -171 -119 -121 0
-169 -164 -171 -119 -122 0
-162 -156 -164 -120 -121 0
-169 -156 -171 -120 -121 0
-169 -164 -171 -120 -122 0
-169 -164 -171 -121 -122 0
-162 -156 -164 -131 -132 0
-169 -156 -171 -131 -132 0
-169 -164 -171 -131 -133 0
-169 -164 -171 -132 -133 0
-169 -164 -171 -142 -143 0
-99 -193 -102 -194 -195 0
-112 -193 -115 -194 -195 0
-124 -193 -127 -194 -195 0
-135 -193 -138 -194 -195 0
-145 -193 -148 -194 -195 0
-154 -193 -157 -194 -195 0
-162 -193 -165 -194 -195 0
-169 -193 -172 -194 -195 0
-112 -102 -115 -194 -103 0
-124 -102 -127 -194 -103 0
-135 -102 -138 -194 -103 0
-145 -102 -148 -194 -103 0
-154 -102 -157 -194 -103 0
-162 -102 -165 -194 -103 0
-169 -102 -172 -194 -103 0
-124 -115 -127 -194 -116 0
-135 -115 -138 -194 -116 0
-145 -115 -148 -194 -116 0
-154 -115 -157 -194 -116 0
-162 -115 -165 -194 -116 0
-169 -115 -172 -194 -116 0
-135 -127 -138 -194 -128 0
-145 -127 -148 -194 -128 0
-154 -127 -157 -194 -128 0
-162 -127 -165 -194 -128 0
-169 -127 -172 -194 -128 0
-145 -138 -148 -194 -139 0
-154 -138 -157 -194 -139 0
-162 -138 -165 -194 -139 0
-169 -138 -172 -194 -139 0
-154 -148 -157 -194 -149 0
-162 -148 -165 -194 -149 0
-169 -148 -172 -194 -149 0
-162 -157 -165 -194 -158 0
-169 -157 -172 -194 -158 0
-169 -165 -172 -194 -166 0
-112 -102 -115 -195 -103 0
-124 -102 -127 -195 -103 0
-135 -102 -138 -195 -103 0
-145 -102 -148 -195 -103 0
-154 -102 -157 -195 -103 0
-162 -102 -165 -195 -103 0
-169 -102 -172 -195 -103 0
-124 -115 -127 -195 -116 0
-135 -115 -138 -195 -116 0
-145 -115 -148 -195 -116 0
-154 -115 -157 -195 -116 0
-162 -115 -165 -195 -116 0
-169 -115 -172 -195 -116 0
-135 -127 -138 -195 -128 0
-145 -127 -148 -195 -128 0
-154 -127 -157 -195 -128 0
-162 -127 -165 -195 -128 0
-169 -127 -172 -195 -128 0
-145 -138 -148 -195 -139 0
-154 -138 -157 -195 -139 0
-162 -138 -165 -195 -139 0
-169 -138 -172 -195 -139 0
-154 -148 -157 -195 -149 0
-162 -148 -165 -195 -149 0
-169 -148 -172 -195 -149 0
-162 -157 -165 -195 -158 0
-169 -157 -172 -195 -158 0
-169 -165 -172 -195 -166 0
-124 -115 -127 -103 -116 0
-135 -115 -138 -103 -116 0
-145 -115 -148 -103 -116 0
-154 -115 -157 -103 -116 0
-162 -115 -165 -103 -116 0
-169 -115 -172 -103 -116 0
-135 -127 -138 -103 -128 0
-145 -127 -148 -103 -128 0
-154 -127 -157 -103 -128 0
-162 -127 -165 -103 -128 0
-169 -127 -172 -103 -128 0
-145 -138 -148 -103 -139 0
-154 -138 -157 -103 -139 0
-162 -138 -165 -103 -139 0
-169 -138 -172 -103 -139 0
-154 -148 -157 -103 -149 0
-162 -148 -165 -103 -149 0
-169 -148 -172 -103 -149 0
-162 -157 -165 -103 -158 0
-169 -157 -172 -103 -158 0
-169 -165 -172 -103 -166 0
-135 -127 -138 -116 -128 0
-145 -127 -148 -116 -128 0
-154 -127 -157 -116 -128 0
-162 -127 -165 -116 -128 0
-169 -127 -172 -116 -128 0
-145 -138 -148 -116 -139 0
-154 -138 -157 -116 -139 0
-162 -138 -165 -116 -139 0
-169 -138 -172 -116 -139 0
-154 -148 -157 -116 -149 0
-162 -148 -165 -116 -149 0
-169 -148 -172 -116 -149 0
-162 -157 -165 -116 -158 0
-169 -157 -172 -116 -158 0
-169 -165 -172 -116 -166 0
-145 -138 -148 -128 -139 0
-154 -138 -157 -128 -139 0
-162 -138 -165 -128 -139 0
-169 -138 -172 -128 -139 0
-154 -148 -157 -128 -149 0
-162 -148 -165 -128 -149 0
-169 -148 -172 -128 -149 0
-162 -157 -165 -128 -158 0
-169 -157 -172 -128 -158 0
-169 -165 -172 -128 -166 0
-154 -148 -157 -139 -149 0
-162 -148 -165 -139 -149 0
-169 -148 -172 -139 -149 0
-162 -157 -165 -139 -158 0
-169 -157 -172 -139 -158 0
-169 -165 -172 -139 -166 0
-162 -157 -165 -149 -158 0
-169 -157 -172 -149 -158 0
-169 -165 -172 -149 -166 0
-169 -165 -172 -158 -166 0
-112 -102 -115 -196 -104 0
-124 -102 -127 -196 -104 0
-135 -102 -138 -196 -104 0
-145 -102 -148 -196 -104 0
-154 -102 -157 -196 -104 0
-162 -102 -165 -196 -104 0
-169 -102 -172 -196 -104 0
-124 -115 -127 -196 -117 0
-135 -115 -138 -196 -117 0
-145 -115 -148 -196 -117 0
-154 -115 -157 -196 -117 0
-162 -115 -165 -196 -117 0
-169 -115 -172 -196 -117 0
-135 -127 -138 -196 -129 0
-145 -127 -148 -196 -129 0
-154 -127 -157 -196 -129 0
-162 -127 -165 -196 -129 0
-169 -127 -172 -196 -129 0
-145 -138 -148 -196 -140 0
-154 -138 -157 -196 -140 0
-162 -138 -165 -196 -140 0
-169 -138 -172 -196 -140 0
-154 -148 -157 -196 -150 0
-162 -148 -165 -196 -150 0
-169 -148 -172 -196 -150 0
-162 -157 -165 -196 -159 0
-169 -157 -172 -196 -159 0
-169 -165 -172 -196 -167 0
-124 -115 -127 -104 -117 0
-135 -115 -138 -104 -117 0
-145 -115 -148 -104 -117 0
-154 -115 -157 -104 -117 0
-162 -115 -165 -104 -117 0
-169 -115 -172 -104 -117 0
-135 -127 -138 -104 -129 0
-145 -127 -148 -104 -129 0
-154 -127 -157 -104 -129 0
-162 -127 -165 -104 -129 0
-169 -127 -172 -104 -129 0
-145 -138 -148 -104 -140 0
-154 -138 -157 -104 -140 0
-162 -138 -165 -104 -140 0
-169 -138 -172 -104 -140 0
-154 -148 -157 -104 -150 0
-162 -148 -165 -104 -150 0
-169 -148 -172 -104 -150 0
-162 -157 -165 -104 -159 0
-169 -157 -172 -104 -159 0
-169 -165 -172 -104 -167 0
-135 -127 -138 -117 -129 0
-145 -127 -148 -117 -129 0
-154 -127 -157 -117 -129 0
-162 -127 -165 -117 -129 0
-169 -127 -172 -117 -129 0
-145 -138 -148 -117 -140 0
-154 -138 -157 -117 -140 0
-162 -138 -165 -117 -140 0
-169 -138 -172 -117 -140 0
-154 -148 -157 -117 -150 0
-162 -148 -165 -117 -150 0
-169 -148 -172 -117 -150 0
-162 -157 -165 -117 -159 0
-169 -157 -172 -117 -159 0
-169 -165 -172 -117 -167 0
-145 -138 -148 -129 -140 0
-154 -138 -157 -129 -140 0
-162 -138 -165 -129 -140 0
-169 -138 -172 -129 -140 0
-154 -148 -157 -129 -150 0
-162 -148 -165 -129 -150 0
-169 -148 -172 -129 -150 0
-162 -157 -165 -129 -159 0
-169 -157 -172 -129 -159 0
-169 -165 -172 -129 -167 0
-154 -148 -157 -140 -150 0
-162 -148 -165 -140 -150 0
-169 -148 -172 -140 -150 0
-162 -157 -165 -140 -159 0
-169 -157 -172 -140 -159 0
-169 -165 -172 -140 -167 0
-162 -157 -165 -150 -159 0
-169 -157 -172 -150 -159 0
-169 -165 -172 -150 -167 0
-169 -165 -172 -159 -167 0
-124 -115 -127 -105 -118 0
-135 -115 -138 -105 -118 0
-145 -115 -148 -105 -118 0
-154 -115 -157 -105 -118 0
-162 -115 -165 -105 -118 0
-169 -115 -172 -105 -118 0
-135 -127 -138 -105 -130 0
-145 -127 -148 -105 -130 0
-154 -127 -157 -105 -130 0
-162 -127 -165 -105 -130 0
-169 -127 -172 -105 -130 0
-145 -138 -148 -105 -141 0
-154 -138 -157 -105 -141 0
-162 -138 -165 -105 -141 0
-169 -138 -172 -105 -141 0
-154 -148 -157 -105 -151 0
-162 -148 -165 -105 -151 0
-169 -148 -172 -105 -151 0
-162 -157 -165 -105 -160 0
-169 -157 -172 -105 -160 0
-169 -165 -172 -105 -168 0
-135 -127 -138 -118 -130 0
-145 -127 -148 -118 -130 0
-154 -127 -157 -118 -130 0
-162 -127 -165 -118 -130 0
-169 -127 -172 -118 -130 0
-145 -138 -148 -118 -141 0
-154 -138 -157 -118 -141 0
-162 -138 -165 -118 -141 0
-169 -138 -172 -118 -141 0
-154 -148 -157 -118 -151 0
-162 -148 -165 -118 -151 0
-169 -148 -172 -118 -151 0
-162 -157 -165 -118 -160 0
-169 -157 -172 -118 -160 0
-169 -165 -172 -118 -168 0
-145 -138 -148 -130 -141 0
-154 -138 -157 -130 -141 0
-162 -138 -165 -130 -141 0
-169 -138 -172 -130 -141 0
-154 -148 -157 -130 -151 0
-162 -148 -165 -130 -151 0
-169 -148 -172 -130 -151 0
-162 -157 -165 -130 -160 0
-169 -157 -172 -130 -160 0
-169 -165 -172 -130 -168 0
-154 -148 -157 -141 -151 0
-162 -148 -165 -141 -151 0
-169 -148 -172 -141 -151 0
-162 -157 -165 -141 -160 0
-169 -157 -172 -141 -160 0
-169 -165 -172 -141 -168 0
-162 -157 -165 -151 -160 0
-169 -157 -172 -151 -160 0
-169 -165 -172 -151 -168 0
-169 -165 -172 -160 -168 0
-135 -127 -138 -92 -93 0
-145 -127 -148 -92 -93 0
-154 -127 -157 -92 -93 0
-162 -127 -165 -92 -93 0
-169 -127 -172 -92 -93 0
-145 -138 -148 -92 -94 0
-154 -138 -157 -92 -94 0
-162 -138 -165 -92 -94 0
-169 -138 -172 -92 -94 0
-154 -148 -157 -92 -95 0
-162 -148 -165 -92 -95 0
-169 -148 -172 -92 -95 0
-162 -157 -165 -92 -96 0
-169 -157 -172 -92 -96 0
-169 -165 -172 -92 -97 0
-145 -138 -148 -93 -94 0
-154 -138 -157 -93 -94 0
-162 -138 -165 -93 -94 0
-169 -138 -172 -93 -94 0
-154 -148 -157 -93 -95 0
-162 -148 -165 -93 -95 0
-169 -148 -172 -93 -95 0
-162 -157 -165 -93 -96 0
-169 -157 -172 -93 -96 0
-169 -165 -172 -93 -97 0
-154 -148 -157 -94 -95 0
-162 -148 -165 -94 -95 0
-169 -148 -172 -94 -95 0
-162 -157 -165 -94 -96 0
-169 -157 -172 -94 -96 0
-169 -165 -172 -94 -97 0
-162 -157 -165 -95 -96 0
-169 -157 -172 -95 -96 0
-169 -165 -172 -95 -97 0
-169 -165 -172 -96 -97 0
-145 -138 -148 -106 -107 0
-154 -138 -157 -106 -107 0
-162 -138 -165 -106 -107 0
-169 -138 -172 -106 -107 0
-154 -148 -157 -106 -108 0
-162 -148 -165 -106 -108 0
-169 -148 -172 -106 -108 0
-162 -157 -165 -106 -109 0
-169 -157 -172 -106 -109 0
-169 -165 -172 -106 -110 0
-154 -148 -157 -107 -108 0
-162 -148 -165 -107 -108 0
-169 -148 -172 -107 -108 0
-162 -157 -165 -107 -109 0
-169 -157 -172 -107 -109 0
-169 -165 -172 -107 -110 0
-162 -157 -165 -108 -109 0
-169 -157 -172 -108 -109 0
-169 -165 -172 -108 -110 0
-169 -165 -172 -109 -110 0
-154 -148 -157 -119 -120 0
-162 -148 -165 -119 -120 0
-169 -148 -172 -119 -120 0
-162 -157 -165 -119 -121 0
-169 -157 -172 -119 -121 0
-169 -165 -172 -119 -122 0
-162 -157 -165 -120 -121 0
-169 -157 -172 -120 -121 0
-169 -165 -172 -120 -122 0
-169 -165 -172 -121 -122 0
-162 -157 -165 -131 -132 0
-169 -157 -172 -131 -132 0
-169 -165 -172 -131 -133 0
-169 -165 -172 -132 -133 0
-169 -165 -172 -142 -143 0
-112 -103 -116 -196 -104 0
-124 -103 -128 -196 -104 0
-135 -103 -139 -196 -104 0
-145 -103 -149 -196 -104 0
-154 -103 -158 -196 -104 0
-162 -103 -166 -196 -104 0
-169 -103 -173 -196 -104 0
-124 -116 -128 -196 -117 0
-135 -116 -139 -196 -117 0
-145 -116 -149 -196 -117 0
-154 -116 -158 -196 -117 0
-162 -116 -166 -196 -117 0
-169 -116 -173 -196 -117 0
-135 -128 -139 -196 -129 0
-145 -128 -149 -196 -129 0
-154 -128 -158 -196 -129 0
-162 -128 -166 -196 -129 0
-169 -128 -173 -196 -129 0
-145 -139 -149 -196 -140 0
-154 -139 -158 -196 -140 0
-162 -139 -166 -196 -140 0
-169 -139 -173 -196 -140 0
-154 -149 -158 -196 -150 0
-162 -149 -166 -196 -150 0
-169 -149 -173 -196 -150 0
-162 -158 -166 -196 -159 0
-169 -158 -173 -196 -159 0
-169 -166 -173 -196 -167 0
-124 -116 -128 -104 -117 0
-135 -116 -139 -104 -117 0
-145 -116 -149 -104 -117 0
-154 -116 -158 -104 -117 0
-162 -116 -166 -104 -117 0
-169 -116 -173 -104 -117 0
-135 -128 -139 -104 -129 0
-145 -128 -149 -104 -129 0
-154 -128 -158 -104 -129 0
-162 -128 -166 -104 -129 0
-169 -128 -173 -104 -129 0
-145 -139 -149 -104 -140 0
-154 -139 -158 -104 -140 0
-162 -139 -166 -104 -140 0
-169 -139 -173 -104 -140 0
-154 -149 -158 -104 -150 0
-162 -149 -166 -104 -150 0
-169 -149 -173 -104 -150 0
-162 -158 -166 -104 -159 0
-169 -158 -173 -104 -159 0
-169 -166 -173 -104 -167 0
-135 -128 -139 -117 -129 0
-145 -128 -149 -117 -129 0
-154 -128 -158 -117 -129 0
-162 -128 -166 -117 -129 0
-169 -128 -173 -117 -129 0
-145 -139 -149 -117 -140 0
-154 -139 -158 -117 -140 0
-162 -139 -166 -117 -140 0
-169 -139 -173 -117 -140 0
-154 -149 -158 -117 -150 0
-162 -149 -166 -117 -150 0
-169 -149 -173 -117 -150 0
-162 -158 -166 -117 -159 0
-169 -158 -173 -117 -159 0
-169 -166 -173 -117 -167 0
-145 -139 -149 -129 -140 0
-154 -139 -158 -129 -140 0
-162 -139 -166 -129 -140 0
-169 -139 -173 -129 -140 0
-154 -149 -158 -129 -150 0
-162 -149 -166 -129 -150 0
-169 -149 -173 -129 -150 0
-162 -158 -166 -129 -159 0
-169 -158 -173 -129 -159 0
-169 -166 -173 -129 -167 0
-154 -149 -158 -140 -150 0
-162 -149 -166 -140 -150 0
-169 -149 -173 -140 -150 0
-162 -158 -166 -140 -159 0
-169 -158 -173 -140 -159 0
-169 -166 -173 -140 -167 0
-162 -158 -166 -150 -159 0
-169 -158 -173 -150 -159 0
-169 -166 -173 -150 -167 0
-169 -166 -173 -159 -167 0
-124 -116 -128 -105 -118 0
-135 -116 -139 -105 -118 0
-145 -116 -149 -105 -118 0
-154 -116 -158 -105 -118 0
-162 -116 -166 -105 -118 0
-169 -116 -173 -105 -118 0
-135 -128 -139 -105 -130 0
-145 -128 -149 -105 -130 0
-154 -128 -158 -105 -130 0
-162 -128 -166 -105 -130 0
-169 -128 -173 -105 -130 0
-145 -139 -149 -105 -141 0
-154 -139 -158 -105 -141 0
-162 -139 -166 -105 -141 0
-169 -139 -173 -105 -141 0
-154 -149 -158 -105 -151 0
-162 -149 -166 -105 -151 0
-169 -149 -173 -105 -151 0
-162 -158 -166 -105 -160 0
-169 -158 -173 -105 -160 0
-169 -166 -173 -105 -168 0
-135 -128 -139 -118 -130 0
-145 -128 -149 -118 -130 0
-154 -128 -158 -118 -130 0
-162 -128 -166 -118 -130 0
-169 -128 -173 -118 -130 0
-145 -139 -149 -118 -141 0
-154 -139 -158 -118 -141 0
-162 -139 -166 -118 -141 0
-169 -139 -173 -118 -141 0
-154 -149 -158 -118 -151 0
-162 -149 -166 -118 -151 0
-169 -149 -173 -118 -151 0
-162 -158 -166 -118 -160 0
-169 -158 -173 -118 -160 0
-169 -166 -173 -118 -168 0
-145 -139 -149 -130 -141 0
-154 -139 -158 -130 -141 0
-162 -139 -166 -130 -141 0
-169 -139 -173 -130 -141 0
-154 -149 -158 -130 -151 0
-162 -149 -166 -130 -151 0
-169 -149 -173 -130 -151 0
-162 -158 -166 -130 -160 0
-169 -158 -173 -130 -160 0
-169 -166 -173 -130 -168 0
-154 -149 -158 -141 -151 0
-162 -149 -166 -141 -151 0
-169 -149 -173 -141 -151 0
-162 -158 -166 -141 -160 0
-169 -158 -173 -141 -160 0
-169 -166 -173 -141 -168 0
-162 -158 -166 -151 -160 0
-169 -158 -173 -151 -160 0
-169 -166 -173 -151 -168 0
-169 -166 -173 -160 -168 0
-135 -128 -139 -92 -93 0
-145 -128 -149 -92 -93 0
-154 -128 -158 -92 -93 0
-162 -128 -166 -92 -93 0
-169 -128 -173 -92 -93 0
-145 -139 -149 -92 -94 0
-154 -139 -158 -92 -94 0
-162 -139 -166 -92 -94 0
-169 -139 -173 -92 -94 0
-154 -149 -158 -92 -95 0
-162 -149 -166 -92 -95 0
-169 -149 -173 -92 -95 0
-162 -158 -166 -92 -96 0
-169 -158 -173 -92 -96 0
-169 -166 -173 -92 -97 0
-145 -139 -149 -93 -94 0
-154 -139 -158 -93 -94 0
-162 -139 -166 -93 -94 0
-169 -139 -173 -93 -94 0
-154 -149 -158 -93 -95 0
-162 -149 -166 -93 -95 0
-169 -149 -173 -93 -95 0
-162 -158 -166 -93 -96 0
-169 -158 -173 -93 -96 0
-169 -166 -173 -93 -97 0
-154 -149 -158 -94 -95 0
-162 -149 -166 -94 -95 0
-169 -149 -173 -94 -95 0
-162 -158 -166 -94 -96 0
-169 -158 -173 -94 -96 0
-169 -166 -173 -94 -97 0
-162 -158 -166 -95 -96 0
-169 -158 -173 -95 -96 0
-169 -166 -173 -95 -97 0
-169 -166 -173 -96 -97 0
-145 -139 -149 -106 -107 0
-154 -139 -158 -106 -107 0
-162 -139 -166 -106 -107 0
-169 -139 -173 -106 -107 0
-154 -149 -158 -106 -108 0
-162 -149 -166 -106 -108 0
-169 -149 -173 -106 -108 0
-162 -158 -166 -106 -109 0
-169 -158 -173 -106 -109 0
-169 -166 -173 -106 -110 0
-154 -149 -158 -107 -108 0
-162 -149 -166 -107 -108 0
-169 -149 -173 -107 -108 0
-162 -158 -166 -107 -109 0
-169 -158 -173 -107 -109 0
-169 -166 -173 -107 -110 0
-162 -158 -166 -108 -109 0
-169 -158 -173 -108 -109 0
-169 -166 -173 -108 -110 0
-169 -166 -173 -109 -110 0
-154 -149 -158 -119 -120 0
-162 -149 -166 -119 -120 0
-169 -149 -173 -119 -120 0
-162 -158 -166 -119 -121 0
-169 -158 -173 -119 -121 0
-169 -166 -173 -119 -122 0
-162 -158 -166 -120 -121 0
-169 -158 -173 -120 -121 0
-169 -166 -173 -120 -122 0
-169 -166 -173 -121 -122 0
-162 -158 -166 -131 -132 0
-169 -158 -173 -131 -132 0
-169 -166 -173 -131 -133 0
-169 -166 -173 -132 -133 0
-169 -166 -173 -142 -143 0
-124 -117 -129 -105 -118 0
-135 -117 -140 -105 -118 0
-145 -117 -150 -105 -118 0
-154 -117 -159 -105 -118 0
-162 -117 -167 -105 -118 0
-169 -117 -174 -105 -118 0
-135 -129 -140 -105 -130 0
-145 -129 -150 -105 -130 0
-154 -129 -159 -105 -130 0
-162 -129 -167 -105 -130 0
-169 -129 -174 -105 -130 0
-145 -140 -150 -105 -141 0
-154 -140 -159 -105 -141 0
-162 -140 -167 -105 -141 0
-169 -140 -174 -105 -141 0
-154 -150 -159 -105 -151 0
-162 -150 -167 -105 -151 0
-169 -150 -174 -105 -151 0
-162 -159 -167 -105 -160 0
-169 -159 -174 -105 -160 0
-169 -167 -174 -105 -168 0
-135 -129 -140 -118 -130 0
-145 -129 -150 -118 -130 0
-154 -129 -159 -118 -130 0
-162 -129 -167 -118 -130 0
-169 -129 -174 -118 -130 0
-145 -140 -150 -118 -141 0
-154 -140 -159 -118 -141 0
-162 -140 -167 -118 -141 0
-169 -140 -174 -118 -141 0
-154 -150 -159 -118 -151 0
-162 -150 -167 -118 -151 0
-169 -150 -174 -118 -151 0
-162 -159 -167 -118 -160 0
-169 -159 -174 -118 -160 0
-169 -167 -174 -118 -168 0
-145 -140 -150 -130 -141 0
-154 -140 -159 -130 -141 0
-162 -140 -167 -130 -141 0
-169 -140 -174 -130 -141 0
-154 -150 -159 -130 -151 0
-162 -150 -167 -130 -151 0
-169 -150 -174 -130 -151 0
-162 -159 -167 -130 -160 0
-169 -159 -174 -130 -160 0
-169 -167 -174 -130 -168 0
-154 -150 -159 -141 -151 0
-162 -150 -167 -141 -151 0
-169 -150 -174 -141 -151 0
-162 -159 -167 -141 -160 0
-169 -159 -174 -141 -160 0
-169 -167 -174 -141 -168 0
-162 -159 -167 -151 -160 0
-169 -159 -174 -151 -160 0
-169 -167 -174 -151 -168 0
-169 -167 -174 -160 -168 0
-135 -129 -140 -92 -93 0
-145 -129 -150 -92 -93 0
-154 -129 -159 -92 -93 0
-162 -129 -167 -92 -93 0
-169 -129 -174 -92 -93 0
-145 -140 -150 -92 -94 0
-154 -140 -159 -92 -94 0
-162 -140 -167 -92 -94 0
-169 -140 -174 -92 -94 0
-154 -150 -159 -92 -95 0
-162 -150 -167 -92 -95 0
-169 -150 -174 -92 -95 0
-162 -159 -167 -92 -96 0
-169 -159 -174 -92 -96 0
-169 -167 -174 -92 -97 0
-145 -140 -150 -93 -94 0
-154 -140 -159 -93 -94 0
-162 -140 -167 -93 -94 0
-169 -140 -174 -93 -94 0
-154 -150 -159 -93 -95 0
-162 -150 -167 -93 -95 0
-169 -150 -174 -93 -95 0
-162 -159 -167 -93 -96 0
-169 -159 -174 -93 -96 0
-169 -167 -174 -93 -97 0
-154 -150 -159 -94 -95 0
-162 -150 -167 -94 -95 0
-169 -150 -174 -94 -95 0
-162 -159 -167 -94 -96 0
-169 -159 -174 -94 -96 0
-169 -167 -174 -94 -97 0
-162 -159 -167 -95 -96 0
-169 -159 -174 -95 -96 0
-169 -167 -174 -95 -97 0
-169 -167 -174 -96 -97 0
-145 -140 -150 -106 -107 0
-154 -140 -159 -106 -107 0
-162 -140 -167 -106 -107 0
-169 -140 -174 -106 -107 0
-154 -150 -159 -106 -108 0
-162 -150 -167 -106 -108 0
-169 -150 -174 -106 -108 0
-162 -159 -167 -106 -109 0
-169 -159 -174 -106 -109 0
-169 -167 -174 -106 -110 0
-154 -150 -159 -107 -108 0
-162 -150 -167 -107 -108 0
-169 -150 -174 -107 -108 0
-162 -159 -167 -107 -109 0
-169 -159 -174 -107 -109 0
-169 -167 -174 -107 -110 0
-162 -159 -167 -108 -109 0
-169 -159 -174 -108 -109 0
-169 -167 -174 -108 -110 0
-169 -167 -174 -109 -110 0
-154 -150 -159 -119 -120 0
-162 -150 -167 -119 -120 0
-169 -150 -174 -119 -120 0
-162 -159 -167 -119 -121 0
-169 -159 -174 -119 -121 0
-169 -167 -174 -119 -122 0
-162 -159 -167 -120 -121 0
-169 -159 -174 -120 -121 0
-169 -167 -174 -120 -122 0
-169 -167 -174 -121 -122 0
-162 -159 -167 -131 -132 0
-169 -159 -174 -131 -132 0
-169 -167 -174 -131 -133 0
-169 -167 -174 -132 -133 0
-169 -167 -174 -142 -143 0
-135 -130 -141 -92 -93 0
-145 -130 -151 -92 -93 0
-154 -130 -160 -92 -93 0
-162 -130 -168 -92 -93 0
-169 -130 -175 -92 -93 0
-145 -141 -151 -92 -94 0
-154 -141 -160 -92 -94 0
-162 -141 -168 -92 -94 0
-169 -141 -175 -92 -94 0
-154 -151 -160 -92 -95 0
-162 -151 -168 -92 -95 0
-169 -151 -175 -92 -95 0
-162 -160 -168 -92 -96 0
-169 -160 -175 -92 -96 0
-169 -168 -175 -92 -97 0
-145 -141 -151 -93 -94 0
-154 -141 -160 -93 -94 0
-162 -141 -168 -93 -94 0
-169 -141 -175 -93 -94 0
-154 -151 -160 -93 -95 0
-162 -151 -168 -93 -95 0
-169 -151 -175 -93 -95 0
-162 -160 -168 -93 -96 0
-169 -160 -175 -93 -96 0
-169 -168 -175 -93 -97 0
-154 -151 -160 -94 -95 0
-162 -151 -168 -94 -95 0
-169 -151 -175 -94 -95 0
-162 -160 -168 -94 -96 0
-169 -160 -175 -94 -96 0
-169 -168 -175 -94 -97 0
-162 -160 -168 -95 -96 0
-169 -160 -175 -95 -96 0
-169 -168 -175 -95 -97 0
-169 -168 -175 -96 -97 0
-145 -141 -151 -106 -107 0
-154 -141 -160 -106 -107 0
-162 -141 -168 -106 -107 0
-169 -141 -175 -106 -107 0
-154 -151 -160 -106 -108 0
-162 -151 -168 -106 -108 0
-169 -151 -175 -106 -108 0
-162 -160 -168 -106 -109 0
-169 -160 -175 -106 -109 0
-169 -168 -175 -106 -110 0
-154 -151 -160 -107 -108 0
-162 -151 -168 -107 -108 0
-169 -151 -175 -107 -108 0
-162 -160 -168 -107 -109 0
-169 -160 -175 -107 -109 0
-169 -168 -175 -107 -110 0
-162 -160 -168 -108 -109 0
-169 -160 -175 -108 -109 0
-169 -168 -175 -108 -110 0
-169 -168 -175 -109 -110 0
-154 -151 -160 -119 -120 0
-162 -151 -168 -119 -120 0
-169 -151 -175 -119 -120 0
-162 -160 -168 -119 -121 0
-169 -160 -175 -119 -121 0
-169 -168 -175 -119 -122 0
-162 -160 -168 -120 -121 0
-169 -160 -175 -120 -121 0
-169 -168 -175 -120 -122 0
-169 -168 -175 -121 -122 0
-162 -160 -168 -131 -132 0
-169 -160 -175 -131 -132 0
-169 -168 -175 -131 -133 0
-169 -168 -175 -132 -133 0
-169 -168 -175 -142 -143 0
-145 -94 -95 -106 -107 0
-154 -94 -96 -106 -107 0
-162 -94 -97 -106 -107 0
-169 -94 -98 -106 -107 0
-154 -95 -96 -106 -108 0
-162 -95 -97 -106 -108 0
-169 -95 -98 -106 -108 0
-162 -96 -97 -106 -109 0
-169 -96 -98 -106 -109 0
-169 -97 -98 -106 -110 0
-154 -95 -96 -107 -108 0
-162 -95 -97 -107 -108 0
-169 -95 -98 -107 -108 0
-162 -96 -97 -107 -109 0
-169 -96 -98 -107 -109 0
-169 -97 -98 -107 -110 0
-162 -96 -97 -108 -109 0
-169 -96 -98 -108 -109 0
-169 -97 -98 -108 -110 0
-169 -97 -98 -109 -110 0
-154 -95 -96 -119 -120 0
-162 -95 -97 -119 -120 0
-169 -95 -98 -119 -120 0
-162 -96 -97 -119 -121 0
-169 -96 -98 -119 -121 0
-169 -97 -98 -119 -122 0
-162 -96 -97 -120 -121 0
-169 -96 -98 -120 -121 0
-169 -97 -98 -120 -122 0
-169 -97 -98 -121 -122 0
-162 -96 -97 -131 -132 0
-169 -96 -98 -131 -132 0
-169 -97 -98 -131 -133 0
-169 -97 -98 -132 -133 0
-169 -97 -98 -142 -143 0
-154 -108 -109 -119 -120 0
-162 -108 -110 -119 -120 0
-169 -108 -111 -119 -120 0
-162 -109 -110 -119 -121 0
-169 -109 -111 -119 -121 0
-169 -110 -111 -119 -122 0
-162 -109 -110 -120 -121 0
-169 -109 -111 -120 -121 0
-169 -110 -111 -120 -122 0
-169 -110 -111 -121 -122 0
-162 -109 -110 -131 -132 0
-169 -109 -111 -131 -132 0
-169 -110 -111 -131 -133 0
-169 -110 -111 -132 -133 0
-169 -110 -111 -142 -143 0
-162 -121 -122 -131 -132 0
-169 -121 -123 -131 -132 0
-169 -122 -123 -131 -133 0
-169 -122 -123 -132 -133 0
-169 -122 -123 -142 -143 0
-169 -133 -134 -142 -143 0
-186 -189 -190 -191 -192 0
-100 -189 -101 -191 -192 0
-113 -189 -114 -191 -192 0
-125 -189 -126 -191 -192 0
-136 -189 -137 -191 -192 0
-146 -189 -147 -191 -192 0
-155 -189 -156 -191 -192 0
-163 -189 -164 -191 -192 0
-170 -189 -171 -191 -192 0
-176 -189 -177 -191 -192 0
-100 -190 -101 -191 -193 0
-113 -190 -114 -191 -193 0
-125 -190 -126 -191 -193 0
-136 -190 -137 -191 -193 0
-146 -190 -147 -191 -193 0
-155 -190 -156 -191 -193 0
-163 -190 -164 -191 -193 0
-170 -190 -171 -191 -193 0
-176 -190 -177 -191 -193 0
-113 -101 -114 -191 -102 0
-125 -101 -126 -191 -102 0
-136 -101 -137 -191 -102 0
-146 -101 -147 -191 -102 0
-155 -101 -156 -191 -102 0
-163 -101 -164 -191 -102 0
-170 -101 -171 -191 -102 0
-176 -101 -177 -191 -102 0
-125 -114 -126 -191 -115 0
-136 -114 -137 -191 -115 0
-146 -114 -147 -191 -115 0
-155 -114 -156 -191 -115 0
-163 -114 -164 -191 -115 0
-170 -114 -171 -191 -115 0
-176 -114 -177 -191 -115 0
-136 -126 -137 -191 -127 0
-146 -126 -147 -191 -127 0
-155 -126 -156 -191 -127 0
-163 -126 -164 -191 -127 0
-170 -126 -171 -191 -127 0
-176 -126 -177 -191 -127 0
-146 -137 -147 -191 -138 0
-155 -137 -156 -191 -138 0
-163 -137 -164 -191 -138 0
-170 -137 -171 -191 -138 0
-176 -137 -177 -191 -138 0
-155 -147 -156 -191 -148 0
-163 -147 -164 -191 -148 0
-170 -147 -171 -191 -148 0
-176 -147 -177 -191 -148 0
-163 -156 -164 -191 -157 0
-170 -156 -171 -191 -157 0
-176 -156 -177 -191 -157 0
-170 -164 -171 -191 -165 0
-176 -164 -177 -191 -165 0
-176 -171 -177 -191 -172 0
-100 -190 -101 -192 -193 0
-113 -190 -114 -192 -193 0
-125 -190 -126 -192 -193 0
-136 -190 -137 -192 -193 0
-146 -190 -147 -192 -193 0
-155 -190 -156 -192 -193 0
-163 -190 -164 -192 -193 0
-170 -190 -171 -192 -193 0
-176 -190 -177 -192 -193 0
-113 -101 -114 -192 -102 0
-125 -101 -126 -192 -102 0
-136 -101 -137 -192 -102 0
-146 -101 -147 -192 -102 0
-155 -101 -156 -192 -102 0
-163 -101 -164 -192 -102 0
-170 -101 -171 -192 -102 0
-176 -101 -177 -192 -102 0
-125 -114 -126 -192 -115 0
-136 -114 -137 -192 -115 0
-146 -114 -147 -192 -115 0
-155 -114 -156 -192 -115 0
-163 -114 -164 -192 -115 0
-170 -114 -171 -192 -115 0
-176 -114 -177 -192 -115 0
-136 -126 -137 -192 -127 0
-146 -126 -147 -192 -127 0
-155 -126 -156 -192 -127 0
-163 -126 -164 -192 -127 0
-170 -126 -171 -192 -127 0
-176 -126 -177 -192 -127 0
-146 -137 -147 -192 -138 0
-155 -137 -156 -192 -138 0
-163 -137 -164 -192 -138 0
-170 -137 -171 -192 -138 0
-176 -137 -177 -192 -138 0
-155 -147 -156 -192 -148 0
-163 -147 -164 -192 -148 0
-170 -147 -171 -192 -148 0
-176 -147 -177 -192 -148 0
-163 -156 -164 -192 -157 0
-170 -156 -171 -192 -157 0
-176 -156 -177 -192 -157 0
-170 -164 -171 -192 -165 0
-176 -164 -177 -192 -165 0
-176 -171 -177 -192 -172 0
-113 -101 -114 -193 -102 0
-125 -101 -126 -193 -102 0
-136 -101 -137 -193 -102 0
-146 -101 -147 -193 -102 0
-155 -101 -156 -193 -102 0
-163 -101 -164 -193 -102 0
-170 -101 -171 -193 -102 0
-176 -101 -177 -193 -102 0
-125 -114 -126 -193 -115 0
-136 -114 -137 -193 -115 0
-146 -114 -147 -193 -115 0
-155 -114 -156 -193 -115 0
-163 -114 -164 -193 -115 0
-170 -114 -171 -193 -115 0
-176 -114 -177 -193 -115 0
-136 -126 -137 -193 -127 0
-146 -126 -147 -193 -127 0
-155 -126 -156 -193 -127 0
-163 -126 -164 -193 -127 0
-170 -126 -171 -193 -127 0
-176 -126 -177 -193 -127 0
-146 -137 -147 -193 -138 0
-155 -137 -156 -193 -138 0
-163 -137 -164 -193 -138 0
-170 -137 -171 -193 -138 0
-176 -137 -177 -193 -138 0
-155 -147 -156 -193 -148 0
-163 -147 -164 -193 -148 0
-170 -147 -171 -193 -148 0
-176 -147 -177 -193 -148 0
-163 -156 -164 -193 -157 0
-170 -156 -171 -193 -157 0
-176 -156 -177 -193 -157 0
-170 -164 -171 -193 -165 0
-176 -164 -177 -193 -165 0
-176 -171 -177 -193 -172 0
-125 -114 -126 -102 -115 0
-136 -114 -137 -102 -115 0
-146 -114 -147 -102 -115 0
-155 -114 -156 -102 -115 0
-163 -114 -164 -102 -115 0
-170 -114 -171 -102 -115 0
-176 -114 -177 -102 -115 0
-136 -126 -137 -102 -127 0
-146 -126 -147 -102 -127 0
-155 -126 -156 -102 -127 0
-163 -126 -164 -102 -127 0
-170 -126 -171 -102 -127 0
-176 -126 -177 -102 -127 0
-146 -137 -147 -102 -138 0
-155 -137 -156 -102 -138 0
-163 -137 -164 -102 -138 0
-170 -137 -171 -102 -138 0
-176 -137 -177 -102 -138 0
-155 -147 -156 -102 -148 0
-163 -147 -164 -102 -148 0
-170 -147 -171 -102 -148 0
-176 -147 -177 -102 -148 0
-163 -156 -164 -102 -157 0
-170 -156 -171 -102 -157 0
-176 -156 -177 -102 -157 0
-170 -164 -171 -102 -165 0
-176 -164 -177 -102 -165 0
-176 -171 -177 -102 -172 0
-136 -126 -137 -115 -127 0
-146 -126 -147 -115 -127 0
-155 -126 -156 -115 -127 0
-163 -126 -164 -115 -127 0
-170 -126 -171 -115 -127 0
-176 -126 -177 -115 -127 0
-146 -137 -147 -115 -138 0
-155 -137 -156 -115 -138 0
-163 -137 -164 -115 -138 0
-170 -137 -171 -115 -138 0
-176 -137 -177 -115 -138 0
-155 -147 -156 -115 -148 0
-163 -147 -164 -115 -148 0
-170 -147 -171 -115 -148 0
-176 -147 -177 -115 -148 0
-163 -156 -164 -115 -157 0
-170 -156 -171 -115 -157 0
-176 -156 -177 -115 -157 0
-170 -164 -171 -115 -165 0
-176 -164 -177 -115 -165 0
-176 -171 -177 -115 -172 0
-146 -137 -147 -127 -138 0
-155 -137 -156 -127 -138 0
-163 -137 -164 -127 -138 0
-170 -137 -171 -127 -138 0
-176 -137 -177 -127 -138 0
-155 -147 -156 -127 -148 0
-163 -147 -164 -127 -148 0
-170 -147 -171 -127 -148 0
-176 -147 -177 -127 -148 0
-163 -156 -164 -127 -157 0
-170 -156 -171 -127 -157 0
-176 -156 -177 -127 -157 0
-170 -164 -171 -127 -165 0
-176 -164 -177 -127 -165 0
-176 -171 -177 -127 -172 0
-155 -147 -156 -138 -148 0
-163 -147 -164 -138 -148 0
-170 -147 -171 -138 -148 0
-176 -147 -177 -138 -148 0
-163 -156 -164 -138 -157 0
-170 -156 -171 -138 -157 0
-176 -156 -177 -138 -157 0
-170 -164 -171 -138 -165 0
-176 -164 -177 -138 -165 0
-176 -171 -177 -138 -172 0
-163 -156 -164 -148 -157 0
-170 -156 -171 -148 -157 0
-176 -156 -177 -148 -157 0
-170 -164 -171 -148 -165 0
-176 -164 -177 -148 -165 0
-176 -171 -177 -148 -172 0
-170 -164 -171 -157 -165 0
-176 -164 -177 -157 -165 0
-176 -171 -177 -157 -172 0
-176 -171 -177 -165 -172 0
-100 -190 -101 -194 -195 0
-113 -190 -114 -194 -195 0
-125 -190 -126 -194 -195 0
-136 -190 -137 -194 -195 0
-146 -190 -147 -194 -195 0
-155 -190 -156 -194 -195 0
-163 -190 -164 -194 -195 0
-170 -190 -171 -194 -195 0
-176 -190 -177 -194 -195 0
-113 -101 -114 -194 -103 0
-125 -101 -126 -194 -103 0
-136 -101 -137 -194 -103 0
-146 -101 -147 -194 -103 0
-155 -101 -156 -194 -103 0
-163 -101 -164 -194 -103 0
-170 -101 -171 -194 -103 0
-176 -101 -177 -194 -103 0
-125 -114 -126 -194 -116 0
-136 -114 -137 -194 -116 0
-146 -114 -147 -194 -116 0
-155 -114 -156 -194 -116 0
-163 -114 -164 -194 -116 0
-170 -114 -171 -194 -116 0
-176 -114 -177 -194 -116 0
-136 -126 -137 -194 -128 0
-146 -126 -147 -194 -128 0
-155 -126 -156 -194 -128 0
-163 -126 -164 -194 -128 0
-170 -126 -171 -194 -128 0
-176 -126 -177 -194 -128 0
-146 -137 -147 -194 -139 0
-155 -137 -156 -194 -139 0
-163 -137 -164 -194 -139 0
-170 -137 -171 -194 -139 0
-176 -137 -177 -194 -139 0
-155 -147 -156 -194 -149 0
-163 -147 -164 -194 -149 0
-170 -147 -171 -194 -149 0
-176 -147 -177 -194 -149 0
-163 -156 -164 -194 -158 0
-170 -156 -171 -194 -158 0
-176 -156 -177 -194 -158 0
-170 -164 -171 -194 -166 0
-176 -164 -177 -194 -166 0
-176 -171 -177 -194 -173 0
-113 -101 -114 -195 -103 0
-125 -101 -126 -195 -103 0
-136 -101 -137 -195 -103 0
-146 -101 -147 -195 -103 0
-155 -101 -156 -195 -103 0
-163 -101 -164 -195 -103 0
-170 -101 -171 -195 -103 0
-176 -101 -177 -195 -103 0
-125 -114 -126 -195 -116 0
-136 -114 -137 -195 -116 0
-146 -114 -147 -195 -116 0
-155 -114 -156 -195 -116 0
-163 -114 -164 -195 -116 0
-170 -114 -171 -195 -116 0
-176 -114 -177 -195 -116 0
-136 -126 -137 -195 -128 0
-146 -126 -147 -195 -128 0
-155 -126 -156 -195 -128 0
-163 -126 -164 -195 -128 0
-170 -126 -171 -195 -128 0
-176 -126 -177 -195 -128 0
-146 -137 -147 -195 -139 0
-155 -137 -156 -195 -139 0
-163 -137 -164 -195 -139 0
-170 -137 -171 -195 -139 0
-176 -137 -177 -195 -139 0
-155 -147 -156 -195 -149 0
-163 -147 -164 -195 -149 0
-170 -147 -171 -195 -149 0
-176 -147 -177 -195 -149 0
-163 -156 -164 -195 -158 0
-170 -156 -171 -195 -158 0
-176 -156 -177 -195 -158 0
-170 -164 -171 -195 -166 0
-176 -164 -177 -195 -166 0
-176 -171 -177 -195 -173 0
-125 -114 -126 -103 -116 0
-136 -114 -137 -103 -116 0
-146 -114 -147 -103 -116 0
-155 -114 -156 -103 -116 0
-163 -114 -164 -103 -116 0
-170 -114 -171 -103 -116 0
-176 -114 -177 -103 -116 0
-136 -126 -137 -103 -128 0
-146 -126 -147 -103 -128 0
-155 -126 -156 -103 -128 0
-163 -126 -164 -103 -128 0
-170 -126 -171 -103 -128 0
-176 -126 -177 -103 -128 0
-146 -137 -147 -103 -139 0
-155 -137 -156 -103 -139 0
-163 -137 -164 -103 -139 0
-170 -137 -171 -103 -139 0
-176 -137 -177 -103 -139 0
-155 -147 -156 -103 -149 0
-163 -147 -164 -103 -149 0
-170 -147 -171 -103 -149 0
-176 -147 -177 -103 -149 0
-163 -156 -164 -103 -158 0
-170 -156 -171 -103 -158 0
-176 -156 -177 -103 -158 0
-170 -164 -171 -103 -166 0
-176 -164 -177 -103 -166 0
-176 -171 -177 -103 -173 0
-136 -126 -137 -116 -128 0
-146 -126 -147 -116 -128 0
-155 -126 -156 -116 -128 0
-163 -126 -164 -116 -128 0
-170 -126 -171 -116 -128 0
-176 -126 -177 -116 -128 0
-146 -137 -147 -116 -139 0
-155 -137 -156 -116 -139 0
-163 -137 -164 -116 -139 0
-170 -137 -171 -116 -139 0
-176 -137 -177 -116 -139 0
-155 -147 -156 -116 -149 0
-163 -147 -164 -116 -149 0
-170 -147 -171 -116 -149 0
-176 -147 -177 -116 -149 0
-163 -156 -164 -116 -158 0
-170 -156 -171 -116 -158 0
-176 -156 -177 -116 -158 0
-170 -164 -171 -116 -166 0
-176 -164 -177 -116 -166 0
-176 -171 -177 -116 -173 0
-146 -137 -147 -128 -139 0
-155 -137 -156 -128 -139 0
-163 -137 -164 -128 -139 0
-170 -137 -171 -128 -139 0
-176 -137 -177 -128 -139 0
-155 -147 -156 -128 -149 0
-163 -147 -164 -128 -149 0
-170 -147 -171 -128 -149 0
-176 -147 -177 -128 -149 0
-163 -156 -164 -128 -158 0
-170 -156 -171 -128 -158 0
-176 -156 -177 -128 -158 0
-170 -164 -171 -128 -166 0
-176 -164 -177 -128 -166 0
-176 -171 -177 -128 -173 0
-155 -147 -156 -139 -149 0
-163 -147 -164 -139 -149 0
-170 -147 -171 -139 -149 0
-176 -147 -177 -139 -149 0
-163 -156 -164 -139 -158 0
-170 -156 -171 -139 -158 0
-176 -156 -177 -139 -158 0
-170 -164 -171 -139 -166 0
-176 -164 -177 -139 -166 0
-176 -171 -177 -139 -173 0
-163 -156 -164 -149 -158 0
-170 -156 -171 -149 -158 0
-176 -156 -177 -149 -158 0
-170 -164 -171 -149 -166 0
-176 -164 -177 -149 -166 0
-176 -171 -177 -149 -173 0
-170 -164 -171 -158 -166 0
-176 -164 -177 -158 -166 0
-176 -171 -177 -158 -173 0
-176 -171 -177 -166 -173 0
-113 -101 -114 -196 -104 0
-125 -101 -126 -196 -104 0
-136 -101 -137 -196 -104 0
-146 -101 -147 -196 -104 0
-155 -101 -156 -196 -104 0
-163 -101 -164 -196 -104 0
-170 -101 -171 -196 -104 0
-176 -101 -177 -196 -104 0
-125 -114 -126 -196 -117 0
-136 -114 -137 -196 -117 0
-146 -114 -147 -196 -117 0
-155 -114 -156 -196 -117 0
-163 -114 -164 -196 -117 0
-170 -114 -171 -196 -117 0
-176 -114 -177 -196 -117 0
-136 -126 -137 -196 -129 0
-146 -126 -147 -196 -129 0
-155 -126 -156 -196 -129 0
-163 -126 -164 -196 -129 0
-170 -126 -171 -196 -129 0
-176 -126 -177 -196 -129 0
-146 -137 -147 -196 -140 0
-155 -137 -156 -196 -140 0
-163 -137 -164 -196 -140 0
-170 -137 -171 -196 -140 0
-176 -137 -177 -196 -140 0
-155 -147 -156 -196 -150 0
-163 -147 -164 -196 -150 0
-170 -147 -171 -196 -150 0
-176 -147 -177 -196 -150 0
-163 -156 -164 -196 -159 0
-170 -156 -171 -196 -159 0
-176 -156 -177 -196 -159 0
-170 -164 -171 -196 -167 0
-176 -164 -177 -196 -167 0
-176 -171 -177 -196 -174 0
-125 -114 -126 -104 -117 0
-136 -114 -137 -104 -117 0
-146 -114 -147 -104 -117 0
-155 -114 -156 -104 -117 0
-163 -114 -164 -104 -117 0
-170 -114 -171 -104 -117 0
-176 -114 -177 -104 -117 0
-136 -126 -137 -104 -129 0
-146 -126 -147 -104 -129 0
-155 -126 -156 -104 -129 0
-163 -126 -164 -104 -129 0
-170 -126 -171 -104 -129 0
-176 -126 -177 -104 -129 0
-146 -137 -147 -104 -140 0
-155 -137 -156 -104 -140 0
-163 -137 -164 -104 -140 0
-170 -137 -171 -104 -140 0
-176 -137 -177 -104 -140 0
-155 -147 -156 -104 -150 0
-163 -147 -164 -104 -150 0
-170 -147 -171 -104 -150 0
-176 -147 -177 -104 -150 0
-163 -156 -164 -104 -159 0
-170 -156 -171 -104 -159 0
-176 -156 -177 -104 -159 0
-170 -164 -171 -104 -167 0
-176 -164 -177 -104 -167 0
-176 -171 -177 -104 -174 0
-136 -126 -137 -117 -129 0
-146 -126 -147 -117 -129 0
-155 -126 -156 -117 -129 0
-163 -126 -164 -117 -129 0
-170 -126 -171 -117 -129 0
-176 -126 -177 -117 -129 0
-146 -137 -147 -117 -140 0
-155 -137 -156 -117 -140 0
-163 -137 -164 -117 -140 0
-170 -137 -171 -117 -140 0
-176 -137 -177 -117 -140 0
-155 -147 -156 -117 -150 0
-163 -147 -164 -117 -150 0
-170 -147 -171 -117 -150 0
-176 -147 -177 -117 -150 0
-163 -156 -164 -117 -159 0
-170 -156 -171 -117 -159 0
-176 -156 -177 -117 -159 0
-170 -164 -171 -117 -167 0
-176 -164 -177 -117 -167 0
-176 -171 -177 -117 -174 0
-146 -137 -147 -129 -140 0
-155 -137 -156 -129 -140 0
-163 -137 -164 -129 -140 0
-170 -137 -171 -129 -140 0
-176 -137 -177 -129 -140 0
-155 -147 -156 -129 -150 0
-163 -147 -164 -129 -150 0
-170 -147 -171 -129 -150 0
-176 -147 -177 -129 -150 0
-163 -156 -164 -129 -159 0
-170 -156 -171 -129 -159 0
-176 -156 -177 -129 -159 0
-170 -164 -171 -129 -167 0
-176 -164 -177 -129 -167 0
-176 -171 -177 -129 -174 0
-155 -147 -156 -140 -150 0
-163 -147 -164 -140 -150 0
-170 -147 -171 -140 -150 0
-176 -147 -177 -140 -150 0
-163 -156 -164 -140 -159 0
-170 -156 -171 -140 -159 0
-176 -156 -177 -140 -159 0
-170 -164 -171 -140 -167 0
-176 -164 -177 -140 -167 0
-176 -171 -177 -140 -174 0
-163 -156 -164 -150 -159 0
-170 -156 -171 -150 -159 0
-176 -156 -177 -150 -159 0
-170 -164 -171 -150 -167 0
-176 -164 -177 -150 -167 0
-176 -171 -177 -150 -174 0
-170 -164 -171 -159 -167 0
-176 -164 -177 -159 -167 0
-176 -171 -177 -159 -174 0
-176 -171 -177 -167 -174 0
-125 -114 -126 -105 -118 0
-136 -114 -137 -105 -118 0
-146 -114 -147 -105 -118 0
-155 -114 -156 -105 -118 0
-163 -114 -164 -105 -118 0
-170 -114 -171 -105 -118 0
-176 -114 -177 -105 -118 0
-136 -126 -137 -105 -130 0
-146 -126 -147 -105 -130 0
-155 -126 -156 -105 -130 0
-163 -126 -164 -105 -130 0
-170 -126 -171 -105 -130 0
-176 -126 -177 -105 -130 0
-146 -137 -147 -105 -141 0
-155 -137 -156 -105 -141 0
-163 -137 -164 -105 -141 0
-170 -137 -171 -105 -141 0
-176 -137 -177 -105 -141 0
-155 -147 -156 -105 -151 0
-163 -147 -164 -105 -151 0
-170 -147 -171 -105 -151 0
-176 -147 -177 -105 -151 0
-163 -156 -164 -105 -160 0
-170 -156 -171 -105 -160 0
-176 -156 -177 -105 -160 0
-170 -164 -171 -105 -168 0
-176 -164 -177 -105 -168 0
-176 -171 -177 -105 -175 0
-136 -126 -137 -118 -130 0
-146 -126 -147 -118 -130 0
-155 -126 -156 -118 -130 0
-163 -126 -164 -118 -130 0
-170 -126 -171 -118 -130 0
-176 -126 -177 -118 -130 0
-146 -137 -147 -118 -141 0
-155 -137 -156 -118 -141 0
-163 -137 -164 -118 -141 0
-170 -137 -171 -118 -141 0
-176 -137 -177 -118 -141 0
-155 -147 -156 -118 -151 0
-163 -147 -164 -118 -151 0
-170 -147 -171 -118 -151 0
-176 -147 -177 -118 -151 0
-163 -156 -164 -118 -160 0
-170 -156 -171 -118 -160 0
-176 -156 -177 -118 -160 0
-170 -164 -171 -118 -168 0
-176 -164 -177 -118 -168 0
-176 -171 -177 -118 -175 0
-146 -137 -147 -130 -141 0
-155 -137 -156 -130 -141 0
-163 -137 -164 -130 -141 0
-170 -137 -171 -130 -141 0
-176 -137 -177 -130 -141 0
-155 -147 -156 -130 -151 0
-163 -147 -164 -130 -151 0
-170 -147 -171 -130 -151 0
-176 -147 -177 -130 -151 0
-163 -156 -164 -130 -160 0
-170 -156 -171 -130 -160 0
-176 -156 -177 -130 -160 0
-170 -164 -171 -130 -168 0
-176 -164 -177 -130 -168 0
-176 -171 -177 -130 -175 0
-155 -147 -156 -141 -151 0
-163 -147 -164 -141 -151 0
-170 -147 -171 -141 -151 0
-176 -147 -177 -141 -151 0
-163 -156 -164 -141 -160 0
-170 -156 -171 -141 -160 0
-176 -156 -177 -141 -160 0
-170 -164 -171 -141 -168 0
-176 -164 -177 -141 -168 0
-176 -171 -177 -141 -175 0
-163 -156 -164 -151 -160 0
-170 -156 -171 -151 -160 0
-176 -156 -177 -151 -160 0
-170 -164 -171 -151 -168 0
-176 -164 -177 -151 -168 0
-176 -171 -177 -151 -175 0
-170 -164 -171 -160 -168 0
-176 -164 -177 -160 -168 0
-176 -171 -177 -160 -175 0
-176 -171 -177 -168 -175 0
-136 -126 -137 -92 -93 0
-146 -126 -147 -92 -93 0
-155 -126 -156 -92 -93 0
-163 -126 -164 -92 -93 0
-170 -126 -171 -92 -93 0
-176 -126 -177 -92 -93 0
-146 -137 -147 -92 -94 0
-155 -137 -156 -92 -94 0
-163 -137 -164 -92 -94 0
-170 -137 -171 -92 -94 0
-176 -137 -177 -92 -94 0
-155 -147 -156 -92 -95 0
-163 -147 -164 -92 -95 0
-170 -147 -171 -92 -95 0
-176 -147 -177 -92 -95 0
-163 -156 -164 -92 -96 0
-170 -156 -171 -92 -96 0
-176 -156 -177 -92 -96 0
-170 -164 -171 -92 -97 0
-176 -164 -177 -92 -97 0
-176 -171 -177 -92 -98 0
-146 -137 -147 -93 -94 0
-155 -137 -156 -93 -94 0
-163 -137 -164 -93 -94 0
-170 -137 -171 -93 -94 0
-176 -137 -177 -93 -94 0
-155 -147 -156 -93 -95 0
-163 -147 -164 -93 -95 0
-170 -147 -171 -93 -95 0
-176 -147 -177 -93 -95 0
-163 -156 -164 -93 -96 0
-170 -156 -171 -93 -96 0
-176 -156 -177 -93 -96 0
-170 -164 -171 -93 -97 0
-176 -164 -177 -93 -97 0
-176 -171 -177 -93 -98 0
-155 -147 -156 -94 -95 0
-163 -147 -164 -94 -95 0
-170 -147 -171 -94 -95 0
-176 -147 -177 -94 -95 0
-163 -156 -164 -94 -96 0
-170 -156 -171 -94 -96 0
-176 -156 -177 -94 -96 0
-170 -164 -171 -94 -97 0
-176 -164 -177 -94 -97 0
-176 -171 -177 -94 -98 0
-163 -156 -164 -95 -96 0
-170 -156 -171 -95 -96 0
-176 -156 -177 -95 -96 0
-170 -164 -171 -95 -97 0
-176 -164 -177 -95 -97 0
-176 -171 -177 -95 -98 0
-170 -164 -171 -96 -97 0
-176 -164 -177 -96 -97 0
-176 -171 -177 -96 -98 0
-176 -171 -177 -97 -98 0
-146 -137 -147 -106 -107 0
-155 -137 -156 -106 -107 0
-163 -137 -164 -106 -107 0
-170 -137 -171 -106 -107 0
-176 -137 -177 -106 -107 0
-155 -147 -156 -106 -108 0
-163 -147 -164 -106 -108 0
-170 -147 -171 -106 -108 0
-176 -147 -177 -106 -108 0
-163 -156 -164 -106 -109 0
-170 -156 -171 -106 -109 0
-176 -156 -177 -106 -109 0
-170 -164 -171 -106 -110 0
-176 -164 -177 -106 -110 0
-176 -171 -177 -106 -111 0
-155 -147 -156 -107 -108 0
-163 -147 -164 -107 -108 0
-170 -147 -171 -107 -108 0
-176 -147 -177 -107 -108 0
-163 -156 -164 -107 -109 0
-170 -156 -171 -107 -109 0
-176 -156 -177 -107 -109 0
-170 -164 -171 -107 -110 0
-176 -164 -177 -107 -110 0
-176 -171 -177 -107 -111 0
-163 -156 -164 -108 -109 0
-170 -156 -171 -108 -109 0
-176 -156 -177 -108 -109 0
-170 -164 -171 -108 -110 0
-176 -164 -177 -108 -110 0
-176 -171 -177 -108 -111 0
-170 -164 -171 -109 -110 0
-176 -164 -177 -109 -110 0
-176 -171 -177 -109 -111 0
-176 -171 -177 -110 -111 0
-155 -147 -156 -119 -120 0
-163 -147 -164 -119 -120 0
-170 -147 -171 -119 -120 0
-176 -147 -177 -119 -120 0
-163 -156 -164 -119 -121 0
-170 -156 -171 -119 -121 0
-176 -156 -177 -119 -121 0
-170 -164 -171 -119 -122 0
-176 -164 -177 -119 -122 0
-176 -171 -177 -119 -123 0
-163 -156 -164 -120 -121 0
-170 -156 -171 -120 -121 0
-176 -156 -177 -120 -121 0
-170 -164 -171 -120 -122 0
-176 -164 -177 -120 -122 0
-176 -171 -177 -120 -123 0
-170 -164 -171 -121 -122 0
-176 -164 -177 -121 -122 0
-176 -171 -177 -121 -123 0
-176 -171 -177 -122 -123 0
-163 -156 -164 -131 -132 0
-170 -156 -171 -131 -132 0
-176 -156 -177 -131 -132 0
-170 -164 -171 -131 -133 0
-176 -164 -177 -131 -133 0
-176 -171 -177 -131 -134 0
-170 -164 -171 -132 -133 0
-176 -164 -177 -132 -133 0
-176 -171 -177 -132 -134 0
-176 -171 -177 -133 -134 0
-170 -164 -171 -142 -143 0
-176 -164 -177 -142 -143 0
-176 -171 -177 -142 -144 0
-176 -171 -177 -143 -144 0
-176 -171 -177 -152 -153 0
-100 -193 -102 -194 -195 0
-113 -193 -115 -194 -195 0
-125 -193 -127 -194 -195 0
-136 -193 -138 -194 -195 0
-146 -193 -148 -194 -195 0
-155 -193 -157 -194 -195 0
-163 -193 -165 -194 -195 0
-170 -193 -172 -194 -195 0
-176 -193 -178 -194 -195 0
-113 -102 -115 -194 -103 0
-125 -102 -127 -194 -103 0
-136 -102 -138 -194 -103 0
-146 -102 -148 -194 -103 0
-155 -102 -157 -194 -103 0
-163 -102 -165 -194 -103 0
-170 -102 -172 -194 -103 0
-176 -102 -178 -194 -103 0
-125 -115 -127 -194 -116 0
-136 -115 -138 -194 -116 0
-146 -115 -148 -194 -116 0
-155 -115 -157 -194 -116 0
-163 -115 -165 -194 -116 0
-170 -115 -172 -194 -116 0
-176 -115 -178 -194 -116 0
-136 -127 -138 -194 -128 0
-146 -127 -148 -194 -128 0
-155 -127 -157 -194 -128 0
-163 -127 -165 -194 -128 0
-170 -127 -172 -194 -128 0
-176 -127 -178 -194 -128 0
-146 -138 -148 -194 -139 0
-155 -138 -157 -194 -139 0
-163 -138 -165 -194 -139 0
-170 -138 -172 -194 -139 0
-176 -138 -178 -194 -139 0
-155 -148 -157 -194 -149 0
-163 -148 -165 -194 -149 0
-170 -148 -172 -194 -149 0
-176 -148 -178 -194 -149 0
-163 -157 -165 -194 -158 0
-170 -157 -172 -194 -158 0
-176 -157 -178 -194 -158 0
-170 -165 -172 -194 -166 0
-176 -165 -178 -194 -166 0
-176 -172 -178 -194 -173 0
-113 -102 -115 -195 -103 0
-125 -102 -127 -195 -103 0
-136 -102 -138 -195 -103 0
-146 -102 -148 -195 -103 0
-155 -102 -157 -195 -103 0
-163 -102 -165 -195 -103 0
-170 -102 -172 -195 -103 0
-176 -102 -178 -195 -103 0
-125 -115 -127 -195 -116 0
-136 -115 -138 -195 -116 0
-146 -115 -148 -195 -116 0
-155 -115 -157 -195 -116 0
-163 -115 -165 -195 -116 0
-170 -115 -172 -195 -116 0
-176 -115 -178 -195 -116 0
-136 -127 -138 -195 -128 0
-146 -127 -148 -195 -128 0
-155 -127 -157 -195 -128 0
-163 -127 -165 -195 -128 0
-170 -127 -172 -195 -128 0
-176 -127 -178 -195 -128 0
-146 -138 -148 -195 -139 0
-155 -138 -157 -195 -139 0
-163 -138 -165 -195 -139 0
-170 -138 -172 -195 -139 0
-176 -138 -178 -195 -139 0
-155 -148 -157 -195 -149 0
-163 -148 -165 -195 -149 0
-170 -148 -172 -195 -149 0
-176 -148 -178 -195 -149 0
-163 -157 -165 -195 -158 0
-170 -157 -172 -195 -158 0
-176 -157 -178 -195 -158 0
-170 -165 -172 -195 -166 0
-176 -165 -178 -195 -166 0
-176 -172 -178 -195 -173 0
-125 -115 -127 -103 -116 0
-136 -115 -138 -103 -116 0
-146 -115 -148 -103 -116 0
-155 -115 -157 -103 -116 0
-163 -115 -165 -103 -116 0
-170 -115 -172 -103 -116 0
-176 -115 -178 -103 -116 0
-136 -127 -138 -103 -128 0
-146 -127 -148 -103 -128 0
-155 -127 -157 -103 -128 0
-163 -127 -165 -103 -128 0
-170 -127 -172 -103 -128 0
-176 -127 -178 -103 -128 0
-146 -138 -148 -103 -139 0
-155 -138 -157 -103 -139 0
-163 -138 -165 -103 -139 0
-170 -138 -172 -103 -139 0
-176 -138 -178 -103 -139 0
-155 -148 -157 -103 -149 0
-163 -148 -165 -103 -149 0
-170 -148 -172 -103 -149 0
-176 -148 -178 -103 -149 0
-163 -157 -165 -103 -158 0
-170 -157 -172 -103 -158 0
-176 -157 -178 -103 -158 0
-170 -165 -172 -103 -166 0
-176 -165 -178 -103 -166 0
-176 -172 -178 -103 -173 0
-136 -127 -138 -116 -128 0
-146 -127 -148 -116 -128 0
-155 -127 -157 -116 -128 0
-163 -127 -165 -116 -128 0
-170 -127 -172 -116 -128 0
-176 -127 -178 -116 -128 0
-146 -138 -148 -116 -139 0
-155 -138 -157 -116 -139 0
-163 -138 -165 -116 -139 0
-170 -138 -172 -116 -139 0
-176 -138 -178 -116 -139 0
-155 -148 -157 -116 -149 0
-163 -148 -165 -116 -149 0
-170 -148 -172 -116 -149 0
-176 -148 -178 -116 -149 0
-163 -157 -165 -116 -158 0
-170 -157 -172 -116 -158 0
-176 -157 -178 -116 -158 0
-170 -165 -172 -116 -166 0
-176 -165 -178 -116 -166 0
-176 -172 -178 -116 -173 0
-146 -138 -148 -128 -139 0
-155 -138 -157 -128 -139 0
-163 -138 -165 -128 -139 0
-170 -138 -172 -128 -139 0
-176 -138 -178 -128 -139 0
-155 -148 -157 -128 -149 0
-163 -148 -165 -128 -149 0
-170 -148 -172 -128 -149 0
-176 -148 -178 -128 -149 0
-163 -157 -165 -128 -158 0
-170 -157 -172 -128 -158 0
-176 -157 -178 -128 -158 0
-170 -165 -172 -128 -166 0
-176 -165 -178 -128 -166 0
-176 -172 -178 -128 -173 0
-155 -148 -157 -139 -149 0
-163 -148 -165 -139 -149 0
-170 -148 -172 -139 -149 0
-176 -148 -178 -139 -149 0
-163 -157 -165 -139 -158 0
-170 -157 -172 -139 -158 0
-176 -157 -178 -139 -158 0
-170 -165 -172 -139 -166 0
-176 -165 -178 -139 -166 0
-176 -172 -178 -139 -173 0
-163 -157 -165 -149 -158 0
-170 -157 -172 -149 -158 0
-176 -157 -178 -149 -158 0
-170 -165 -172 -149 -166 0
-176 -165 -178 -149 -166 0
-176 -172 -178 -149 -173 0
-170 -165 -172 -158 -166 0
-176 -165 -178 -158 -166 0
-176 -172 -178 -158 -173 0
-176 -172 -178 -166 -173 0
-113 -102 -115 -196 -104 0
-125 -102 -127 -196 -104 0
-136 -102 -138 -196 -104 0
-146 -102 -148 -196 -104 0
-155 -102 -157 -196 -104 0
-163 -102 -165 -196 -104 0
-170 -102 -172 -196 -104 0
-176 -102 -178 -196 -104 0
-125 -115 -127 -196 -117 0
-136 -115 -138 -196 -117 0
-146 -115 -148 -196 -117 0
-155 -115 -157 -196 -117 0
-163 -115 -165 -196 -117 0
-170 -115 -172 -196 -117 0
-176 -115 -178 -196 -117 0
-136 -127 -138 -196 -129 0
-146 -127 -148 -196 -129 0
-155 -127 -157 -196 -129 0
-163 -127 -165 -196 -129 0
-170 -127 -172 -196 -129 0
-176 -127 -178 -196 -129 0
-146 -138 -148 -196 -140 0
-155 -138 -157 -196 -140 0
-163 -138 -165 -196 -140 0
-170 -138 -172 -196 -140 0
-176 -138 -178 -196 -140 0
-155 -148 -157 -196 -150 0
-163 -148 -165 -196 -150 0
-170 -148 -172 -196 -150 0
-176 -148 -178 -196 -150 0
-163 -157 -165 -196 -159 0
-170 -157 -172 -196 -159 0
-176 -157 -178 -196 -159 0
-170 -165 -172 -196 -167 0
-176 -165 -178 -196 -167 0
-176 -172 -178 -196 -174 0
-125 -115 -127 -104 -117 0
-136 -115 -138 -104 -117 0
-146 -115 -148 -104 -117 0
-155 -115 -157 -104 -117 0
-163 -115 -165 -104 -117 0
-170 -115 -172 -104 -117 0
-176 -115 -178 -104 -117 0
-136 -127 -138 -104 -129 0
-146 -127 -148 -104 -129 0
-155 -127 -157 -104 -129 0
-163 -127 -165 -104 -129 0
-170 -127 -172 -104 -129 0
-176 -127 -178 -104 -129 0
-146 -138 -148 -104 -140 0
-155 -138 -157 -104 -140 0
-163 -138 -165 -104 -140 0
-170 -138 -172 -104 -140 0
-176 -138 -178 -104 -140 0
-155 -148 -157 -104 -150 0
-163 -148 -165 -104 -150 0
-170 -148 -172 -104 -150 0
-176 -148 -178 -104 -150 0
-163 -157 -165 -104 -159 0
-170 -157 -172 -104 -159 0
-176 -157 -178 -104 -159 0
-170 -165 -172 -104 -167 0
-176 -165 -178 -104 -167 0
-176 -172 -178 -104 -174 0
-136 -127 -138 -117 -129 0
-146 -127 -148 -117 -129 0
-155 -127 -157 -117 -129 0
-163 -127 -165 -117 -129 0
-170 -127 -172 -117 -129 0
-176 -127 -178 -117 -129 0
-146 -138 -148 -117 -140 0
-155 -138 -157 -117 -140 0
-163 -138 -165 -117 -140 0
-170 -138 -172 -117 -140 0
-176 -138 -178 -117 -140 0
-155 -148 -157 -117 -150 0
-163 -148 -165 -117 -150 0
-170 -148 -172 -117 -150 0
-176 -148 -178 -117 -150 0
-163 -157 -165 -117 -159 0
-170 -157 -172 -117 -159 0
-176 -157 -178 -117 -159 0
-170 -165 -172 -117 -167 0
-176 -165 -178 -117 -167 0
-176 -172 -178 -117 -174 0
-146 -138 -148 -129 -140 0
-155 -138 -157 -129 -140 0
-163 -138 -165 -129 -140 0
-170 -138 -172 -129 -140 0
-176 -138 -178 -129 -140 0
-155 -148 -157 -129 -150 0
-163 -148 -165 -129 -150 0
-170 -148 -172 -129 -150 0
-176 -148 -178 -129 -150 0
-163 -157 -165 -129 -159 0
-170 -157 -172 -129 -159 0
-176 -157 -178 -129 -159 0
-170 -165 -172 -129 -167 0
-176 -165 -178 -129 -167 0
-176 -172 -178 -129 -174 0
-155 -148 -157 -140 -150 0
-163 -148 -165 -140 -150 0
-170 -148 -172 -140 -150 0
-176 -148 -178 -140 -150 0
-163 -157 -165 -140 -159 0
-170 -157 -172 -140 -159 0
-176 -157 -178 -140 -159 0
-170 -165 -172 -140 -167 0
-176 -165 -178 -140 -167 0
-176 -172 -178 -140 -174 0
-163 -157 -165 -150 -159 0
-170 -157 -172 -150 -159 0
-176 -157 -178 -150 -159 0
-170 -165 -172 -150 -167 0
-176 -165 -178 -150 -167 0
-176 -172 -178 -150 -174 0
-170 -165 -172 -159 -167 0
-176 -165 -178 -159 -167 0
-176 -172 -178 -159 -174 0
-176 -172 -178 -167 -174 0
-125 -115 -127 -105 -118 0
-136 -115 -138 -105 -118 0
-146 -115 -148 -105 -118 0
-155 -115 -157 -105 -118 0
-163 -115 -165 -105 -118 0
-170 -115 -172 -105 -118 0
-176 -115 -178 -105 -118 0
-136 -127 -138 -105 -130 0
-146 -127 -148 -105 -130 0
-155 -127 -157 -105 -130 0
-163 -127 -165 -105 -130 0
-170 -127 -172 -105 -130 0
-176 -127 -178 -105 -130 0
-146 -138 -148 -105 -141 0
-155 -138 -157 -105 -141 0
-163 -138 -165 -105 -141 0
-170 -138 -172 -105 -141 0
-176 -138 -178 -105 -141 0
-155 -148 -157 -105 -151 0
-163 -148 -165 -105 -151 0
-170 -148 -172 -105 -151 0
-176 -148 -178 -105 -151 0
-163 -157 -165 -105 -160 0
-170 -157 -172 -105 -160 0
-176 -157 -178 -105 -160 0
-170 -165 -172 -105 -168 0
-176 -165 -178 -105 -168 0
-176 -172 -178 -105 -175 0
-136 -127 -138 -118 -130 0
-146 -127 -148 -118 -130 0
-155 -127 -157 -118 -130 0
-163 -127 -165 -118 -130 0
-170 -127 -172 -118 -130 0
-176 -127 -178 -118 -130 0
-146 -138 -148 -118 -141 0
-155 -138 -157 -118 -141 0
-163 -138 -165 -118 -141 0
-170 -138 -172 -118 -141 0
-176 -138 -178 -118 -141 0
-155 -148 -157 -118 -151 0
-163 -148 -165 -118 -151 0
-170 -148 -172 -118 -151 0
-176 -148 -178 -118 -151 0
-163 -157 -165 -118 -160 0
-170 -157 -172 -118 -160 0
-176 -157 -178 -118 -160 0
-170 -165 -172 -118 -168 0
-176 -165 -178 -118 -168 0
-176 -172 -178 -118 -175 0
-146 -138 -148 -130 -141 0
-155 -138 -157 -130 -141 0
-163 -138 -165 -130 -141 0
-170 -138 -172 -130 -141 0
-176 -138 -178 -130 -141 0
-155 -148 -157 -130 -151 0
-163 -148 -165 -130 -151 0
-170 -148 -172 -130 -151 0
-176 -148 -178 -130 -151 0
-163 -157 -165 -130 -160 0
-170 -157 -172 -130 -160 0
-176 -157 -178 -130 -160 0
-170 -165 -172 -130 -168 0
-176 -165 -178 -130 -168 0
-176 -172 -178 -130 -175 0
-155 -148 -157 -141 -151 0
-163 -148 -165 -141 -151 0
-170 -148 -172 -141 -151 0
-176 -148 -178 -141 -151 0
-163 -157 -165 -141 -160 0
-170 -157 -172 -141 -160 0
-176 -157 -178 -141 -160 0
-170 -165 -172 -141 -168 0
-176 -165 -178 -141 -168 0
-176 -172 -178 -141 -175 0
-163 -157 -165 -151 -160 0
-170 -157 -172 -151 -160 0
-176 -157 -178 -151 -160 0
-170 -165 -172 -151 -168 0
-176 -165 -178 -151 -168 0
-176 -172 -178 -151 -175 0
-170 -165 -172 -160 -168 0
-176 -165 -178 -160 -168 0
-176 -172 -178 -160 -175 0
-176 -172 -178 -168 -175 0
-136 -127 -138 -92 -93 0
-146 -127 -148 -92 -93 0
-155 -127 -157 -92 -93 0
-163 -127 -165 -92 -93 0
-170 -127 -172 -92 -93 0
-176 -127 -178 -92 -93 0
-146 -138 -148 -92 -94 0
-155 -138 -157 -92 -94 0
-163 -138 -165 -92 -94 0
-170 -138 -172 -92 -94 0
-176 -138 -178 -92 -94 0
-155 -148 -157 -92 -95 0
-163 -148 -165 -92 -95 0
-170 -148 -172 -92 -95 0
-176 -148 -178 -92 -95 0
-163 -157 -165 -92 -96 0
-170 -157 -172 -92 -96 0
-176 -157 -178 -92 -96 0
-170 -165 -172 -92 -97 0
-176 -165 -178 -92 -97 0
-176 -172 -178 -92 -98 0
-146 -138 -148 -93 -94 0
-155 -138 -157 -93 -94 0
-163 -138 -165 -93 -94 0
-170 -138 -172 -93 -94 0
-176 -138 -178 -93 -94 0
-155 -148 -157 -93 -95 0
-163 -148 -165 -93 -95 0
-170 -148 -172 -93 -95 0
-176 -148 -178 -93 -95 0
-163 -157 -165 -93 -96 0
-170 -157 -172 -93 -96 0
-176 -157 -178 -93 -96 0
-170 -165 -172 -93 -97 0
-176 -165 -178 -93 -97 0
-176 -172 -178 -93 -98 0
-155 -148 -157 -94 -95 0
-163 -148 -165 -94 -95 0
-170 -148 -172 -94 -95 0
-176 -148 -178 -94 -95 0
-163 -157 -165 -94 -96 0
-170 -157 -172 -94 -96 0
-176 -157 -178 -94 -96 0
-170 -165 -172 -94 -97 0
-176 -165 -178 -94 -97 0
-176 -172 -178 -94 -98 0
-163 -157 -165 -95 -96 0
-170 -157 -172 -95 -96 0
-176 -157 -178 -95 -96 0
-170 -165 -172 -95 -97 0
-176 -165 -178 -95 -97 0
-176 -172 -178 -95 -98 0
-170 -165 -172 -96 -97 0
-176 -165 -178 -96 -97 0
-176 -172 -178 -96 -98 0
-176 -172 -178 -97 -98 0
-146 -138 -148 -106 -107 0
-155 -138 -157 -106 -107 0
-163 -138 -165 -106 -107 0
-170 -138 -172 -106 -107 0
-176 -138 -178 -106 -107 0
-155 -148 -157 -106 -108 0
-163 -148 -165 -106 -108 0
-170 -148 -172 -106 -108 0
-176 -148 -178 -106 -108 0
-163 -157 -165 -106 -109 0
-170 -157 -172 -106 -109 0
-176 -157 -178 -106 -109 0
-170 -165 -172 -106 -110 0
-176 -165 -178 -106 -110 0
-176 -172 -178 -106 -111 0
-155 -148 -157 -107 -108 0
-163 -148 -165 -107 -108 0
-170 -148 -172 -107 -108 0
-176 -148 -178 -107 -108 0
-163 -157 -165 -107 -109 0
-170 -157 -172 -107 -109 0
-176 -157 -178 -107 -109 0
-170 -165 -172 -107 -110 0
-176 -165 -178 -107 -110 0
-176 -172 -178 -107 -111 0
-163 -157 -165 -108 -109 0
-170 -157 -172 -108 -109 0
-176 -157 -178 -108 -109 0
-170 -165 -172 -108 -110 0
-176 -165 -178 -108 -110 0
-176 -172 -178 -108 -111 0
-170 -165 -172 -109 -110 0
-176 -165 -178 -109 -110 0
-176 -172 -178 -109 -111 0
-176 -172 -178 -110 -111 0
-155 -148 -157 -119 -120 0
-163 -148 -165 -119 -120 0
-170 -148 -172 -119 -120 0
-176 -148 -178 -119 -120 0
-163 -157 -165 -119 -121 0
-170 -157 -172 -119 -121 0
-176 -157 -178 -119 -121 0
-170 -165 -172 -119 -122 0
-176 -165 -178 -119 -122 0
-176 -172 -178 -119 -123 0
-163 -157 -165 -120 -121 0
-170 -157 -172 -120 -121 0
-176 -157 -178 -120 -121 0
-170 -165 -172 -120 -122 0
-176 -165 -178 -120 -122 0
-176 -172 -178 -120 -123 0
-170 -165 -172 -121 -122 0
-176 -165 -178 -121 -122 0
-176 -172 -178 -121 -123 0
-176 -172 -178 -122 -123 0
-163 -157 -165 -131 -132 0
-170 -157 -172 -131 -132 0
-176 -157 -178 -131 -132 0
-170 -165 -172 -131 -133 0
-176 -165 -178 -131 -133 0
-176 -172 -178 -131 -134 0
-170 -165 -172 -132 -133 0
-176 -165 -178 -132 -133 0
-176 -172 -178 -132 -134 0
-176 -172 -178 -133 -134 0
-170 -165 -172 -142 -143 0
-176 -165 -178 -142 -143 0
-176 -172 -178 -142 -144 0
-176 -172 -178 -143 -144 0
-176 -172 -178 -152 -153 0
-113 -103 -116 -196 -104 0
-125 -103 -128 -196 -104 0
-136 -103 -139 -196 -104 0
-146 -103 -149 -196 -104 0
-155 -103 -158 -196 -104 0
-163 -103 -166 -196 -104 0
-170 -103 -173 -196 -104 0
-176 -103 -179 -196 -104 0
-125 -116 -128 -196 -117 0
-136 -116 -139 -196 -117 0
-146 -116 -149 -196 -117 0
-155 -116 -158 -196 -117 0
-163 -116 -166 -196 -117 0
-170 -116 -173 -196 -117 0
-176 -116 -179 -196 -117 0
-136 -128 -139 -196 -129 0
-146 -128 -149 -196 -129 0
-155 -128 -158 -196 -129 0
-163 -128 -166 -196 -129 0
-170 -128 -173 -196 -129 0
-176 -128 -179 -196 -129 0
-146 -139 -149 -196 -140 0
-155 -139 -158 -196 -140 0
-163 -139 -166 -196 -140 0
-170 -139 -173 -196 -140 0
-176 -139 -179 -196 -140 0
-155 -149 -158 -196 -150 0
-163 -149 -166 -196 -150 0
-170 -149 -173 -196 -150 0
-176 -149 -179 -196 -150 0
-163 -158 -166 -196 -159 0
-170 -158 -173 -196 -159 0
-176 -158 -179 -196 -159 0
-170 -166 -173 -196 -167 0
-176 -166 -179 -196 -167 0
-176 -173 -179 -196 -174 0
-125 -116 -128 -104 -117 0
-136 -116 -139 -104 -117 0
-146 -116 -149 -104 -117 0
-155 -116 -158 -104 -117 0
-163 -116 -166 -104 -117 0
-170 -116 -173 -104 -117 0
-176 -116 -179 -104 -117 0
-136 -128 -139 -104 -129 0
-146 -128 -149 -104 -129 0
-155 -128 -158 -104 -129 0
-163 -128 -166 -104 -129 0
-170 -128 -173 -104 -129 0
-176 -128 -179 -104 -129 0
-146 -139 -149 -104 -140 0
-155 -139 -158 -104 -140 0
-163 -139 -166 -104 -140 0
-170 -139 -173 -104 -140 0
-176 -139 -179 -104 -140 0
-155 -149 -158 -104 -150 0
-163 -149 -166 -104 -150 0
-170 -149 -173 -104 -150 0
-176 -149 -179 -104 -150 0
-163 -158 -166 -104 -159 0
-170 -158 -173 -104 -159 0
-176 -158 -179 -104 -159 0
-170 -166 -173 -104 -167 0
-176 -166 -179 -104 -167 0
-176 -173 -179 -104 -174 0
-136 -128 -139 -117 -129 0
-146 -128 -149 -117 -129 0
-155 -128 -158 -117 -129 0
-163 -128 -166 -117 -129 0
-170 -128 -173 -117 -129 0
-176 -128 -179 -117 -129 0
-146 -139 -149 -117 -140 0
-155 -139 -158 -117 -140 0
-163 -139 -166 -117 -140 0
-170 -139 -173 -117 -140 0
-176 -139 -179 -117 -140 0
-155 -149 -158 -117 -150 0
-163 -149 -166 -117 -150 0
-170 -149 -173 -117 -150 0
-176 -149 -179 -117 -150 0
-163 -158 -166 -117 -159 0
-170 -158 -173 -117 -159 0
-176 -158 -179 -117 -159 0
-170 -166 -173 -117 -167 0
-176 -166 -179 -117 -167 0
-176 -173 -179 -117 -174 0
-146 -139 -149 -129 -140 0
-155 -139 -158 -129 -140 0
-163 -139 -166 -129 -140 0
-170 -139 -173 -129 -140 0
-176 -139 -179 -129 -140 0
-155 -149 -158 -129 -150 0
-163 -149 -166 -129 -150 0
-170 -149 -173 -129 -150 0
-176 -149 -179 -129 -150 0
-163 -158 -166 -129 -159 0
-170 -158 -173 -129 -159 0
-176 -158 -179 -129 -159 0
-170 -166 -173 -129 -167 0
-176 -166 -179 -129 -167 0
-176 -173 -179 -129 -174 0
-155 -149 -158 -140 -150 0
-163 -149 -166 -140 -150 0
-170 -149 -173 -140 -150 0
-176 -149 -179 -140 -150 0
-163 -158 -166 -140 -159 0
-170 -158 -173 -140 -159 0
-176 -158 -179 -140 -159 0
-170 -166 -173 -140 -167 0
-176 -166 -179 -140 -167 0
-176 -173 -179 -140 -174 0
-163 -158 -166 -150 -159 0
-170 -158 -173 -150 -159 0
-176 -158 -179 -150 -159 0
-170 -166 -173 -150 -167 0
-176 -166 -179 -150 -167 0
-176 -173 -179 -150 -174 0
-170 -166 -173 -159 -167 0
-176 -166 -179 -159 -167 0
-176 -173 -179 -159 -174 0
-176 -173 -179 -167 -174 0
-125 -116 -128 -105 -118 0
-136 -116 -139 -105 -118 0
-146 -116 -149 -105 -118 0
-155 -116 -158 -105 -118 0
-163 -116 -166 -105 -118 0
-170 -116 -173 -105 -118 0
-176 -116 -179 -105 -118 0
-136 -128 -139 -105 -130 0
-146 -128 -149 -105 -130 0
-155 -128 -158 -105 -130 0
-163 -128 -166 -105 -130 0
-170 -128 -173 -105 -130 0
-176 -128 -179 -105 -130 0
-146 -139 -149 -105 -141 0
-155 -139 -158 -105 -141 0
-163 -139 -166 -105 -141 0
-170 -139 -173 -105 -141 0
-176 -139 -179 -105 -141 0
-155 -149 -158 -105 -151 0
-163 -149 -166 -105 -151 0
-170 -149 -173 -105 -151 0
-176 -149 -179 -105 -151 0
-163 -158 -166 -105 -160 0
-170 -158 -173 -105 -160 0
-176 -158 -179 -105 -160 0
-170 -166 -173 -105 -168 0
-176 -166 -179 -105 -168 0
-176 -173 -179 -105 -175 0
-136 -128 -139 -118 -130 0
-146 -128 -149 -118 -130 0
-155 -128 -158 -118 -130 0
-163 -128 -166 -118 -130 0
-170 -128 -173 -118 -130 0
-176 -128 -179 -118 -130 0
-146 -139 -149 -118 -141 0
-155 -139 -158 -118 -141 0
-163 -139 -166 -118 -141 0
-170 -139 -173 -118 -141 0
-176 -139 -179 -118 -141 0
-155 -149 -158 -118 -151 0
-163 -149 -166 -118 -151 0
-170 -149 -173 -118 -151 0
-176 -149 -179 -118 -151 0
-163 -158 -166 -118 -160 0
-170 -158 -173 -118 -160 0
-176 -158 -179 -118 -160 0
-170 -166 -173 -118 -168 0
-176 -166 -179 -118 -168 0
-176 -173 -179 -118 -175 0
-146 -139 -149 -130 -141 0
-155 -139 -158 -130 -141 0
-163 -139 -166 -130 -141 0
-170 -139 -173 -130 -141 0
-176 -139 -179 -130 -141 0
-155 -149 -158 -130 -151 0
-163 -149 -166 -130 -151 0
-170 -149 -173 -130 -151 0
-176 -149 -179 -130 -151 0
-163 -158 -166 -130 -160 0
-170 -158 -173 -130 -160 0
-176 -158 -179 -130 -160 0
-170 -166 -173 -130 -168 0
-176 -166 -179 -130 -168 0
-176 -173 -179 -130 -175 0
-155 -149 -158 -141 -151 0
-163 -149 -166 -141 -151 0
-170 -149 -173 -141 -151 0
-176 -149 -179 -141 -151 0
-163 -158 -166 -141 -160 0
-170 -158 -173 -141 -160 0
-176 -158 -179 -141 -160 0
-170 -166 -173 -141 -168 0
-176 -166 -179 -141 -168 0
-176 -173 -179 -141 -175 0
-163 -158 -166 -151 -160 0
-170 -158 -173 -151 -160 0
-176 -158 -179 -151 -160 0
-170 -166 -173 -151 -168 0
-176 -166 -179 -151 -168 0
-176 -173 -179 -151 -175 0
-170 -166 -173 -160 -168 0
-176 -166 -179 -160 -168 0
-176 -173 -179 -160 -175 0
-176 -173 -179 -168 -175 0
-136 -128 -139 -92 -93 0
-146 -128 -149 -92 -93 0
-155 -128 -158 -92 -93 0
-163 -128 -166 -92 -93 0
-170 -128 -173 -92 -93 0
-176 -128 -179 -92 -93 0
-146 -139 -149 -92 -94 0
-155 -139 -158 -92 -94 0
-163 -139 -166 -92 -94 0
-170 -139 -173 -92 -94 0
-176 -139 -179 -92 -94 0
-155 -149 -158 -92 -95 0
-163 -149 -166 -92 -95 0
-170 -149 -173 -92 -95 0
-176 -149 -179 -92 -95 0
-163 -158 -166 -92 -96 0
-170 -158 -173 -92 -96 0
-176 -158 -179 -92 -96 0
-170 -166 -173 -92 -97 0
-176 -166 -179 -92 -97 0
-176 -173 -179 -92 -98 0
-146 -139 -149 -93 -94 0
-155 -139 -158 -93 -94 0
-163 -139 -166 -93 -94 0
-170 -139 -173 -93 -94 0
-176 -139 -179 -93 -94 0
-155 -149 -158 -93 -95 0
-163 -149 -166 -93 -95 0
-170 -149 -173 -93 -95 0
-176 -149 -179 -93 -95 0
-163 -158 -166 -93 -96 0
-170 -158 -173 -93 -96 0
-176 -158 -179 -93 -96 0
-170 -166 -173 -93 -97 0
-176 -166 -179 -93 -97 0
-176 -173 -179 -93 -98 0
-155 -149 -158 -94 -95 0
-163 -149 -166 -94 -95 0
-170 -149 -173 -94 -95 0
-176 -149 -179 -94 -95 0
-163 -158 -166 -94 -96 0
-170 -158 -173 -94 -96 0
-176 -158 -179 -94 -96 0
-170 -166 -173 -94 -97 0
-176 -166 -179 -94 -97 0
-176 -173 -179 -94 -98 0
-163 -158 -166 -95 -96 0
-170 -158 -173 -95 -96 0
-176 -158 -179 -95 -96 0
-170 -166 -173 -95 -97 0
-176 -166 -179 -95 -97 0
-176 -173 -179 -95 -98 0
-170 -166 -173 -96 -97 0
-176 -166 -179 -96 -97 0
-176 -173 -179 -96 -98 0
-176 -173 -179 -97 -98 0
-146 -139 -149 -106 -107 0
-155 -139 -158 -106 -107 0
-163 -139 -166 -106 -107 0
-170 -139 -173 -106 -107 0
-176 -139 -179 -106 -107 0
-155 -149 -158 -106 -108 0
-163 -149 -166 -106 -108 0
-170 -149 -173 -106 -108 0
-176 -149 -179 -106 -108 0
-163 -158 -166 -106 -109 0
-170 -158 -173 -106 -109 0
-176 -158 -179 -106 -109 0
-170 -166 -173 -106 -110 0
-176 -166 -179 -106 -110 0
-176 -173 -179 -106 -111 0
-155 -149 -158 -107 -108 0
-163 -149 -166 -107 -108 0
-170 -149 -173 -107 -108 0
-176 -149 -179 -107 -108 0
-163 -158 -166 -107 -109 0
-170 -158 -173 -107 -109 0
-176 -158 -179 -107 -109 0
-170 -166 -173 -107 -110 0
-176 -166 -179 -107 -110 0
-176 -173 -179 -107 -111 0
-163 -158 -166 -108 -109 0
-170 -158 -173 -108 -109 0
-176 -158 -179 -108 -109 0
-170 -166 -173 -108 -110 0
-176 -166 -179 -108 -110 0
-176 -173 -179 -108 -111 0
-170 -166 -173 -109 -110 0
-176 -166 -179 -109 -110 0
-176 -173 -179 -109 -111 0
-176 -173 -179 -110 -111 0
-155 -149 -158 -119 -120 0
-163 -149 -166 -119 -120 0
-170 -149 -173 -119 -120 0
-176 -149 -179 -119 -120 0
-163 -158 -166 -119 -121 0
-170 -158 -173 -119 -121 0
-176 -158 -179 -119 -121 0
-170 -166 -173 -119 -122 0
-176 -166 -179 -119 -122 0
-176 -173 -179 -119 -123 0
-163 -158 -166 -120 -121 0
-170 -158 -173 -120 -121 0
-176 -158 -179 -120 -121 0
-170 -166 -173 -120 -122 0
-176 -166 -179 -120 -122 0
-176 -173 -179 -120 -123 0
-170 -166 -173 -121 -122 0
-176 -166 -179 -121 -122 0
-176 -173 -179 -121 -123 0
-176 -173 -179 -122 -123 0
-163 -158 -166 -131 -132 0
-170 -158 -173 -131 -132 0
-176 -158 -179 -131 -132 0
-170 -166 -173 -131 -133 0
-176 -166 -179 -131 -133 0
-176 -173 -179 -131 -134 0
-170 -166 -173 -132 -133 0
-176 -166 -179 -132 -133 0
-176 -173 -179 -132 -134 0
-176 -173 -179 -133 -134 0
-170 -166 -173 -142 -143 0
-176 -166 -179 -142 -143 0
-176 -173 -179 -142 -144 0
-176 -173 -179 -143 -144 0
-176 -173 -179 -152 -153 0
-125 -117 -129 -105 -118 0
-136 -117 -140 -105 -118 0
-146 -117 -150 -105 -118 0
-155 -117 -159 -105 -118 0
-163 -117 -167 -105 -118 0
-170 -117 -174 -105 -118 0
-176 -117 -180 -105 -118 0
-136 -129 -140 -105 -130 0
-146 -129 -150 -105 -130 0
-155 -129 -159 -105 -130 0
-163 -129 -167 -105 -130 0
-170 -129 -174 -105 -130 0
-176 -129 -180 -105 -130 0
-146 -140 -150 -105 -141 0
-155 -140 -159 -105 -141 0
-163 -140 -167 -105 -141 0
-170 -140 -174 -105 -141 0
-176 -140 -180 -105 -141 0
-155 -150 -159 -105 -151 0
-163 -150 -167 -105 -151 0
-170 -150 -174 -105 -151 0
-176 -150 -180 -105 -151 0
-163 -159 -167 -105 -160 0
-170 -159 -174 -105 -160 0
-176 -159 -180 -105 -160 0
-170 -167 -174 -105 -168 0
-176 -167 -180 -105 -168 0
-176 -174 -180 -105 -175 0
-136 -129 -140 -118 -130 0
-146 -129 -150 -118 -130 0
-155 -129 -159 -118 -130 0
-163 -129 -167 -118 -130 0
-170 -129 -174 -118 -130 0
-176 -129 -180 -118 -130 0
-146 -140 -150 -118 -141 0
-155 -140 -159 -118 -141 0
-163 -140 -167 -118 -141 0
-170 -140 -174 -118 -141 0
-176 -140 -180 -118 -141 0
-155 -150 -159 -118 -151 0
-163 -150 -167 -118 -151 0
-170 -150 -174 -118 -151 0
-176 -150 -180 -118 -151 0
-163 -159 -167 -118 -160 0
-170 -159 -174 -118 -160 0
-176 -159 -180 -118 -160 0
-170 -167 -174 -118 -168 0
-176 -167 -180 -118 -168 0
-176 -174 -180 -118 -175 0
-146 -140 -150 -130 -141 0
-155 -140 -159 -130 -141 0
-163 -140 -167 -130 -141 0
-170 -140 -174 -130 -141 0
-176 -140 -180 -130 -141 0
-155 -150 -159 -130 -151 0
-163 -150 -167 -130 -151 0
-170 -150 -174 -130 -151 0
-176 -150 -180 -130 -151 0
-163 -159 -167 -130 -160 0
-170 -159 -174 -130 -160 0
-176 -159 -180 -130 -160 0
-170 -167 -174 -130 -168 0
-176 -167 -180 -130 -168 0
-176 -174 -180 -130 -175 0
-155 -150 -159 -141 -151 0
-163 -150 -167 -141 -151 0
-170 -150 -174 -141 -151 0
-176 -150 -180 -141 -151 0
-163 -159 -167 -141 -160 0
-170 -159 -174 -141 -160 0
-176 -159 -180 -141 -160 0
-170 -167 -174 -141 -168 0
-176 -167 -180 -141 -168 0
-176 -174 -180 -141 -175 0
-163 -159 -167 -151 -160 0
-170 -159 -174 -151 -160 0
-176 -159 -180 -151 -160 0
-170 -167 -174 -151 -168 0
-176 -167 -180 -151 -168 0
-176 -174 -180 -151 -175 0
-170 -167 -174 -160 -168 0
-176 -167 -180 -160 -168 0
-176 -174 -180 -160 -175 0
-176 -174 -180 -168 -175 0
-136 -129 -140 -92 -93 0
-146 -129 -150 -92 -93 0
-155 -129 -159 -92 -93 0
-163 -129 -167 -92 -93 0
-170 -129 -174 -92 -93 0
-176 -129 -180 -92 -93 0
-146 -140 -150 -92 -94 0
-155 -140 -159 -92 -94 0
-163 -140 -167 -92 -94 0
-170 -140 -174 -92 -94 0
-176 -140 -180 -92 -94 0
-155 -150 -159 -92 -95 0
-163 -150 -167 -92 -95 0
-170 -150 -174 -92 -95 0
-176 -150 -180 -92 -95 0
-163 -159 -167 -92 -96 0
-170 -159 -174 -92 -96 0
-176 -159 -180 -92 -96 0
-170 -167 -174 -92 -97 0
-176 -167 -180 -92 -97 0
-176 -174 -180 -92 -98 0
-146 -140 -150 -93 -94 0
-155 -140 -159 -93 -94 0
-163 -140 -167 -93 -94 0
-170 -140 -174 -93 -94 0
-176 -140 -180 -93 -94 0
-155 -150 -159 -93 -95 0
-163 -150 -167 -93 -95 0
-170 -150 -174 -93 -95 0
-176 -150 -180 -93 -95 0
-163 -159 -167 -93 -96 0
-170 -159 -174 -93 -96 0
-176 -159 -180 -93 -96 0
-170 -167 -174 -93 -97 0
-176 -167 -180 -93 -97 0
-176 -174 -180 -93 -98 0
-155 -150 -159 -94 -95 0
-163 -150 -167 -94 -95 0
-170 -150 -174 -94 -95 0
-176 -150 -180 -94 -95 0
-163 -159 -167 -94 -96 0
-170 -159 -174 -94 -96 0
-176 -159 -180 -94 -96 0
-170 -167 -174 -94 -97 0
-176 -167 -180 -94 -97 0
-176 -174 -180 -94 -98 0
-163 -159 -167 -95 -96 0
-170 -159 -174 -95 -96 0
-176 -159 -180 -95 -96 0
-170 -167 -174 -95 -97 0
-176 -167 -180 -95 -97 0
-176 -174 -180 -95 -98 0
-170 -167 -174 -96 -97 0
-176 -167 -180 -96 -97 0
-176 -174 -180 -96 -98 0
-176 -174 -180 -97 -98 0
-146 -140 -150 -106 -107 0
-155 -140 -159 -106 -107 0
-163 -140 -167 -106 -107 0
-170 -140 -174 -106 -107 0
-176 -140 -180 -106 -107 0
-155 -150 -159 -106 -108 0
-163 -150 -167 -106 -108 0
-170 -150 -174 -106 -108 0
-176 -150 -180 -106 -108 0
-163 -159 -167 -106 -109 0
-170 -159 -174 -106 -109 0
-176 -159 -180 -106 -109 0
-170 -167 -174 -106 -110 0
-176 -167 -180 -106 -110 0
-176 -174 -180 -106 -111 0
-155 -150 -159 -107 -108 0
-163 -150 -167 -107 -108 0
-170 -150 -174 -107 -108 0
-176 -150 -180 -107 -108 0
-163 -159 -167 -107 -109 0
-170 -159 -174 -107 -109 0
-176 -159 -180 -107 -109 0
-170 -167 -174 -107 -110 0
-176 -167 -180 -107 -110 0
-176 -174 -180 -107 -111 0
-163 -159 -167 -108 -109 0
-170 -159 -174 -108 -109 0
-176 -159 -180 -108 -109 0
-170 -167 -174 -108 -110 0
-176 -167 -180 -108 -110 0
-176 -174 -180 -108 -111 0
-170 -167 -174 -109 -110 0
-176 -167 -180 -109 -110 0
-176 -174 -180 -109 -111 0
-176 -174 -180 -110 -111 0
-155 -150 -159 -119 -120 0
-163 -150 -167 -119 -120 0
-170 -150 -174 -119 -120 0
-176 -150 -180 -119 -120 0
-163 -159 -167 -119 -121 0
-170 -159 -174 -119 -121 0
-176 -159 -180 -119 -121 0
-170 -167 -174 -119 -122 0
-176 -167 -180 -119 -122 0
-176 -174 -180 -119 -123 0
-163 -159 -167 -120 -121 0
-170 -159 -174 -120 -121 0
-176 -159 -180 -120 -121 0
-170 -167 -174 -120 -122 0
-176 -167 -180 -120 -122 0
-176 -174 -180 -120 -123 0
-170 -167 -174 -121 -122 0
-176 -167 -180 -121 -122 0
-176 -174 -180 -121 -123 0
-176 -174 -180 -122 -123 0
-163 -159 -167 -131 -132 0
-170 -159 -174 -131 -132 0
-176 -159 -180 -131 -132 0
-170 -167 -174 -131 -133 0
-176 -167 -180 -131 -133 0
-176 -174 -180 -131 -134 0
-170 -167 -174 -132 -133 0
-176 -167 -180 -132 -133 0
-176 -174 -180 -132 -134 0
-176 -174 -180 -133 -134 0
-170 -167 -174 -142 -143 0
-176 -167 -180 -142 -143 0
-176 -174 -180 -142 -144 0
-176 -174 -180 -143 -144 0
-176 -174 -180 -152 -153 0
-136 -130 -141 -92 -93 0
-146 -130 -151 -92 -93 0
-155 -130 -160 -92 -93 0
-163 -130 -168 -92 -93 0
-170 -130 -175 -92 -93 0
-176 -130 -181 -92 -93 0
-146 -141 -151 -92 -94 0
-155 -141 -160 -92 -94 0
-163 -141 -168 -92 -94 0
-170 -141 -175 -92 -94 0
-176 -141 -181 -92 -94 0
-155 -151 -160 -92 -95 0
-163 -151 -168 -92 -95 0
-170 -151 -175 -92 -95 0
-176 -151 -181 -92 -95 0
-163 -160 -168 -92 -96 0
-170 -160 -175 -92 -96 0
-176 -160 -181 -92 -96 0
-170 -168 -175 -92 -97 0
-176 -168 -181 -92 -97 0
-176 -175 -181 -92 -98 0
-146 -141 -151 -93 -94 0
-155 -141 -160 -93 -94 0
-163 -141 -168 -93 -94 0
-170 -141 -175 -93 -94 0
-176 -141 -181 -93 -94 0
-155 -151 -160 -93 -95 0
-163 -151 -168 -93 -95 0
-170 -151 -175 -93 -95 0
-176 -151 -181 -93 -95 0
-163 -160 -168 -93 -96 0
-170 -160 -175 -93 -96 0
-176 -160 -181 -93 -96 0
-170 -168 -175 -93 -97 0
-176 -168 -181 -93 -97 0
-176 -175 -181 -93 -98 0
-155 -151 -160 -94 -95 0
-163 -151 -168 -94 -95 0
-170 -151 -175 -94 -95 0
-176 -151 -181 -94 -95 0
-163 -160 -168 -94 -96 0
-170 -160 -175 -94 -96 0
-176 -160 -181 -94 -96 0
-170 -168 -175 -94 -97 0
-176 -168 -181 -94 -97 0
-176 -175 -181 -94 -98 0
-163 -160 -168 -95 -96 0
-170 -160 -175 -95 -96 0
-176 -160 -181 -95 -96 0
-170 -168 -175 -95 -97 0
-176 -168 -181 -95 -97 0
-176 -175 -181 -95 -98 0
-170 -168 -175 -96 -97 0
-176 -168 -181 -96 -97 0
-176 -175 -181 -96 -98 0
-176 -175 -181 -97 -98 0
-146 -141 -151 -106 -107 0
-155 -141 -160 -106 -107 0
-163 -141 -168 -106 -107 0
-170 -141 -175 -106 -107 0
-176 -141 -181 -106 -107 0
-155 -151 -160 -106 -108 0
-163 -151 -168 -106 -108 0
-170 -151 -175 -106 -108 0
-176 -151 -181 -106 -108 0
-163 -160 -168 -106 -109 0
-170 -160 -175 -106 -109 0
-176 -160 -181 -106 -109 0
-170 -168 -175 -106 -110 0
-176 -168 -181 -106 -110 0
-176 -175 -181 -106 -111 0
-155 -151 -160 -107 -108 0
-163 -151 -168 -107 -108 0
-170 -151 -175 -107 -108 0
-176 -151 -181 -107 -108 0
-163 -160 -168 -107 -109 0
-170 -160 -175 -107 -109 0
-176 -160 -181 -107 -109 0
-170 -168 -175 -107 -110 0
-176 -168 -181 -107 -110 0
-176 -175 -181 -107 -111 0
-163 -160 -168 -108 -109 0
-170 -160 -175 -108 -109 0
-176 -160 -181 -108 -109 0
-170 -168 -175 -108 -110 0
-176 -168 -181 -108 -110 0
-176 -175 -181 -108 -111 0
-170 -168 -175 -109 -110 0
-176 -168 -181 -109 -110 0
-176 -175 -181 -109 -111 0
-176 -175 -181 -110 -111 0
-155 -151 -160 -119 -120 0
-163 -151 -168 -119 -120 0
-170 -151 -175 -119 -120 0
-176 -151 -181 -119 -120 0
-163 -160 -168 -119 -121 0
-170 -160 -175 -119 -121 0
-176 -160 -181 -119 -121 0
-170 -168 -175 -119 -122 0
-176 -168 -181 -119 -122 0
-176 -175 -181 -119 -123 0
-163 -160 -168 -120 -121 0
-170 -160 -175 -120 -121 0
-176 -160 -181 -120 -121 0
-170 -168 -175 -120 -122 0
-176 -168 -181 -120 -122 0
-176 -175 -181 -120 -123 0
-170 -168 -175 -121 -122 0
-176 -168 -181 -121 -122 0
-176 -175 -181 -121 -123 0
-176 -175 -181 -122 -123 0
-163 -160 -168 -131 -132 0
-170 -160 -175 -131 -132 0
-176 -160 -181 -131 -132 0
-170 -168 -175 -131 -133 0
-176 -168 -181 -131 -133 0
-176 -175 -181 -131 -134 0
-170 -168 -175 -132 -133 0
-176 -168 -181 -132 -133 0
-176 -175 -181 -132 -134 0
-176 -175 -181 -133 -134 0
-170 -168 -175 -142 -143 0
-176 -168 -181 -142 -143 0
-176 -175 -181 -142 -144 0
-176 -175 -181 -143 -144 0
-176 -175 -181 -152 -153 0
-146 -94 -95 -106 -107 0
-155 -94 -96 -106 -107 0
-163 -94 -97 -106 -107 0
-170 -94 -98 -106 -107 0
-176 -94 -99 -106 -107 0
-155 -95 -96 -106 -108 0
-163 -95 -97 -106 -108 0
-170 -95 -98 -106 -108 0
-176 -95 -99 -106 -108 0
-163 -96 -97 -106 -109 0
-170 -96 -98 -106 -109 0
-176 -96 -99 -106 -109 0
-170 -97 -98 -106 -110 0
-176 -97 -99 -106 -110 0
-176 -98 -99 -106 -111 0
-155 -95 -96 -107 -108 0
-163 -95 -97 -107 -108 0
-170 -95 -98 -107 -108 0
-176 -95 -99 -107 -108 0
-163 -96 -97 -107 -109 0
-170 -96 -98 -107 -109 0
-176 -96 -99 -107 -109 0
-170 -97 -98 -107 -110 0
-176 -97 -99 -107 -110 0
-176 -98 -99 -107 -111 0
-163 -96 -97 -108 -109 0
-170 -96 -98 -108 -109 0
-176 -96 -99 -108 -109 0
-170 -97 -98 -108 -110 0
-176 -97 -99 -108 -110 0
-176 -98 -99 -108 -111 0
-170 -97 -98 -109 -110 0
-176 -97 -99 -109 -110 0
-176 -98 -99 -109 -111 0
-176 -98 -99 -110 -111 0
-155 -95 -96 -119 -120 0
-163 -95 -97 -119 -120 0
-170 -95 -98 -119 -120 0
-176 -95 -99 -119 -120 0
-163 -96 -97 -119 -121 0
-170 -96 -98 -119 -121 0
-176 -96 -99 -119 -121 0
-170 -97 -98 -119 -122 0
-176 -97 -99 -119 -122 0
-176 -98 -99 -119 -123 0
-163 -96 -97 -120 -121 0
-170 -96 -98 -120 -121 0
-176 -96 -99 -120 -121 0
-170 -97 -98 -120 -122 0
-176 -97 -99 -120 -122 0
-176 -98 -99 -120 -123 0
-170 -97 -98 -121 -122 0
-176 -97 -99 -121 -122 0
-176 -98 -99 -121 -123 0
-176 -98 -99 -122 -123 0
-163 -96 -97 -131 -132 0
-170 -96 -98 -131 -132 0
-176 -96 -99 -131 -132 0
-170 -97 -98 -131 -133 0
-176 -97 -99 -131 -133 0
-176 -98 -99 -131 -134 0
-170 -97 -98 -132 -133 0
-176 -97 -99 -132 -133 0
-176 -98 -99 -132 -134 0
-176 -98 -99 -133 -134 0
-170 -97 -98 -142 -143 0
-176 -97 -99 -142 -143 0
-176 -98 -99 -142 -144 0
-176 -98 -99 -143 -144 0
-176 -98 -99 -152 -153 0
-155 -108 -109 -119 -120 0
-163 -108 -110 -119 -120 0
-170 -108 -111 -119 -120 0
-176 -108 -112 -119 -120 0
-163 -109 -110 -119 -121 0
-170 -109 -111 -119 -121 0
-176 -109 -112 -119 -121 0
-170 -110 -111 -119 -122 0
-176 -110 -112 -119 -122 0
-176 -111 -112 -119 -123 0
-163 -109 -110 -120 -121 0
-170 -109 -111 -120 -121 0
-176 -109 -112 -120 -121 0
-170 -110 -111 -120 -122 0
-176 -110 -112 -120 -122 0
-176 -111 -112 -120 -123 0
-170 -110 -111 -121 -122 0
-176 -110 -112 -121 -122 0
-176 -111 -112 -121 -123 0
-176 -111 -112 -122 -123 0
-163 -109 -110 -131 -132 0
-170 -109 -111 -131 -132 0
-176 -109 -112 -131 -132 0
-170 -110 -111 -131 -133 0
-176 -110 -112 -131 -133 0
-176 -111 -112 -131 -134 0
-170 -110 -111 -132 -133 0
-176 -110 -112 -132 -133 0
-176 -111 -112 -132 -134 0
-176 -111 -112 -133 -134 0
-170 -110 -111 -142 -143 0
-176 -110 -112 -142 -143 0
-176 -111 -112 -142 -144 0
-176 -111 -112 -143 -144 0
-176 -111 -112 -152 -153 0
-163 -121 -122 -131 -132 0
-170 -121 -123 -131 -132 0
-176 -121 -124 -131 -132 0
-170 -122 -123 -131 -133 0
-176 -122 -124 -131 -133 0
-176 -123 -124 -131 -134 0
-170 -122 -123 -132 -133 0
-176 -122 -124 -132 -133 0
-176 -123 -124 -132 -134 0
-176 -123 -124 -133 -134 0
-170 -122 -123 -142 -143 0
-176 -122 -124 -142 -143 0
-176 -123 -124 -142 -144 0
-176 -123 -124 -143 -144 0
-176 -123 -124 -152 -153 0
-170 -133 -134 -142 -143 0
-176 -133 -135 -142 -143 0
-176 -134 -135 -142 -144 0
-176 -134 -135 -143 -144 0
-176 -134 -135 -152 -153 0
-176 -144 -145 -152 -153 0
-101 -193 -102 -194 -195 0
-114 -193 -115 -194 -195 0
-126 -193 -127 -194 -195 0
-137 -193 -138 -194 -195 0
-147 -193 -148 -194 -195 0
-156 -193 -157 -194 -195 0
-164 -193 -165 -194 -195 0
-171 -193 -172 -194 -195 0
-177 -193 -178 -194 -195 0
-182 -193 -183 -194 -195 0
-114 -102 -115 -194 -103 0
-126 -102 -127 -194 -103 0
-137 -102 -138 -194 -103 0
-147 -102 -148 -194 -103 0
-156 -102 -157 -194 -103 0
-164 -102 -165 -194 -103 0
-171 -102 -172 -194 -103 0
-177 -102 -178 -194 -103 0
-182 -102 -183 -194 -103 0
-126 -115 -127 -194 -116 0
-137 -115 -138 -194 -116 0
-147 -115 -148 -194 -116 0
-156 -115 -157 -194 -116 0
-164 -115 -165 -194 -116 0
-171 -115 -172 -194 -116 0
-177 -115 -178 -194 -116 0
-182 -115 -183 -194 -116 0
-137 -127 -138 -194 -128 0
-147 -127 -148 -194 -128 0
-156 -127 -157 -194 -128 0
-164 -127 -165 -194 -128 0
-171 -127 -172 -194 -128 0
-177 -127 -178 -194 -128 0
-182 -127 -183 -194 -128 0
-147 -138 -148 -194 -139 0
-156 -138 -157 -194 -139 0
-164 -138 -165 -194 -139 0
-171 -138 -172 -194 -139 0
-177 -138 -178 -194 -139 0
-182 -138 -183 -194 -139 0
-156 -148 -157 -194 -149 0
-164 -148 -165 -194 -149 0
-171 -148 -172 -194 -149 0
-177 -148 -178 -194 -149 0
-182 -148 -183 -194 -149 0
-164 -157 -165 -194 -158 0
-171 -157 -172 -194 -158 0
-177 -157 -178 -194 -158 0
-182 -157 -183 -194 -158 0
-171 -165 -172 -194 -166 0
-177 -165 -178 -194 -166 0
-182 -165 -183 -194 -166 0
-177 -172 -178 -194 -173 0
-182 -172 -183 -194 -173 0
-182 -178 -183 -194 -179 0
-114 -102 -115 -195 -103 0
-126 -102 -127 -195 -103 0
-137 -102 -138 -195 -103 0
-147 -102 -148 -195 -103 0
-156 -102 -157 -195 -103 0
-164 -102 -165 -195 -103 0
-171 -102 -172 -195 -103 0
-177 -102 -178 -195 -103 0
-182 -102 -183 -195 -103 0
-126 -115 -127 -195 -116 0
-137 -115 -138 -195 -116 0
-147 -115 -148 -195 -116 0
-156 -115 -157 -195 -116 0
-164 -115 -165 -195 -116 0
-171 -115 -172 -195 -116 0
-177 -115 -178 -195 -116 0
-182 -115 -183 -195 -116 0
-137 -127 -138 -195 -128 0
-147 -127 -148 -195 -128 0
-156 -127 -157 -195 -128 0
-164 -127 -165 -195 -128 0
-171 -127 -172 -195 -128 0
-177 -127 -178 -195 -128 0
-182 -127 -183 -195 -128 0
-147 -138 -148 -195 -139 0
-156 -138 -157 -195 -139 0
-164 -138 -165 -195 -139 0
-171 -138 -172 -195 -139 0
-177 -138 -178 -195 -139 0
-182 -138 -183 -195 -139 0
-156 -148 -157 -195 -149 0
-164 -148 -165 -195 -149 0
-171 -148 -172 -195 -149 0
-177 -148 -178 -195 -149 0
-182 -148 -183 -195 -149 0
-164 -157 -165 -195 -158 0
-171 -157 -172 -195 -158 0
-177 -157 -178 -195 -158 0
-182 -157 -183 -195 -158 0
-171 -165 -172 -195 -166 0
-177 -165 -178 -195 -166 0
-182 -165 -183 -195 -166 0
-177 -172 -178 -195 -173 0
-182 -172 -183 -195 -173 0
-182 -178 -183 -195 -179 0
-126 -115 -127 -103 -116 0
-137 -115 -138 -103 -116 0
-147 -115 -148 -103 -116 0
-156 -115 -157 -103 -116 0
-164 -115 -165 -103 -116 0
-171 -115 -172 -103 -116 0
-177 -115 -178 -103 -116 0
-182 -115 -183 -103 -116 0
-137 -127 -138 -103 -128 0
-147 -127 -148 -103 -128 0
-156 -127 -157 -103 -128 0
-164 -127 -165 -103 -128 0
-171 -127 -172 -103 -128 0
-177 -127 -178 -103 -128 0
-182 -127 -183 -103 -128 0
-147 -138 -148 -103 -139 0
-156 -138 -157 -103 -139 0
-164 -138 -165 -103 -139 0
-171 -138 -172 -103 -139 0
-177 -138 -178 -103 -139 0
-182 -138 -183 -103 -139 0
-156 -148 -157 -103 -149 0
-164 -148 -165 -103 -149 0
-171 -148 -172 -103 -149 0
-177 -148 -178 -103 -149 0
-182 -148 -183 -103 -149 0
-164 -157 -165 -103 -158 0
-171 -157 -172 -103 -158 0
-177 -157 -178 -103 -158 0
-182 -157 -183 -103 -158 0
-171 -165 -172 -103 -166 0
-177 -165 -178 -103 -166 0
-182 -165 -183 -103 -166 0
-177 -172 -178 -103 -173 0
-182 -172 -183 -103 -173 0
-182 -178 -183 -103 -179 0
-137 -127 -138 -116 -128 0
-147 -127 -148 -116 -128 0
-156 -127 -157 -116 -128 0
-164 -127 -165 -116 -128 0
-171 -127 -172 -116 -128 0
-177 -127 -178 -116 -128 0
-182 -127 -183 -116 -128 0
-147 -138 -148 -116 -139 0
-156 -138 -157 -116 -139 0
-164 -138 -165 -116 -139 0
-171 -138 -172 -116 -139 0
-177 -138 -178 -116 -139 0
-182 -138 -183 -116 -139 0
-156 -148 -157 -116 -149 0
-164 -148 -165 -116 -149 0
-171 -148 -172 -116 -149 0
-177 -148 -178 -116 -149 0
-182 -148 -183 -116 -149 0
-164 -157 -165 -116 -158 0
-171 -157 -172 -116 -158 0
-177 -157 -178 -116 -158 0
-182 -157 -183 -116 -158 0
-171 -165 -172 -116 -166 0
-177 -165 -178 -116 -166 0
-182 -165 -183 -116 -166 0
-177 -172 -178 -116 -173 0
-182 -172 -183 -116 -173 0
-182 -178 -183 -116 -179 0
-147 -138 -148 -128 -139 0
-156 -138 -157 -128 -139 0
-164 -138 -165 -128 -139 0
-171 -138 -172 -128 -139 0
-177 -138 -178 -128 -139 0
-182 -138 -183 -128 -139 0
-156 -148 -157 -128 -149 0
-164 -148 -165 -128 -149 0
-171 -148 -172 -128 -149 0
-177 -148 -178 -128 -149 0
-182 -148 -183 -128 -149 0
-164 -157 -165 -128 -158 0
-171 -157 -172 -128 -158 0
-177 -157 -178 -128 -158 0
-182 -157 -183 -128 -158 0
-171 -165 -172 -128 -166 0
-177 -165 -178 -128 -166 0
-182 -165 -183 -128 -166 0
-177 -172 -178 -128 -173 0
-182 -172 -183 -128 -173 0
-182 -178 -183 -128 -179 0
-156 -148 -157 -139 -149 0
-164 -148 -165 -139 -149 0
-171 -148 -172 -139 -149 0
-177 -148 -178 -139 -149 0
-182 -148 -183 -139 -149 0
-164 -157 -165 -139 -158 0
-171 -157 -172 -139 -158 0
-177 -157 -178 -139 -158 0
-182 -157 -183 -139 -158 0
-171 -165 -172 -139 -166 0
-177 -165 -178 -139 -166 0
-182 -165 -183 -139 -166 0
-177 -172 -178 -139 -173 0
-182 -172 -183 -139 -173 0
-182 -178 -183 -139 -179 0
-164 -157 -165 -149 -158 0
-171 -157 -172 -149 -158 0
-177 -157 -178 -149 -158 0
-182 -157 -183 -149 -158 0
-171 -165 -172 -149 -166 0
-177 -165 -178 -149 -166 0
-182 -165 -183 -149 -166 0
-177 -172 -178 -149 -173 0
-182 -172 -183 -149 -173 0
-182 -178 -183 -149 -179 0
-171 -165 -172 -158 -166 0
-177 -165 -178 -158 -166 0
-182 -165 -183 -158 -166 0
-177 -172 -178 -158 -173 0
-182 -172 -183 -158 -173 0
-182 -178 -183 -158 -179 0
-177 -172 -178 -166 -173 0
-182 -172 -183 -166 -173 0
-182 -178 -183 -166 -179 0
-182 -178 -183 -173 -179 0
-114 -102 -115 -196 -104 0
-126 -102 -127 -196 -104 0
-137 -102 -138 -196 -104 0
-147 -102 -148 -196 -104 0
-156 -102 -157 -196 -104 0
-164 -102 -165 -196 -104 0
-171 -102 -172 -196 -104 0
-177 -102 -178 -196 -104 0
-182 -102 -183 -196 -104 0
-126 -115 -127 -196 -117 0
-137 -115 -138 -196 -117 0
-147 -115 -148 -196 -117 0
-156 -115 -157 -196 -117 0
-164 -115 -165 -196 -117 0
-171 -115 -172 -196 -117 0
-177 -115 -178 -196 -117 0
-182 -115 -183 -196 -117 0
-137 -127 -138 -196 -129 0
-147 -127 -148 -196 -129 0
-156 -127 -157 -196 -129 0
-164 -127 -165 -196 -129 0
-171 -127 -172 -196 -129 0
-177 -127 -178 -196 -129 0
-182 -127 -183 -196 -129 0
-147 -138 -148 -196 -140 0
-156 -138 -157 -196 -140 0
-164 -138 -165 -196 -140 0
-171 -138 -172 -196 -140 0
-177 -138 -178 -196 -140 0
-182 -138 -183 -196 -140 0
-156 -148 -157 -196 -150 0
-164 -148 -165 -196 -150 0
-171 -148 -172 -196 -150 0
-177 -148 -178 -196 -150 0
-182 -148 -183 -196 -150 0
-164 -157 -165 -196 -159 0
-171 -157 -172 -196 -159 0
-177 -157 -178 -196 -159 0
-182 -157 -183 -196 -159 0
-171 -165 -172 -196 -167 0
-177 -165 -178 -196 -167 0
-182 -165 -183 -196 -167 0
-177 -172 -178 -196 -174 0
-182 -172 -183 -196 -174 0
-182 -178 -183 -196 -180 0
-126 -115 -127 -104 -117 0
-137 -115 -138 -104 -117 0
-147 -115 -148 -104 -117 0
-156 -115 -157 -104 -117 0
-164 -115 -165 -104 -117 0
-171 -115 -172 -104 -117 0
-177 -115 -178 -104 -117 0
-182 -115 -183 -104 -117 0
-137 -127 -138 -104 -129 0
-147 -127 -148 -104 -129 0
-156 -127 -157 -104 -129 0
-164 -127 -165 -104 -129 0
-171 -127 -172 -104 -129 0
-177 -127 -178 -104 -129 0
-182 -127 -183 -104 -129 0
-147 -138 -148 -104 -140 0
-156 -138 -157 -104 -140 0
-164 -138 -165 -104 -140 0
-171 -138 -172 -104 -140 0
-177 -138 -178 -104 -140 0
-182 -138 -183 -104 -140 0
-156 -148 -157 -104 -150 0
-164 -148 -165 -104 -150 0
-171 -148 -172 -104 -150 0
-177 -148 -178 -104 -150 0
-182 -148 -183 -104 -150 0
-164 -157 -165 -104 -159 0
-171 -157 -172 -104 -159 0
-177 -157 -178 -104 -159 0
-182 -157 -183 -104 -159 0
-171 -165 -172 -104 -167 0
-177 -165 -178 -104 -167 0
-182 -165 -183 -104 -167 0
-177 -172 -178 -104 -174 0
-182 -172 -183 -104 -174 0
-182 -178 -183 -104 -180 0
-137 -127 -138 -117 -129 0
-147 -127 -148 -117 -129 0
-156 -127 -157 -117 -129 0
-164 -127 -165 -117 -129 0
-171 -127 -172 -117 -129 0
-177 -127 -178 -117 -129 0
-182 -127 -183 -117 -129 0
-147 -138 -148 -117 -140 0
-156 -138 -157 -117 -140 0
-164 -138 -165 -117 -140 0
-171 -138 -172 -117 -140 0
-177 -138 -178 -117 -140 0
-182 -138 -183 -117 -140 0
-156 -148 -157 -117 -150 0
-164 -148 -165 -117 -150 0
-171 -148 -172 -117 -150 0
-177 -148 -178 -117 -150 0
-182 -148 -183 -117 -150 0
-164 -157 -165 -117 -159 0
-171 -157 -172 -117 -159 0
-177 -157 -178 -117 -159 0
-182 -157 -183 -117 -159 0
-171 -165 -172 -117 -167 0
-177 -165 -178 -117 -167 0
-182 -165 -183 -117 -167 0
-177 -172 -178 -117 -174 0
-182 -172 -183 -117 -174 0
-182 -178 -183 -117 -180 0
-147 -138 -148 -129 -140 0
-156 -138 -157 -129 -140 0
-164 -138 -165 -129 -140 0
-171 -138 -172 -129 -140 0
-177 -138 -178 -129 -140 0
-182 -138 -183 -129 -140 0
-156 -148 -157 -129 -150 0
-164 -148 -165 -129 -150 0
-171 -148 -172 -129 -150 0
-177 -148 -178 -129 -150 0
-182 -148 -183 -129 -150 0
-164 -157 -165 -129 -159 0
-171 -157 -172 -129 -159 0
-177 -157 -178 -129 -159 0
-182 -157 -183 -129 -159 0
-171 -165 -172 -129 -167 0
-177 -165 -178 -129 -167 0
-182 -165 -183 -129 -167 0
-177 -172 -178 -129 -174 0
-182 -172 -183 -129 -174 0
-182 -178 -183 -129 -180 0
-156 -148 -157 -140 -150 0
-164 -148 -165 -140 -150 0
-171 -148 -172 -140 -150 0
-177 -148 -178 -140 -150 0
-182 -148 -183 -140 -150 0
-164 -157 -165 -140 -159 0
-171 -157 -172 -140 -159 0
-177 -157 -178 -140 -159 0
-182 -157 -183 -140 -159 0
-171 -165 -172 -140 -167 0
-177 -165 -178 -140 -167 0
-182 -165 -183 -140 -167 0
-177 -172 -178 -140 -174 0
-182 -172 -183 -140 -174 0
-182 -178 -183 -140 -180 0
-164 -157 -165 -150 -159 0
-171 -157 -172 -150 -159 0
-177 -157 -178 -150 -159 0
-182 -157 -183 -150 -159 0
-171 -165 -172 -150 -167 0
-177 -165 -178 -150 -167 0
-182 -165 -183 -150 -167 0
-177 -172 -178 -150 -174 0
-182 -172 -183 -150 -174 0
-182 -178 -183 -150 -180 0
-171 -165 -172 -159 -167 0
-177 -165 -178 -159 -167 0
-182 -165 -183 -159 -167 0
-177 -172 -178 -159 -174 0
-182 -172 -183 -159 -174 0
-182 -178 -183 -159 -180 0
-177 -172 -178 -167 -174 0
-182 -172 -183 -167 -174 0
-182 -178 -183 -167 -180 0
-182 -178 -183 -174 -180 0
-126 -115 -127 -105 -118 0
-137 -115 -138 -105 -118 0
-147 -115 -148 -105 -118 0
-156 -115 -157 -105 -118 0
-164 -115 -165 -105 -118 0
-171 -115 -172 -105 -118 0
-177 -115 -178 -105 -118 0
-182 -115 -183 -105 -118 0
-137 -127 -138 -105 -130 0
-147 -127 -148 -105 -130 0
-156 -127 -157 -105 -130 0
-164 -127 -165 -105 -130 0
-171 -127 -172 -105 -130 0
-177 -127 -178 -105 -130 0
-182 -127 -183 -105 -130 0
-147 -138 -148 -105 -141 0
-156 -138 -157 -105 -141 0
-164 -138 -165 -105 -141 0
-171 -138 -172 -105 -141 0
-177 -138 -178 -105 -141 0
-182 -138 -183 -105 -141 0
-156 -148 -157 -105 -151 0
-164 -148 -165 -105 -151 0
-171 -148 -172 -105 -151 0
-177 -148 -178 -105 -151 0
-182 -148 -183 -105 -151 0
-164 -157 -165 -105 -160 0
-171 -157 -172 -105 -160 0
-177 -157 -178 -105 -160 0
-182 -157 -183 -105 -160 0
-171 -165 -172 -105 -168 0
-177 -165 -178 -105 -168 0
-182 -165 -183 -105 -168 0
-177 -172 -178 -105 -175 0
-182 -172 -183 -105 -175 0
-182 -178 -183 -105 -181 0
-137 -127 -138 -118 -130 0
-147 -127 -148 -118 -130 0
-156 -127 -157 -118 -130 0
-164 -127 -165 -118 -130 0
-171 -127 -172 -118 -130 0
-177 -127 -178 -118 -130 0
-182 -127 -183 -118 -130 0
-147 -138 -148 -118 -141 0
-156 -138 -157 -118 -141 0
-164 -138 -165 -118 -141 0
-171 -138 -172 -118 -141 0
-177 -138 -178 -118 -141 0
-182 -138 -183 -118 -141 0
-156 -148 -157 -118 -151 0
-164 -148 -165 -118 -151 0
-171 -148 -172 -118 -151 0
-177 -148 -178 -118 -151 0
-182 -148 -183 -118 -151 0
-164 -157 -165 -118 -160 0
-171 -157 -172 -118 -160 0
-177 -157 -178 -118 -160 0
-182 -157 -183 -118 -160 0
-171 -165 -172 -118 -168 0
-177 -165 -178 -118 -168 0
-182 -165 -183 -118 -168 0
-177 -172 -178 -118 -175 0
-182 -172 -183 -118 -175 0
-182 -178 -183 -118 -181 0
-147 -138 -148 -130 -141 0
-156 -138 -157 -130 -141 0
-164 -138 -165 -130 -141 0
-171 -138 -172 -130 -141 0
-177 -138 -178 -130 -141 0
-182 -138 -183 -130 -141 0
-156 -148 -157 -130 -151 0
-164 -148 -165 -130 -151 0
-171 -148 -172 -130 -151 0
-177 -148 -178 -130 -151 0
-182 -148 -183 -130 -151 0
-164 -157 -165 -130 -160 0
-171 -157 -172 -130 -160 0
-177 -157 -178 -130 -160 0
-182 -157 -183 -130 -160 0
-171 -165 -172 -130 -168 0
-177 -165 -178 -130 -168 0
-182 -165 -183 -130 -168 0
-177 -172 -178 -130 -175 0
-182 -172 -183 -130 -175 0
-182 -178 -183 -130 -181 0
-156 -148 -157 -141 -151 0
-164 -148 -165 -141 -151 0
-171 -148 -172 -141 -151 0
-177 -148 -178 -141 -151 0
-182 -148 -183 -141 -151 0
-164 -157 -165 -141 -160 0
-171 -157 -172 -141 -160 0
-177 -157 -178 -141 -160 0
-182 -157 -183 -141 -160 0
-171 -165 -172 -141 -168 0
-177 -165 -178 -141 -168 0
-182 -165 -183 -141 -168 0
-177 -172 -178 -141 -175 0
-182 -172 -183 -141 -175 0
-182 -178 -183 -141 -181 0
-164 -157 -165 -151 -160 0
-171 -157 -172 -151 -160 0
-177 -157 -178 -151 -160 0
-182 -157 -183 -151 -160 0
-171 -165 -172 -151 -168 0
-177 -165 -178 -151 -168 0
-182 -165 -183 -151 -168 0
-177 -172 -178 -151 -175 0
-182 -172 -183 -151 -175 0
-182 -178 -183 -151 -181 0
-171 -165 -172 -160 -168 0
-177 -165 -178 -160 -168 0
-182 -165 -183 -160 -168 0
-177 -172 -178 -160 -175 0
-182 -172 -183 -160 -175 0
-182 -178 -183 -160 -181 0
-177 -172 -178 -168 -175 0
-182 -172 -183 -168 -175 0
-182 -178 -183 -168 -181 0
-182 -178 -183 -175 -181 0
-137 -127 -138 -92 -93 0
-147 -127 -148 -92 -93 0
-156 -127 -157 -92 -93 0
-164 -127 -165 -92 -93 0
-171 -127 -172 -92 -93 0
-177 -127 -178 -92 -93 0
-182 -127 -183 -92 -93 0
-147 -138 -148 -92 -94 0
-156 -138 -157 -92 -94 0
-164 -138 -165 -92 -94 0
-171 -138 -172 -92 -94 0
-177 -138 -178 -92 -94 0
-182 -138 -183 -92 -94 0
-156 -148 -157 -92 -95 0
-164 -148 -165 -92 -95 0
-171 -148 -172 -92 -95 0
-177 -148 -178 -92 -95 0
-182 -148 -183 -92 -95 0
-164 -157 -165 -92 -96 0
-171 -157 -172 -92 -96 0
-177 -157 -178 -92 -96 0
-182 -157 -183 -92 -96 0
-171 -165 -172 -92 -97 0
-177 -165 -178 -92 -97 0
-182 -165 -183 -92 -97 0
-177 -172 -178 -92 -98 0
-182 -172 -183 -92 -98 0
-182 -178 -183 -92 -99 0
-147 -138 -148 -93 -94 0
-156 -138 -157 -93 -94 0
-164 -138 -165 -93 -94 0
-171 -138 -172 -93 -94 0
-177 -138 -178 -93 -94 0
-182 -138 -183 -93 -94 0
-156 -148 -157 -93 -95 0
-164 -148 -165 -93 -95 0
-171 -148 -172 -93 -95 0
-177 -148 -178 -93 -95 0
-182 -148 -183 -93 -95 0
-164 -157 -165 -93 -96 0
-171 -157 -172 -93 -96 0
-177 -157 -178 -93 -96 0
-182 -157 -183 -93 -96 0
-171 -165 -172 -93 -97 0
-177 -165 -178 -93 -97 0
-182 -165 -183 -93 -97 0
-177 -172 -178 -93 -98 0
-182 -172 -183 -93 -98 0
-182 -178 -183 -93 -99 0
-156 -148 -157 -94 -95 0
-164 -148 -165 -94 -95 0
-171 -148 -172 -94 -95 0
-177 -148 -178 -94 -95 0
-182 -148 -183 -94 -95 0
-164 -157 -165 -94 -96 0
-171 -157 -172 -94 -96 0
-177 -157 -178 -94 -96 0
-182 -157 -183 -94 -96 0
-171 -165 -172 -94 -97 0
-177 -165 -178 -94 -97 0
-182 -165 -183 -94 -97 0
-177 -172 -178 -94 -98 0
-182 -172 -183 -94 -98 0
-182 -178 -183 -94 -99 0
-164 -157 -165 -95 -96 0
-171 -157 -172 -95 -96 0
-177 -157 -178 -95 -96 0
-182 -157 -183 -95 -96 0
-171 -165 -172 -95 -97 0
-177 -165 -178 -95 -97 0
-182 -165 -183 -95 -97 0
-177 -172 -178 -95 -98 0
-182 -172 -183 -95 -98 0
-182 -178 -183 -95 -99 0
-171 -165 -172 -96 -97 0
-177 -165 -178 -96 -97 0
-182 -165 -183 -96 -97 0
-177 -172 -178 -96 -98 0
-182 -172 -183 -96 -98 0
-182 -178 -183 -96 -99 0
-177 -172 -178 -97 -98 0
-182 -172 -183 -97 -98 0
-182 -178 -183 -97 -99 0
-182 -178 -183 -98 -99 0
-147 -138 -148 -106 -107 0
-156 -138 -157 -106 -107 0
-164 -138 -165 -106 -107 0
-171 -138 -172 -106 -107 0
-177 -138 -178 -106 -107 0
-182 -138 -183 -106 -107 0
-156 -148 -157 -106 -108 0
-164 -148 -165 -106 -108 0
-171 -148 -172 -106 -108 0
-177 -148 -178 -106 -108 0
-182 -148 -183 -106 -108 0
-164 -157 -165 -106 -109 0
-171 -157 -172 -106 -109 0
-177 -157 -178 -106 -109 0
-182 -157 -183 -106 -109 0
-171 -165 -172 -106 -110 0
-177 -165 -178 -106 -110 0
-182 -165 -183 -106 -110 0
-177 -172 -178 -106 -111 0
-182 -172 -183 -106 -111 0
-182 -178 -183 -106 -112 0
-156 -148 -157 -107 -108 0
-164 -148 -165 -107 -108 0
-171 -148 -172 -107 -108 0
-177 -148 -178 -107 -108 0
-182 -148 -183 -107 -108 0
-164 -157 -165 -107 -109 0
-171 -157 -172 -107 -109 0
-177 -157 -178 -107 -109 0
-182 -157 -183 -107 -109 0
-171 -165 -172 -107 -110 0
-177 -165 -178 -107 -110 0
-182 -165 -183 -107 -110 0
-177 -172 -178 -107 -111 0
-182 -172 -183 -107 -111 0
-182 -178 -183 -107 -112 0
-164 -157 -165 -108 -109 0
-171 -157 -172 -108 -109 0
-177 -157 -178 -108 -109 0
-182 -157 -183 -108 -109 0
-171 -165 -172 -108 -110 0
-177 -165 -178 -108 -110 0
-182 -165 -183 -108 -110 0
-177 -172 -178 -108 -111 0
-182 -172 -183 -108 -111 0
-182 -178 -183 -108 -112 0
-171 -165 -172 -109 -110 0
-177 -165 -178 -109 -110 0
-182 -165 -183 -109 -110 0
-177 -172 -178 -109 -111 0
-182 -172 -183 -109 -111 0
-182 -178 -183 -109 -112 0
-177 -172 -178 -110 -111 0
-182 -172 -183 -110 -111 0
-182 -178 -183 -110 -112 0
-182 -178 -183 -111 -112 0
-156 -148 -157 -119 -120 0
-164 -148 -165 -119 -120 0
-171 -148 -172 -119 -120 0
-177 -148 -178 -119 -120 0
-182 -148 -183 -119 -120 0
-164 -157 -165 -119 -121 0
-171 -157 -172 -119 -121 0
-177 -157 -178 -119 -121 0
-182 -157 -183 -119 -121 0
-171 -165 -172 -119 -122 0
-177 -165 -178 -119 -122 0
-182 -165 -183 -119 -122 0
-177 -172 -178 -119 -123 0
-182 -172 -183 -119 -123 0
-182 -178 -183 -119 -124 0
-164 -157 -165 -120 -121 0
-171 -157 -172 -120 -121 0
-177 -157 -178 -120 -121 0
-182 -157 -183 -120 -121 0
-171 -165 -172 -120 -122 0
-177 -165 -178 -120 -122 0
-182 -165 -183 -120 -122 0
-177 -172 -178 -120 -123 0
-182 -172 -183 -120 -123 0
-182 -178 -183 -120 -124 0
-171 -165 -172 -121 -122 0
-177 -165 -178 -121 -122 0
-182 -165 -183 -121 -122 0
-177 -172 -178 -121 -123 0
-182 -172 -183 -121 -123 0
-182 -178 -183 -121 -124 0
-177 -172 -178 -122 -123 0
-182 -172 -183 -122 -123 0
-182 -178 -183 -122 -124 0
-182 -178 -183 -123 -124 0
-164 -157 -165 -131 -132 0
-171 -157 -172 -131 -132 0
-177 -157 -178 -131 -132 0
-182 -157 -183 -131 -132 0
-171 -165 -172 -131 -133 0
-177 -165 -178 -131 -133 0
-182 -165 -183 -131 -133 0
-177 -172 -178 -131 -134 0
-182 -172 -183 -131 -134 0
-182 -178 -183 -131 -135 0
-171 -165 -172 -132 -133 0
-177 -165 -178 -132 -133 0
-182 -165 -183 -132 -133 0
-177 -172 -178 -132 -134 0
-182 -172 -183 -132 -134 0
-182 -178 -183 -132 -135 0
-177 -172 -178 -133 -134 0
-182 -172 -183 -133 -134 0
-182 -178 -183 -133 -135 0
-182 -178 -183 -134 -135 0
-171 -165 -172 -142 -143 0
-177 -165 -178 -142 -143 0
-182 -165 -183 -142 -143 0
-177 -172 -178 -142 -144 0
-182 -172 -183 -142 -144 0
-182 -178 -183 -142 -145 0
-177 -172 -178 -143 -144 0
-182 -172 -183 -143 -144 0
-182 -178 -183 -143 -145 0
-182 -178 -183 -144 -145 0
-177 -172 -178 -152 -153 0
-182 -172 -183 -152 -153 0
-182 -178 -183 -152 -154 0
-182 -178 -183 -153 -154 0
-182 -178 -183 -161 -162 0
-114 -103 -116 -196 -104 0
-126 -103 -128 -196 -104 0
-137 -103 -139 -196 -104 0
-147 -103 -149 -196 -104 0
-156 -103 -158 -196 -104 0
-164 -103 -166 -196 -104 0
-171 -103 -173 -196 -104 0
-177 -103 -179 -196 -104 0
-182 -103 -184 -196 -104 0
-126 -116 -128 -196 -117 0
-137 -116 -139 -196 -117 0
-147 -116 -149 -196 -117 0
-156 -116 -158 -196 -117 0
-164 -116 -166 -196 -117 0
-171 -116 -173 -196 -117 0
-177 -116 -179 -196 -117 0
-182 -116 -184 -196 -117 0
-137 -128 -139 -196 -129 0
-147 -128 -149 -196 -129 0
-156 -128 -158 -196 -129 0
-164 -128 -166 -196 -129 0
-171 -128 -173 -196 -129 0
-177 -128 -179 -196 -129 0
-182 -128 -184 -196 -129 0
-147 -139 -149 -196 -140 0
-156 -139 -158 -196 -140 0
-164 -139 -166 -196 -140 0
-171 -139 -173 -196 -140 0
-177 -139 -179 -196 -140 0
-182 -139 -184 -196 -140 0
-156 -149 -158 -196 -150 0
-164 -149 -166 -196 -150 0
-171 -149 -173 -196 -150 0
-177 -149 -179 -196 -150 0
-182 -149 -184 -196 -150 0
-164 -158 -166 -196 -159 0
-171 -158 -173 -196 -159 0
-177 -158 -179 -196 -159 0
-182 -158 -184 -196 -159 0
-171 -166 -173 -196 -167 0
-177 -166 -179 -196 -167 0
-182 -166 -184 -196 -167 0
-177 -173 -179 -196 -174 0
-182 -173 -184 -196 -174 0
-182 -179 -184 -196 -180 0
-126 -116 -128 -104 -117 0
-137 -116 -139 -104 -117 0
-147 -116 -149 -104 -117 0
-156 -116 -158 -104 -117 0
-164 -116 -166 -104 -117 0
-171 -116 -173 -104 -117 0
-177 -116 -179 -104 -117 0
-182 -116 -184 -104 -117 0
-137 -128 -139 -104 -129 0
-147 -128 -149 -104 -129 0
-156 -128 -158 -104 -129 0
-164 -128 -166 -104 -129 0
-171 -128 -173 -104 -129 0
-177 -128 -179 -104 -129 0
-182 -128 -184 -104 -129 0
-147 -139 -149 -104 -140 0
-156 -139 -158 -104 -140 0
-164 -139 -166 -104 -140 0
-171 -139 -173 -104 -140 0
-177 -139 -179 -104 -140 0
-182 -139 -184 -104 -140 0
-156 -149 -158 -104 -150 0
-164 -149 -166 -104 -150 0
-171 -149 -173 -104 -150 0
-177 -149 -179 -104 -150 0
-182 -149 -184 -104 -150 0
-164 -158 -166 -104 -159 0
-171 -158 -173 -104 -159 0
-177 -158 -179 -104 -159 0
-182 -158 -184 -104 -159 0
-171 -166 -173 -104 -167 0
-177 -166 -179 -104 -167 0
-182 -166 -184 -104 -167 0
-177 -173 -179 -104 -174 0
-182 -173 -184 -104 -174 0
-182 -179 -184 -104 -180 0
-137 -128 -139 -117 -129 0
-147 -128 -149 -117 -129 0
-156 -128 -158 -117 -129 0
-164 -128 -166 -117 -129 0
-171 -128 -173 -117 -129 0
-177 -128 -179 -117 -129 0
-182 -128 -184 -117 -129 0
-147 -139 -149 -117 -140 0
-156 -139 -158 -117 -140 0
-164 -139 -166 -117 -140 0
-171 -139 -173 -117 -140 0
-177 -139 -179 -117 -140 0
-182 -139 -184 -117 -140 0
-156 -149 -158 -117 -150 0
-164 -149 -166 -117 -150 0
-171 -149 -173 -117 -150 0
-177 -149 -179 -117 -150 0
-182 -149 -184 -117 -150 0
-164 -158 -166 -117 -159 0
-171 -158 -173 -117 -159 0
-177 -158 -179 -117 -159 0
-182 -158 -184 -117 -159 0
-171 -166 -173 -117 -167 0
-177 -166 -179 -117 -167 0
-182 -166 -184 -117 -167 0
-177 -173 -179 -117 -174 0
-182 -173 -184 -117 -174 0
-182 -179 -184 -117 -180 0
-147 -139 -149 -129 -140 0
-156 -139 -158 -129 -140 0
-164 -139 -166 -129 -140 0
-171 -139 -173 -129 -140 0
-177 -139 -179 -129 -140 0
-182 -139 -184 -129 -140 0
-156 -149 -158 -129 -150 0
-164 -149 -166 -129 -150 0
-171 -149 -173 -129 -150 0
-177 -149 -179 -129 -150 0
-182 -149 -184 -129 -150 0
-164 -158 -166 -129 -159 0
-171 -158 -173 -129 -159 0
-177 -158 -179 -129 -159 0
-182 -158 -184 -129 -159 0
-171 -166 -173 -129 -167 0
-177 -166 -179 -129 -167 0
-182 -166 -184 -129 -167 0
-177 -173 -179 -129 -174 0
-182 -173 -184 -129 -174 0
-182 -179 -184 -129 -180 0
-156 -149 -158 -140 -150 0
-164 -149 -166 -140 -150 0
-171 -149 -173 -140 -150 0
-177 -149 -179 -140 -150 0
-182 -149 -184 -140 -150 0
-164 -158 -166 -140 -159 0
-171 -158 -173 -140 -159 0
-177 -158 -179 -140 -159 0
-182 -158 -184 -140 -159 0
-171 -166 -173 -140 -167 0
-177 -166 -179 -140 -167 0
-182 -166 -184 -140 -167 0
-177 -173 -179 -140 -174 0
-182 -173 -184 -140 -174 0
-182 -179 -184 -140 -180 0
-164 -158 -166 -150 -159 0
-171 -158 -173 -150 -159 0
-177 -158 -179 -150 -159 0
-182 -158 -184 -150 -159 0
-171 -166 -173 -150 -167 0
-177 -166 -179 -150 -167 0
-182 -166 -184 -150 -167 0
-177 -173 -179 -150 -174 0
-182 -173 -184 -150 -174 0
-182 -179 -184 -150 -180 0
-171 -166 -173 -159 -167 0
-177 -166 -179 -159 -167 0
-182 -166 -184 -159 -167 0
-177 -173 -179 -159 -174 0
-182 -173 -184 -159 -174 0
-182 -179 -184 -159 -180 0
-177 -173 -179 -167 -174 0
-182 -173 -184 -167 -174 0
-182 -179 -184 -167 -180 0
-182 -179 -184 -174 -180 0
-126 -116 -128 -105 -118 0
-137 -116 -139 -105 -118 0
-147 -116 -149 -105 -118 0
-156 -116 -158 -105 -118 0
-164 -116 -166 -105 -118 0
-171 -116 -173 -105 -118 0
-177 -116 -179 -105 -118 0
-182 -116 -184 -105 -118 0
-137 -128 -139 -105 -130 0
-147 -128 -149 -105 -130 0
-156 -128 -158 -105 -130 0
-164 -128 -166 -105 -130 0
-171 -128 -173 -105 -130 0
-177 -128 -179 -105 -130 0
-182 -128 -184 -105 -130 0
-147 -139 -149 -105 -141 0
-156 -139 -158 -105 -141 0
-164 -139 -166 -105 -141 0
-171 -139 -173 -105 -141 0
-177 -139 -179 -105 -141 0
-182 -139 -184 -105 -141 0
-156 -149 -158 -105 -151 0
-164 -149 -166 -105 -151 0
-171 -149 -173 -105 -151 0
-177 -149 -179 -105 -151 0
-182 -149 -184 -105 -151 0
-164 -158 -166 -105 -160 0
-171 -158 -173 -105 -160 0
-177 -158 -179 -105 -160 0
-182 -158 -184 -105 -160 0
-171 -166 -173 -105 -168 0
-177 -166 -179 -105 -168 0
-182 -166 -184 -105 -168 0
-177 -173 -179 -105 -175 0
-182 -173 -184 -105 -175 0
-182 -179 -184 -105 -181 0
-137 -128 -139 -118 -130 0
-147 -128 -149 -118 -130 0
-156 -128 -158 -118 -130 0
-164 -128 -166 -118 -130 0
-171 -128 -173 -118 -130 0
-177 -128 -179 -118 -130 0
-182 -128 -184 -118 -130 0
-147 -139 -149 -118 -141 0
-156 -139 -158 -118 -141 0
-164 -139 -166 -118 -141 0
-171 -139 -173 -118 -141 0
-177 -139 -179 -118 -141 0
-182 -139 -184 -118 -141 0
-156 -149 -158 -118 -151 0
-164 -149 -166 -118 -151 0
-171 -149 -173 -118 -151 0
-177 -149 -179 -118 -151 0
-182 -149 -184 -118 -151 0
-164 -158 -166 -118 -160 0
-171 -158 -173 -118 -160 0
-177 -158 -179 -118 -160 0
-182 -158 -184 -118 -160 0
-171 -166 -173 -118 -168 0
-177 -166 -179 -118 -168 0
-182 -166 -184 -118 -168 0
-177 -173 -179 -118 -175 0
-182 -173 -184 -118 -175 0
-182 -179 -184 -118 -181 0
-147 -139 -149 -130 -141 0
-156 -139 -158 -130 -141 0
-164 -139 -166 -130 -141 0
-171 -139 -173 -130 -141 0
-177 -139 -179 -130 -141 0
-182 -139 -184 -130 -141 0
-156 -149 -158 -130 -151 0
-164 -149 -166 -130 -151 0
-171 -149 -173 -130 -151 0
-177 -149 -179 -130 -151 0
-182 -149 -184 -130 -151 0
-164 -158 -166 -130 -160 0
-171 -158 -173 -130 -160 0
-177 -158 -179 -130 -160 0
-182 -158 -184 -130 -160 0
-171 -166 -173 -130 -168 0
-177 -166 -179 -130 -168 0
-182 -166 -184 -130 -168 0
-177 -173 -179 -130 -175 0
-182 -173 -184 -130 -175 0
-182 -179 -184 -130 -181 0
-156 -149 -158 -141 -151 0
-164 -149 -166 -141 -151 0
-171 -149 -173 -141 -151 0
-177 -149 -179 -141 -151 0
-182 -149 -184 -141 -151 0
-164 -158 -166 -141 -160 0
-171 -158 -173 -141 -160 0
-177 -158 -179 -141 -160 0
-182 -158 -184 -141 -160 0
-171 -166 -173 -141 -168 0
-177 -166 -179 -141 -168 0
-182 -166 -184 -141 -168 0
-177 -173 -179 -141 -175 0
-182 -173 -184 -141 -175 0
-182 -179 -184 -141 -181 0
-164 -158 -166 -151 -160 0
-171 -158 -173 -151 -160 0
-177 -158 -179 -151 -160 0
-182 -158 -184 -151 -160 0
-171 -166 -173 -151 -168 0
-177 -166 -179 -151 -168 0
-182 -166 -184 -151 -168 0
-177 -173 -179 -151 -175 0
-182 -173 -184 -151 -175 0
-182 -179 -184 -151 -181 0
-171 -166 -173 -160 -168 0
-177 -166 -179 -160 -168 0
-182 -166 -184 -160 -168 0
-177 -173 -179 -160 -175 0
-182 -173 -184 -160 -175 0
-182 -179 -184 -160 -181 0
-177 -173 -179 -168 -175 0
-182 -173 -184 -168 -175 0
-182 -179 -184 -168 -181 0
-182 -179 -184 -175 -181 0
-137 -128 -139 -92 -93 0
-147 -128 -149 -92 -93 0
-156 -128 -158 -92 -93 0
-164 -128 -166 -92 -93 0
-171 -128 -173 -92 -93 0
-177 -128 -179 -92 -93 0
-182 -128 -184 -92 -93 0
-147 -139 -149 -92 -94 0
-156 -139 -158 -92 -94 0
-164 -139 -166 -92 -94 0
-171 -139 -173 -92 -94 0
-177 -139 -179 -92 -94 0
-182 -139 -184 -92 -94 0
-156 -149 -158 -92 -95 0
-164 -149 -166 -92 -95 0
-171 -149 -173 -92 -95 0
-177 -149 -179 -92 -95 0
-182 -149 -184 -92 -95 0
-164 -158 -166 -92 -96 0
-171 -158 -173 -92 -96 0
-177 -158 -179 -92 -96 0
-182 -158 -184 -92 -96 0
-171 -166 -173 -92 -97 0
-177 -166 -179 -92 -97 0
-182 -166 -184 -92 -97 0
-177 -173 -179 -92 -98 0
-182 -173 -184 -92 -98 0
-182 -179 -184 -92 -99 0
-147 -139 -149 -93 -94 0
-156 -139 -158 -93 -94 0
-164 -139 -166 -93 -94 0
-171 -139 -173 -93 -94 0
-177 -139 -179 -93 -94 0
-182 -139 -184 -93 -94 0
-156 -149 -158 -93 -95 0
-164 -149 -166 -93 -95 0
-171 -149 -173 -93 -95 0
-177 -149 -179 -93 -95 0
-182 -149 -184 -93 -95 0
-164 -158 -166 -93 -96 0
-171 -158 -173 -93 -96 0
-177 -158 -179 -93 -96 0
-182 -158 -184 -93 -96 0
-171 -166 -173 -93 -97 0
-177 -166 -179 -93 -97 0
-182 -166 -184 -93 -97 0
-177 -173 -179 -93 -98 0
-182 -173 -184 -93 -98 0
-182 -179 -184 -93 -99 0
-156 -149 -158 -94 -95 0
-164 -149 -166 -94 -95 0
-171 -149 -173 -94 -95 0
-177 -149 -179 -94 -95 0
-182 -149 -184 -94 -95 0
-164 -158 -166 -94 -96 0
-171 -158 -173 -94 -96 0
-177 -158 -179 -94 -96 0
-182 -158 -184 -94 -96 0
-171 -166 -173 -94 -97 0
-177 -166 -179 -94 -97 0
-182 -166 -184 -94 -97 0
-177 -173 -179 -94 -98 0
-182 -173 -184 -94 -98 0
-182 -179 -184 -94 -99 0
-164 -158 -166 -95 -96 0
-171 -158 -173 -95 -96 0
-177 -158 -179 -95 -96 0
-182 -158 -184 -95 -96 0
-171 -166 -173 -95 -97 0
-177 -166 -179 -95 -97 0
-182 -166 -184 -95 -97 0
-177 -173 -179 -95 -98 0
-182 -173 -184 -95 -98 0
-182 -179 -184 -95 -99 0
-171 -166 -173 -96 -97 0
-177 -166 -179 -96 -97 0
-182 -166 -184 -96 -97 0
-177 -173 -179 -96 -98 0
-182 -173 -184 -96 -98 0
-182 -179 -184 -96 -99 0
-177 -173 -179 -97 -98 0
-182 -173 -184 -97 -98 0
-182 -179 -184 -97 -99 0
-182 -179 -184 -98 -99 0
-147 -139 -149 -106 -107 0
-156 -139 -158 -106 -107 0
-164 -139 -166 -106 -107 0
-171 -139 -173 -106 -107 0
-177 -139 -179 -106 -107 0
-182 -139 -184 -106 -107 0
-156 -149 -158 -106 -108 0
-164 -149 -166 -106 -108 0
-171 -149 -173 -106 -108 0
-177 -149 -179 -106 -108 0
-182 -149 -184 -106 -108 0
-164 -158 -166 -106 -109 0
-171 -158 -173 -106 -109 0
-177 -158 -179 -106 -109 0
-182 -158 -184 -106 -109 0
-171 -166 -173 -106 -110 0
-177 -166 -179 -106 -110 0
-182 -166 -184 -106 -110 0
-177 -173 -179 -106 -111 0
-182 -173 -184 -106 -111 0
-182 -179 -184 -106 -112 0
-156 -149 -158 -107 -108 0
-164 -149 -166 -107 -108 0
-171 -149 -173 -107 -108 0
-177 -149 -179 -107 -108 0
-182 -149 -184 -107 -108 0
-164 -158 -166 -107 -109 0
-171 -158 -173 -107 -109 0
-177 -158 -179 -107 -109 0
-182 -158 -184 -107 -109 0
-171 -166 -173 -107 -110 0
-177 -166 -179 -107 -110 0
-182 -166 -184 -107 -110 0
-177 -173 -179 -107 -111 0
-182 -173 -184 -107 -111 0
-182 -179 -184 -107 -112 0
-164 -158 -166 -108 -109 0
-171 -158 -173 -108 -109 0
-177 -158 -179 -108 -109 0
-182 -158 -184 -108 -109 0
-171 -166 -173 -108 -110 0
-177 -166 -179 -108 -110 0
-182 -166 -184 -108 -110 0
-177 -173 -179 -108 -111 0
-182 -173 -184 -108 -111 0
-182 -179 -184 -108 -112 0
-171 -166 -173 -109 -110 0
-177 -166 -179 -109 -110 0
-182 -166 -184 -109 -110 0
-177 -173 -179 -109 -111 0
-182 -173 -184 -109 -111 0
-182 -179 -184 -109 -112 0
-177 -173 -179 -110 -111 0
-182 -173 -184 -110 -111 0
-182 -179 -184 -110 -112 0
-182 -179 -184 -111 -112 0
-156 -149 -158 -119 -120 0
-164 -149 -166 -119 -120 0
-171 -149 -173 -119 -120 0
-177 -149 -179 -119 -120 0
-182 -149 -184 -119 -120 0
-164 -158 -166 -119 -121 0
-171 -158 -173 -119 -121 0
-177 -158 -179 -119 -121 0
-182 -158 -184 -119 -121 0
-171 -166 -173 -119 -122 0
-177 -166 -179 -119 -122 0
-182 -166 -184 -119 -122 0
-177 -173 -179 -119 -123 0
-182 -173 -184 -119 -123 0
-182 -179 -184 -119 -124 0
-164 -158 -166 -120 -121 0
-171 -158 -173 -120 -121 0
-177 -158 -179 -120 -121 0
-182 -158 -184 -120 -121 0
-171 -166 -173 -120 -122 0
-177 -166 -179 -120 -122 0
-182 -166 -184 -120 -122 0
-177 -173 -179 -120 -123 0
-182 -173 -184 -120 -123 0
-182 -179 -184 -120 -124 0
-171 -166 -173 -121 -122 0
-177 -166 -179 -121 -122 0
-182 -166 -184 -121 -122 0
-177 -173 -179 -121 -123 0
-182 -173 -184 -121 -123 0
-182 -179 -184 -121 -124 0
-177 -173 -179 -122 -123 0
-182 -173 -184 -122 -123 0
-182 -179 -184 -122 -124 0
-182 -179 -184 -123 -124 0
-164 -158 -166 -131 -132 0
-171 -158 -173 -131 -132 0
-177 -158 -179 -131 -132 0
-182 -158 -184 -131 -132 0
-171 -166 -173 -131 -133 0
-177 -166 -179 -131 -133 0
-182 -166 -184 -131 -133 0
-177 -173 -179 -131 -134 0
-182 -173 -184 -131 -134 0
-182 -179 -184 -131 -135 0
-171 -166 -173 -132 -133 0
-177 -166 -179 -132 -133 0
-182 -166 -184 -132 -133 0
-177 -173 -179 -132 -134 0
-182 -173 -184 -132 -134 0
-182 -179 -184 -132 -135 0
-177 -173 -179 -133 -134 0
-182 -173 -184 -133 -134 0
-182 -179 -184 -133 -135 0
-182 -179 -184 -134 -135 0
-171 -166 -173 -142 -143 0
-177 -166 -179 -142 -143 0
-182 -166 -184 -142 -143 0
-177 -173 -179 -142 -144 0
-182 -173 -184 -142 -144 0
-182 -179 -184 -142 -145 0
-177 -173 -179 -143 -144 0
-182 -173 -184 -143 -144 0
-182 -179 -184 -143 -145 0
-182 -179 -184 -144 -145 0
-177 -173 -179 -152 -153 0
-182 -173 -184 -152 -153 0
-182 -179 -184 -152 -154 0
-182 -179 -184 -153 -154 0
-182 -179 -184 -161 -162 0
-126 -117 -129 -105 -118 0
-137 -117 -140 -105 -118 0
-147 -117 -150 -105 -118 0
-156 -117 -159 -105 -118 0
-164 -117 -167 -105 -118 0
-171 -117 -174 -105 -118 0
-177 -117 -180 -105 -118 0
-182 -117 -185 -105 -118 0
-137 -129 -140 -105 -130 0
-147 -129 -150 -105 -130 0
-156 -129 -159 -105 -130 0
-164 -129 -167 -105 -130 0
-171 -129 -174 -105 -130 0
-177 -129 -180 -105 -130 0
-182 -129 -185 -105 -130 0
-147 -140 -150 -105 -141 0
-156 -140 -159 -105 -141 0
-164 -140 -167 -105 -141 0
-171 -140 -174 -105 -141 0
-177 -140 -180 -105 -141 0
-182 -140 -185 -105 -141 0
-156 -150 -159 -105 -151 0
-164 -150 -167 -105 -151 0
-171 -150 -174 -105 -151 0
-177 -150 -180 -105 -151 0
-182 -150 -185 -105 -151 0
-164 -159 -167 -105 -160 0
-171 -159 -174 -105 -160 0
-177 -159 -180 -105 -160 0
-182 -159 -185 -105 -160 0
-171 -167 -174 -105 -168 0
-177 -167 -180 -105 -168 0
-182 -167 -185 -105 -168 0
-177 -174 -180 -105 -175 0
-182 -174 -185 -105 -175 0
-182 -180 -185 -105 -181 0
-137 -129 -140 -118 -130 0
-147 -129 -150 -118 -130 0
-156 -129 -159 -118 -130 0
-164 -129 -167 -118 -130 0
-171 -129 -174 -118 -130 0
-177 -129 -180 -118 -130 0
-182 -129 -185 -118 -130 0
-147 -140 -150 -118 -141 0
-156 -140 -159 -118 -141 0
-164 -140 -167 -118 -141 0
-171 -140 -174 -118 -141 0
-177 -140 -180 -118 -141 0
-182 -140 -185 -118 -141 0
-156 -150 -159 -118 -151 0
-164 -150 -167 -118 -151 0
-171 -150 -174 -118 -151 0
-177 -150 -180 -118 -151 0
-182 -150 -185 -118 -151 0
-164 -159 -167 -118 -160 0
-171 -159 -174 -118 -160 0
-177 -159 -180 -118 -160 0
-182 -159 -185 -118 -160 0
-171 -167 -174 -118 -168 0
-177 -167 -180 -118 -168 0
-182 -167 -185 -118 -168 0
-177 -174 -180 -118 -175 0
-182 -174 -185 -118 -175 0
-182 -180 -185 -118 -181 0
-147 -140 -150 -130 -141 0
-156 -140 -159 -130 -141 0
-164 -140 -167 -130 -141 0
-171 -140 -174 -130 -141 0
-177 -140 -180 -130 -141 0
-182 -140 -185 -130 -141 0
-156 -150 -159 -130 -151 0
-164 -150 -167 -130 -151 0
-171 -150 -174 -130 -151 0
-177 -150 -180 -130 -151 0
-182 -150 -185 -130 -151 0
-164 -159 -167 -130 -160 0
-171 -159 -174 -130 -160 0
-177 -159 -180 -130 -160 0
-182 -159 -185 -130 -160 0
-171 -167 -174 -130 -168 0
-177 -167 -180 -130 -168 0
-182 -167 -185 -130 -168 0
-177 -174 -180 -130 -175 0
-182 -174 -185 -130 -175 0
-182 -180 -185 -130 -181 0
-156 -150 -159 -141 -151 0
-164 -150 -167 -141 -151 0
-171 -150 -174 -141 -151 0
-177 -150 -180 -141 -151 0
-182 -150 -185 -141 -151 0
-164 -159 -167 -141 -160 0
-171 -159 -174 -141 -160 0
-177 -159 -180 -141 -160 0
-182 -159 -185 -141 -160 0
-171 -167 -174 -141 -168 0
-177 -167 -180 -141 -168 0
-182 -167 -185 -141 -168 0
-177 -174 -180 -141 -175 0
-182 -174 -185 -141 -175 0
-182 -180 -185 -141 -181 0
-164 -159 -167 -151 -160 0
-171 -159 -174 -151 -160 0
-177 -159 -180 -151 -160 0
-182 -159 -185 -151 -160 0
-171 -167 -174 -151 -168 0
-177 -167 -180 -151 -168 0
-182 -167 -185 -151 -168 0
-177 -174 -180 -151 -175 0
-182 -174 -185 -151 -175 0
-182 -180 -185 -151 -181 0
-171 -167 -174 -160 -168 0
-177 -167 -180 -160 -168 0
-182 -167 -185 -160 -168 0
-177 -174 -180 -160 -175 0
-182 -174 -185 -160 -175 0
-182 -180 -185 -160 -181 0
-177 -174 -180 -168 -175 0
-182 -174 -185 -168 -175 0
-182 -180 -185 -168 -181 0
-182 -180 -185 -175 -181 0
-137 -129 -140 -92 -93 0
-147 -129 -150 -92 -93 0
-156 -129 -159 -92 -93 0
-164 -129 -167 -92 -93 0
-171 -129 -174 -92 -93 0
-177 -129 -180 -92 -93 0
-182 -129 -185 -92 -93 0
-147 -140 -150 -92 -94 0
-156 -140 -159 -92 -94 0
-164 -140 -167 -92 -94 0
-171 -140 -174 -92 -94 0
-177 -140 -180 -92 -94 0
-182 -140 -185 -92 -94 0
-156 -150 -159 -92 -95 0
-164 -150 -167 -92 -95 0
-171 -150 -174 -92 -95 0
-177 -150 -180 -92 -95 0
-182 -150 -185 -92 -95 0
-164 -159 -167 -92 -96 0
-171 -159 -174 -92 -96 0
-177 -159 -180 -92 -96 0
-182 -159 -185 -92 -96 0
-171 -167 -174 -92 -97 0
-177 -167 -180 -92 -97 0
-182 -167 -185 -92 -97 0
-177 -174 -180 -92 -98 0
-182 -174 -185 -92 -98 0
-182 -180 -185 -92 -99 0
-147 -140 -150 -93 -94 0
-156 -140 -159 -93 -94 0
-164 -140 -167 -93 -94 0
-171 -140 -174 -93 -94 0
-177 -140 -180 -93 -94 0
-182 -140 -185 -93 -94 0
-156 -150 -159 -93 -95 0
-164 -150 -167 -93 -95 0
-171 -150 -174 -93 -95 0
-177 -150 -180 -93 -95 0
-182 -150 -185 -93 -95 0
-164 -159 -167 -93 -96 0
-171 -159 -174 -93 -96 0
-177 -159 -180 -93 -96 0
-182 -159 -185 -93 -96 0
-171 -167 -174 -93 -97 0
-177 -167 -180 -93 -97 0
-182 -167 -185 -93 -97 0
-177 -174 -180 -93 -98 0
-182 -174 -185 -93 -98 0
-182 -180 -185 -93 -99 0
-156 -150 -159 -94 -95 0
-164 -150 -167 -94 -95 0
-171 -150 -174 -94 -95 0
-177 -150 -180 -94 -95 0
-182 -150 -185 -94 -95 0
-164 -159 -167 -94 -96 0
-171 -159 -174 -94 -96 0
-177 -159 -180 -94 -96 0
-182 -159 -185 -94 -96 0
-171 -167 -174 -94 -97 0
-177 -167 -180 -94 -97 0
-182 -167 -185 -94 -97 0
-177 -174 -180 -94 -98 0
-182 -174 -185 -94 -98 0
-182 -180 -185 -94 -99 0
-164 -159 -167 -95 -96 0
-171 -159 -174 -95 -96 0
-177 -159 -180 -95 -96 0
-182 -159 -185 -95 -96 0
-171 -167 -174 -95 -97 0
-177 -167 -180 -95 -97 0
-182 -167 -185 -95 -97 0
-177 -174 -180 -95 -98 0
-182 -174 -185 -95 -98 0
-182 -180 -185 -95 -99 0
-171 -167 -174 -96 -97 0
-177 -167 -180 -96 -97 0
-182 -167 -185 -96 -97 0
-177 -174 -180 -96 -98 0
-182 -174 -185 -96 -98 0
-182 -180 -185 -96 -99 0
-177 -174 -180 -97 -98 0
-182 -174 -185 -97 -98 0
-182 -180 -185 -97 -99 0
-182 -180 -185 -98 -99 0
-147 -140 -150 -106 -107 0
-156 -140 -159 -106 -107 0
-164 -140 -167 -106 -107 0
-171 -140 -174 -106 -107 0
-177 -140 -180 -106 -107 0
-182 -140 -185 -106 -107 0
-156 -150 -159 -106 -108 0
-164 -150 -167 -106 -108 0
-171 -150 -174 -106 -108 0
-177 -150 -180 -106 -108 0
-182 -150 -185 -106 -108 0
-164 -159 -167 -106 -109 0
-171 -159 -174 -106 -109 0
-177 -159 -180 -106 -109 0
-182 -159 -185 -106 -109 0
-171 -167 -174 -106 -110 0
-177 -167 -180 -106 -110 0
-182 -167 -185 -106 -110 0
-177 -174 -180 -106 -111 0
-182 -174 -185 -106 -111 0
-182 -180 -185 -106 -112 0
-156 -150 -159 -107 -108 0
-164 -150 -167 -107 -108 0
-171 -150 -174 -107 -108 0
-177 -150 -180 -107 -108 0
-182 -150 -185 -107 -108 0
-164 -159 -167 -107 -109 0
-171 -159 -174 -107 -109 0
-177 -159 -180 -107 -109 0
-182 -159 -185 -107 -109 0
-171 -167 -174 -107 -110 0
-177 -167 -180 -107 -110 0
-182 -167 -185 -107 -110 0
-177 -174 -180 -107 -111 0
-182 -174 -185 -107 -111 0
-182 -180 -185 -107 -112 0
-164 -159 -167 -108 -109 0
-171 -159 -174 -108 -109 0
-177 -159 -180 -108 -109 0
-182 -159 -185 -108 -109 0
-171 -167 -174 -108 -110 0
-177 -167 -180 -108 -110 0
-182 -167 -185 -108 -110 0
-177 -174 -180 -108 -111 0
-182 -174 -185 -108 -111 0
-182 -180 -185 -108 -112 0
-171 -167 -174 -109 -110 0
-177 -167 -180 -109 -110 0
-182 -167 -185 -109 -110 0
-177 -174 -180 -109 -111 0
-182 -174 -185 -109 -111 0
-182 -180 -185 -109 -112 0
-177 -174 -180 -110 -111 0
-182 -174 -185 -110 -111 0
-182 -180 -185 -110 -112 0
-182 -180 -185 -111 -112 0
-156 -150 -159 -119 -120 0
-164 -150 -167 -119 -120 0
-171 -150 -174 -119 -120 0
-177 -150 -180 -119 -120 0
-182 -150 -185 -119 -120 0
-164 -159 -167 -119 -121 0
-171 -159 -174 -119 -121 0
-177 -159 -180 -119 -121 0
-182 -159 -185 -119 -121 0
-171 -167 -174 -119 -122 0
-177 -167 -180 -119 -122 0
-182 -167 -185 -119 -122 0
-177 -174 -180 -119 -123 0
-182 -174 -185 -119 -123 0
-182 -180 -185 -119 -124 0
-164 -159 -167 -120 -121 0
-171 -159 -174 -120 -121 0
-177 -159 -180 -120 -121 0
-182 -159 -185 -120 -121 0
-171 -167 -174 -120 -122 0
-177 -167 -180 -120 -122 0
-182 -167 -185 -120 -122 0
-177 -174 -180 -120 -123 0
-182 -174 -185 -120 -123 0
-182 -180 -185 -120 -124 0
-171 -167 -174 -121 -122 0
-177 -167 -180 -121 -122 0
-182 -167 -185 -121 -122 0
-177 -174 -180 -121 -123 0
-182 -174 -185 -121 -123 0
-182 -180 -185 -121 -124 0
-177 -174 -180 -122 -123 0
-182 -174 -185 -122 -123 0
-182 -180 -185 -122 -124 0
-182 -180 -185 -123 -124 0
-164 -159 -167 -131 -132 0
-171 -159 -174 -131 -132 0
-177 -159 -180 -131 -132 0
-182 -159 -185 -131 -132 0
-171 -167 -174 -131 -133 0
-177 -167 -180 -131 -133 0
-182 -167 -185 -131 -133 0
-177 -174 -180 -131 -134 0
-182 -174 -185 -131 -134 0
-182 -180 -185 -131 -135 0
-171 -167 -174 -132 -133 0
-177 -167 -180 -132 -133 0
-182 -167 -185 -132 -133 0
-177 -174 -180 -132 -134 0
-182 -174 -185 -132 -134 0
-182 -180 -185 -132 -135 0
-177 -174 -180 -133 -134 0
-182 -174 -185 -133 -134 0
-182 -180 -185 -133 -135 0
-182 -180 -185 -134 -135 0
-171 -167 -174 -142 -143 0
-177 -167 -180 -142 -143 0
-182 -167 -185 -142 -143 0
-177 -174 -180 -142 -144 0
-182 -174 -185 -142 -144 0
-182 -180 -185 -142 -145 0
-177 -174 -180 -143 -144 0
-182 -174 -185 -143 -144 0
-182 -180 -185 -143 -145 0
-182 -180 -185 -144 -145 0
-177 -174 -180 -152 -153 0
-182 -174 -185 -152 -153 0
-182 -180 -185 -152 -154 0
-182 -180 -185 -153 -154 0
-182 -180 -185 -161 -162 0
-137 -130 -141 -92 -93 0
-147 -130 -151 -92 -93 0
-156 -130 -160 -92 -93 0
-164 -130 -168 -92 -93 0
-171 -130 -175 -92 -93 0
-177 -130 -181 -92 -93 0
-182 -130 -186 -92 -93 0
-147 -141 -151 -92 -94 0
-156 -141 -160 -92 -94 0
-164 -141 -168 -92 -94 0
-171 -141 -175 -92 -94 0
-177 -141 -181 -92 -94 0
-182 -141 -186 -92 -94 0
-156 -151 -160 -92 -95 0
-164 -151 -168 -92 -95 0
-171 -151 -175 -92 -95 0
-177 -151 -181 -92 -95 0
-182 -151 -186 -92 -95 0
-164 -160 -168 -92 -96 0
-171 -160 -175 -92 -96 0
-177 -160 -181 -92 -96 0
-182 -160 -186 -92 -96 0
-171 -168 -175 -92 -97 0
-177 -168 -181 -92 -97 0
-182 -168 -186 -92 -97 0
-177 -175 -181 -92 -98 0
-182 -175 -186 -92 -98 0
-182 -181 -186 -92 -99 0
-147 -141 -151 -93 -94 0
-156 -141 -160 -93 -94 0
-164 -141 -168 -93 -94 0
-171 -141 -175 -93 -94 0
-177 -141 -181 -93 -94 0
-182 -141 -186 -93 -94 0
-156 -151 -160 -93 -95 0
-164 -151 -168 -93 -95 0
-171 -151 -175 -93 -95 0
-177 -151 -181 -93 -95 0
-182 -151 -186 -93 -95 0
-164 -160 -168 -93 -96 0
-171 -160 -175 -93 -96 0
-177 -160 -181 -93 -96 0
-182 -160 -186 -93 -96 0
-171 -168 -175 -93 -97 0
-177 -168 -181 -93 -97 0
-182 -168 -186 -93 -97 0
-177 -175 -181 -93 -98 0
-182 -175 -186 -93 -98 0
-182 -181 -186 -93 -99 0
-156 -151 -160 -94 -95 0
-164 -151 -168 -94 -95 0
-171 -151 -175 -94 -95 0
-177 -151 -181 -94 -95 0
-182 -151 -186 -94 -95 0
-164 -160 -168 -94 -96 0
-171 -160 -175 -94 -96 0
-177 -160 -181 -94 -96 0
-182 -160 -186 -94 -96 0
-171 -168 -175 -94 -97 0
-177 -168 -181 -94 -97 0
-182 -168 -186 -94 -97 0
-177 -175 -181 -94 -98 0
-182 -175 -186 -94 -98 0
-182 -181 -186 -94 -99 0
-164 -160 -168 -95 -96 0
-171 -160 -175 -95 -96 0
-177 -160 -181 -95 -96 0
-182 -160 -186 -95 -96 0
-171 -168 -175 -95 -97 0
-177 -168 -181 -95 -97 0
-182 -168 -186 -95 -97 0
-177 -175 -181 -95 -98 0
-182 -175 -186 -95 -98 0
-182 -181 -186 -95 -99 0
-171 -168 -175 -96 -97 0
-177 -168 -181 -96 -97 0
-182 -168 -186 -96 -97 0
-177 -175 -181 -96 -98 0
-182 -175 -186 -96 -98 0
-182 -181 -186 -96 -99 0
-177 -175 -181 -97 -98 0
-182 -175 -186 -97 -98 0
-182 -181 -186 -97 -99 0
-182 -181 -186 -98 -99 0
-147 -141 -151 -106 -107 0
-156 -141 -160 -106 -107 0
-164 -141 -168 -106 -107 0
-171 -141 -175 -106 -107 0
-177 -141 -181 -106 -107 0
-182 -141 -186 -106 -107 0
-156 -151 -160 -106 -108 0
-164 -151 -168 -106 -108 0
-171 -151 -175 -106 -108 0
-177 -151 -181 -106 -108 0
-182 -151 -186 -106 -108 0
-164 -160 -168 -106 -109 0
-171 -160 -175 -106 -109 0
-177 -160 -181 -106 -109 0
-182 -160 -186 -106 -109 0
-171 -168 -175 -106 -110 0
-177 -168 -181 -106 -110 0
-182 -168 -186 -106 -110 0
-177 -175 -181 -106 -111 0
-182 -175 -186 -106 -111 0
-182 -181 -186 -106 -112 0
-156 -151 -160 -107 -108 0
-164 -151 -168 -107 -108 0
-171 -151 -175 -107 -108 0
-177 -151 -181 -107 -108 0
-182 -151 -186 -107 -108 0
-164 -160 -168 -107 -109 0
-171 -160 -175 -107 -109 0
-177 -160 -181 -107 -109 0
-182 -160 -186 -107 -109 0
-171 -168 -175 -107 -110 0
-177 -168 -181 -107 -110 0
-182 -168 -186 -107 -110 0
-177 -175 -181 -107 -111 0
-182 -175 -186 -107 -111 0
-182 -181 -186 -107 -112 0
-164 -160 -168 -108 -109 0
-171 -160 -175 -108 -109 0
-177 -160 -181 -108 -109 0
-182 -160 -186 -108 -109 0
-171 -168 -175 -108 -110 0
-177 -168 -181 -108 -110 0
-182 -168 -186 -108 -110 0
-177 -175 -181 -108 -111 0
-182 -175 -186 -108 -111 0
-182 -181 -186 -108 -112 0
-171 -168 -175 -109 -110 0
-177 -168 -181 -109 -110 0
-182 -168 -186 -109 -110 0
-177 -175 -181 -109 -111 0
-182 -175 -186 -109 -111 0
-182 -181 -186 -109 -112 0
-177 -175 -181 -110 -111 0
-182 -175 -186 -110 -111 0
-182 -181 -186 -110 -112 0
-182 -181 -186 -111 -112 0
-156 -151 -160 -119 -120 0
-164 -151 -168 -119 -120 0
-171 -151 -175 -119 -120 0
-177 -151 -181 -119 -120 0
-182 -151 -186 -119 -120 0
-164 -160 -168 -119 -121 0
-171 -160 -175 -119 -121 0
-177 -160 -181 -119 -121 0
-182 -160 -186 -119 -121 0
-171 -168 -175 -119 -122 0
-177 -168 -181 -119 -122 0
-182 -168 -186 -119 -122 0
-177 -175 -181 -119 -123 0
-182 -175 -186 -119 -123 0
-182 -181 -186 -119 -124 0
-164 -160 -168 -120 -121 0
-171 -160 -175 -120 -121 0
-177 -160 -181 -120 -121 0
-182 -160 -186 -120 -121 0
-171 -168 -175 -120 -122 0
-177 -168 -181 -120 -122 0
-182 -168 -186 -120 -122 0
-177 -175 -181 -120 -123 0
-182 -175 -186 -120 -123 0
-182 -181 -186 -120 -124 0
-171 -168 -175 -121 -122 0
-177 -168 -181 -121 -122 0
-182 -168 -186 -121 -122 0
-177 -175 -181 -121 -123 0
-182 -175 -186 -121 -123 0
-182 -181 -186 -121 -124 0
-177 -175 -181 -122 -123 0
-182 -175 -186 -122 -123 0
-182 -181 -186 -122 -124 0
-182 -181 -186 -123 -124 0
-164 -160 -168 -131 -132 0
-171 -160 -175 -131 -132 0
-177 -160 -181 -131 -132 0
-182 -160 -186 -131 -132 0
-171 -168 -175 -131 -133 0
-177 -168 -181 -131 -133 0
-182 -168 -186 -131 -133 0
-177 -175 -181 -131 -134 0
-182 -175 -186 -131 -134 0
-182 -181 -186 -131 -135 0
-171 -168 -175 -132 -133 0
-177 -168 -181 -132 -133 0
-182 -168 -186 -132 -133 0
-177 -175 -181 -132 -134 0
-182 -175 -186 -132 -134 0
-182 -181 -186 -132 -135 0
-177 -175 -181 -133 -134 0
-182 -175 -186 -133 -134 0
-182 -181 -186 -133 -135 0
-182 -181 -186 -134 -135 0
-171 -168 -175 -142 -143 0
-177 -168 -181 -142 -143 0
-182 -168 -186 -142 -143 0
-177 -175 -181 -142 -144 0
-182 -175 -186 -142 -144 0
-182 -181 -186 -142 -145 0
-177 -175 -181 -143 -144 0
-182 -175 -186 -143 -144 0
-182 -181 -186 -143 -145 0
-182 -181 -186 -144 -145 0
-177 -175 -181 -152 -153 0
-182 -175 -186 -152 -153 0
-182 -181 -186 -152 -154 0
-182 -181 -186 -153 -154 0
-182 -181 -186 -161 -162 0
-147 -94 -95 -106 -107 0
-156 -94 -96 -106 -107 0
-164 -94 -97 -106 -107 0
-171 -94 -98 -106 -107 0
-177 -94 -99 -106 -107 0
-182 -94 -100 -106 -107 0
-156 -95 -96 -106 -108 0
-164 -95 -97 -106 -108 0
-171 -95 -98 -106 -108 0
-177 -95 -99 -106 -108 0
-182 -95 -100 -106 -108 0
-164 -96 -97 -106 -109 0
-171 -96 -98 -106 -109 0
-177 -96 -99 -106 -109 0
-182 -96 -100 -106 -109 0
-171 -97 -98 -106 -110 0
-177 -97 -99 -106 -110 0
-182 -97 -100 -106 -110 0
-177 -98 -99 -106 -111 0
-182 -98 -100 -106 -111 0
-182 -99 -100 -106 -112 0
-156 -95 -96 -107 -108 0
-164 -95 -97 -107 -108 0
-171 -95 -98 -107 -108 0
-177 -95 -99 -107 -108 0
-182 -95 -100 -107 -108 0
-164 -96 -97 -107 -109 0
-171 -96 -98 -107 -109 0
-177 -96 -99 -107 -109 0
-182 -96 -100 -107 -109 0
-171 -97 -98 -107 -110 0
-177 -97 -99 -107 -110 0
-182 -97 -100 -107 -110 0
-177 -98 -99 -107 -111 0
-182 -98 -100 -107 -111 0
-182 -99 -100 -107 -112 0
-164 -96 -97 -108 -109 0
-171 -96 -98 -108 -109 0
-177 -96 -99 -108 -109 0
-182 -96 -100 -108 -109 0
-171 -97 -98 -108 -110 0
-177 -97 -99 -108 -110 0
-182 -97 -100 -108 -110 0
-177 -98 -99 -108 -111 0
-182 -98 -100 -108 -111 0
-182 -99 -100 -108 -112 0
-171 -97 -98 -109 -110 0
-177 -97 -99 -109 -110 0
-182 -97 -100 -109 -110 0
-177 -98 -99 -109 -111 0
-182 -98 -100 -109 -111 0
-182 -99 -100 -109 -112 0
-177 -98 -99 -110 -111 0
-182 -98 -100 -110 -111 0
-182 -99 -100 -110 -112 0
-182 -99 -100 -111 -112 0
-156 -95 -96 -119 -120 0
-164 -95 -97 -119 -120 0
-171 -95 -98 -119 -120 0
-177 -95 -99 -119 -120 0
-182 -95 -100 -119 -120 0
-164 -96 -97 -119 -121 0
-171 -96 -98 -119 -121 0
-177 -96 -99 -119 -121 0
-182 -96 -100 -119 -121 0
-171 -97 -98 -119 -122 0
-177 -97 -99 -119 -122 0
-182 -97 -100 -119 -122 0
-177 -98 -99 -119 -123 0
-182 -98 -100 -119 -123 0
-182 -99 -100 -119 -124 0
-164 -96 -97 -120 -121 0
-171 -96 -98 -120 -121 0
-177 -96 -99 -120 -121 0
-182 -96 -100 -120 -121 0
-171 -97 -98 -120 -122 0
-177 -97 -99 -120 -122 0
-182 -97 -100 -120 -122 0
-177 -98 -99 -120 -123 0
-182 -98 -100 -120 -123 0
-182 -99 -100 -120 -124 0
-171 -97 -98 -121 -122 0
-177 -97 -99 -121 -122 0
-182 -97 -100 -121 -122 0
-177 -98 -99 -121 -123 0
-182 -98 -100 -121 -123 0
-182 -99 -100 -121 -124 0
-177 -98 -99 -122 -123 0
-182 -98 -100 -122 -123 0
-182 -99 -100 -122 -124 0
-182 -99 -100 -123 -124 0
-164 -96 -97 -131 -132 0
-171 -96 -98 -131 -132 0
-177 -96 -99 -131 -132 0
-182 -96 -100 -131 -132 0
-171 -97 -98 -131 -133 0
-177 -97 -99 -131 -133 0
-182 -97 -100 -131 -133 0
-177 -98 -99 -131 -134 0
-182 -98 -100 -131 -134 0
-182 -99 -100 -131 -135 0
-171 -97 -98 -132 -133 0
-177 -97 -99 -132 -133 0
-182 -97 -100 -132 -133 0
-177 -98 -99 -132 -134 0
-182 -98 -100 -132 -134 0
-182 -99 -100 -132 -135 0
-177 -98 -99 -133 -134 0
-182 -98 -100 -133 -134 0
-182 -99 -100 -133 -135 0
-182 -99 -100 -134 -135 0
-171 -97 -98 -142 -143 0
-177 -97 -99 -142 -143 0
-182 -97 -100 -142 -143 0
-177 -98 -99 -142 -144 0
-182 -98 -100 -142 -144 0
-182 -99 -100 -142 -145 0
-177 -98 -99 -143 -144 0
-182 -98 -100 -143 -144 0
-182 -99 -100 -143 -145 0
-182 -99 -100 -144 -145 0
-177 -98 -99 -152 -153 0
-182 -98 -100 -152 -153 0
-182 -99 -100 -152 -154 0
-182 -99 -100 -153 -154 0
-182 -99 -100 -161 -162 0
-156 -108 -109 -119 -120 0
-164 -108 -110 -119 -120 0
-171 -108 -111 -119 -120 0
-177 -108 -112 -119 -120 0
-182 -108 -113 -119 -120 0
-164 -109 -110 -119 -121 0
-171 -109 -111 -119 -121 0
-177 -109 -112 -119 -121 0
-182 -109 -113 -119 -121 0
-171 -110 -111 -119 -122 0
-177 -110 -112 -119 -122 0
-182 -110 -113 -119 -122 0
-177 -111 -112 -119 -123 0
-182 -111 -113 -119 -123 0
-182 -112 -113 -119 -124 0
-164 -109 -110 -120 -121 0
-171 -109 -111 -120 -121 0
-177 -109 -112 -120 -121 0
-182 -109 -113 -120 -121 0
-171 -110 -111 -120 -122 0
-177 -110 -112 -120 -122 0
-182 -110 -113 -120 -122 0
-177 -111 -112 -120 -123 0
-182 -111 -113 -120 -123 0
-182 -112 -113 -120 -124 0
-171 -110 -111 -121 -122 0
-177 -110 -112 -121 -122 0
-182 -110 -113 -121 -122 0
-177 -111 -112 -121 -123 0
-182 -111 -113 -121 -123 0
-182 -112 -113 -121 -124 0
-177 -111 -112 -122 -123 0
-182 -111 -113 -122 -123 0
-182 -112 -113 -122 -124 0
-182 -112 -113 -123 -124 0
-164 -109 -110 -131 -132 0
-171 -109 -111 -131 -132 0
-177 -109 -112 -131 -132 0
-182 -109 -113 -131 -132 0
-171 -110 -111 -131 -133 0
-177 -110 -112 -131 -133 0
-182 -110 -113 -131 -133 0
-177 -111 -112 -131 -134 0
-182 -111 -113 -131 -134 0
-182 -112 -113 -131 -135 0
-171 -110 -111 -132 -133 0
-177 -110 -112 -132 -133 0
-182 -110 -113 -132 -133 0
-177 -111 -112 -132 -134 0
-182 -111 -113 -132 -134 0
-182 -112 -113 -132 -135 0
-177 -111 -112 -133 -134 0
-182 -111 -113 -133 -134 0
-182 -112 -113 -133 -135 0
-182 -112 -113 -134 -135 0
-171 -110 -111 -142 -143 0
-177 -110 -112 -142 -143 0
-182 -110 -113 -142 -143 0
-177 -111 -112 -142 -144 0
-182 -111 -113 -142 -144 0
-182 -112 -113 -142 -145 0
-177 -111 -112 -143 -144 0
-182 -111 -113 -143 -144 0
-182 -112 -113 -143 -145 0
-182 -112 -113 -144 -145 0
-177 -111 -112 -152 -153 0
-182 -111 -113 -152 -153 0
-182 -112 -113 -152 -154 0
-182 -112 -113 -153 -154 0
-182 -112 -113 -161 -162 0
-164 -121 -122 -131 -132 0
-171 -121 -123 -131 -132 0
-177 -121 -124 -131 -132 0
-182 -121 -125 -131 -132 0
-171 -122 -123 -131 -133 0
-177 -122 -124 -131 -133 0
-182 -122 -125 -131 -133 0
-177 -123 -124 -131 -134 0
-182 -123 -125 -131 -134 0
-182 -124 -125 -131 -135 0
-171 -122 -123 -132 -133 0
-177 -122 -124 -132 -133 0
-182 -122 -125 -132 -133 0
-177 -123 -124 -132 -134 0
-182 -123 -125 -132 -134 0
-182 -124 -125 -132 -135 0
-177 -123 -124 -133 -134 0
-182 -123 -125 -133 -134 0
-182 -124 -125 -133 -135 0
-182 -124 -125 -134 -135 0
-171 -122 -123 -142 -143 0
-177 -122 -124 -142 -143 0
-182 -122 -125 -142 -143 0
-177 -123 -124 -142 -144 0
-182 -123 -125 -142 -144 0
-182 -124 -125 -142 -145 0
-177 -123 -124 -143 -144 0
-182 -123 -125 -143 -144 0
-182 -124 -125 -143 -145 0
-182 -124 -125 -144 -145 0
-177 -123 -124 -152 -153 0
-182 -123 -125 -152 -153 0
-182 -124 -125 -152 -154 0
-182 -124 -125 -153 -154 0
-182 -124 -125 -161 -162 0
-171 -133 -134 -142 -143 0
-177 -133 -135 -142 -143 0
-182 -133 -136 -142 -143 0
-177 -134 -135 -142 -144 0
-182 -134 -136 -142 -144 0
-182 -135 -136 -142 -145 0
-177 -134 -135 -143 -144 0
-182 -134 -136 -143 -144 0
-182 -135 -136 -143 -145 0
-182 -135 -136 -144 -145 0
-177 -134 -135 -152 -153 0
-182 -134 -136 -152 -153 0
-182 -135 -136 -152 -154 0
-182 -135 -136 -153 -154 0
-182 -135 -136 -161 -162 0
-177 -144 -145 -152 -153 0
-182 -144 -146 -152 -153 0
-182 -145 -146 -152 -154 0
-182 -145 -146 -153 -154 0
-182 -145 -146 -161 -162 0
-182 -154 -155 -161 -162 0
-115 -103 -116 -196 -104 0
-127 -103 -128 -196 -104 0
-138 -103 -139 -196 -104 0
-148 -103 -149 -196 -104 0
-157 -103 -158 -196 -104 0
-165 -103 -166 -196 -104 0
-172 -103 -173 -196 -104 0
-178 -103 -179 -196 -104 0
-183 -103 -184 -196 -104 0
-187 -103 -188 -196 -104 0
-127 -116 -128 -196 -117 0
-138 -116 -139 -196 -117 0
-148 -116 -149 -196 -117 0
-157 -116 -158 -196 -117 0
-165 -116 -166 -196 -117 0
-172 -116 -173 -196 -117 0
-178 -116 -179 -196 -117 0
-183 -116 -184 -196 -117 0
-187 -116 -188 -196 -117 0
-138 -128 -139 -196 -129 0
-148 -128 -149 -196 -129 0
-157 -128 -158 -196 -129 0
-165 -128 -166 -196 -129 0
-172 -128 -173 -196 -129 0
-178 -128 -179 -196 -129 0
-183 -128 -184 -196 -129 0
-187 -128 -188 -196 -129 0
-148 -139 -149 -196 -140 0
-157 -139 -158 -196 -140 0
-165 -139 -166 -196 -140 0
-172 -139 -173 -196 -140 0
-178 -139 -179 -196 -140 0
-183 -139 -184 -196 -140 0
-187 -139 -188 -196 -140 0
-157 -149 -158 -196 -150 0
-165 -149 -166 -196 -150 0
-172 -149 -173 -196 -150 0
-178 -149 -179 -196 -150 0
-183 -149 -184 -196 -150 0
-187 -149 -188 -196 -150 0
-165 -158 -166 -196 -159 0
-172 -158 -173 -196 -159 0
-178 -158 -179 -196 -159 0
-183 -158 -184 -196 -159 0
-187 -158 -188 -196 -159 0
-172 -166 -173 -196 -167 0
-178 -166 -179 -196 -167 0
-183 -166 -184 -196 -167 0
-187 -166 -188 -196 -167 0
-178 -173 -179 -196 -174 0
-183 -173 -184 -196 -174 0
-187 -173 -188 -196 -174 0
-183 -179 -184 -196 -180 0
-187 -179 -188 -196 -180 0
-187 -184 -188 -196 -185 0
-127 -116 -128 -104 -117 0
-138 -116 -139 -104 -117 0
-148 -116 -149 -104 -117 0
-157 -116 -158 -104 -117 0
-165 -116 -166 -104 -117 0
-172 -116 -173 -104 -117 0
-178 -116 -179 -104 -117 0
-183 -116 -184 -104 -117 0
-187 -116 -188 -104 -117 0
-138 -128 -139 -104 -129 0
-148 -128 -149 -104 -129 0
-157 -128 -158 -104 -129 0
-165 -128 -166 -104 -129 0
-172 -128 -173 -104 -129 0
-178 -128 -179 -104 -129 0
-183 -128 -184 -104 -129 0
-187 -128 -188 -104 -129 0
-148 -139 -149 -104 -140 0
-157 -139 -158 -104 -140 0
-165 -139 -166 -104 -140 0
-172 -139 -173 -104 -140 0
-178 -139 -179 -104 -140 0
-183 -139 -184 -104 -140 0
-187 -139 -188 -104 -140 0
-157 -149 -158 -104 -150 0
-165 -149 -166 -104 -150 0
-172 -149 -173 -104 -150 0
-178 -149 -179 -104 -150 0
-183 -149 -184 -104 -150 0
-187 -149 -188 -104 -150 0
-165 -158 -166 -104 -159 0
-172 -158 -173 -104 -159 0
-178 -158 -179 -104 -159 0
-183 -158 -184 -104 -159 0
-187 -158 -188 -104 -159 0
-172 -166 -173 -104 -167 0
-178 -166 -179 -104 -167 0
-183 -166 -184 -104 -167 0
-187 -166 -188 -104 -167 0
-178 -173 -179 -104 -174 0
-183 -173 -184 -104 -174 0
-187 -173 -188 -104 -174 0
-183 -179 -184 -104 -180 0
-187 -179 -188 -104 -180 0
-187 -184 -188 -104 -185 0
-138 -128 -139 -117 -129 0
-148 -128 -149 -117 -129 0
-157 -128 -158 -117 -129 0
-165 -128 -166 -117 -129 0
-172 -128 -173 -117 -129 0
-178 -128 -179 -117 -129 0
-183 -128 -184 -117 -129 0
-187 -128 -188 -117 -129 0
-148 -139 -149 -117 -140 0
-157 -139 -158 -117 -140 0
-165 -139 -166 -117 -140 0
-172 -139 -173 -117 -140 0
-178 -139 -179 -117 -140 0
-183 -139 -184 -117 -140 0
-187 -139 -188 -117 -140 0
-157 -149 -158 -117 -150 0
-165 -149 -166 -117 -150 0
-172 -149 -173 -117 -150 0
-178 -149 -179 -117 -150 0
-183 -149 -184 -117 -150 0
-187 -149 -188 -117 -150 0
-165 -158 -166 -117 -159 0
-172 -158 -173 -117 -159 0
-178 -158 -179 -117 -159 0
-183 -158 -184 -117 -159 0
-187 -158 -188 -117 -159 0
-172 -166 -173 -117 -167 0
-178 -166 -179 -117 -167 0
-183 -166 -184 -117 -167 0
-187 -166 -188 -117 -167 0
-178 -173 -179 -117 -174 0
-183 -173 -184 -117 -174 0
-187 -173 -188 -117 -174 0
-183 -179 -184 -117 -180 0
-187 -179 -188 -117 -180 0
-187 -184 -188 -117 -185 0
-148 -139 -149 -129 -140 0
-157 -139 -158 -129 -140 0
-165 -139 -166 -129 -140 0
-172 -139 -173 -129 -140 0
-178 -139 -179 -129 -140 0
-183 -139 -184 -129 -140 0
-187 -139 -188 -129 -140 0
-157 -149 -158 -129 -150 0
-165 -149 -166 -129 -150 0
-172 -149 -173 -129 -150 0
-178 -149 -179 -129 -150 0
-183 -149 -184 -129 -150 0
-187 -149 -188 -129 -150 0
-165 -158 -166 -129 -159 0
-172 -158 -173 -129 -159 0
-178 -158 -179 -129 -159 0
-183 -158 -184 -129 -159 0
-187 -158 -188 -129 -159 0
-172 -166 -173 -129 -167 0
-178 -166 -179 -129 -167 0
-183 -166 -184 -129 -167 0
-187 -166 -188 -129 -167 0
-178 -173 -179 -129 -174 0
-183 -173 -184 -129 -174 0
-187 -173 -188 -129 -174 0
-183 -179 -184 -129 -180 0
-187 -179 -188 -129 -180 0
-187 -184 -188 -129 -185 0
-157 -149 -158 -140 -150 0
-165 -149 -166 -140 -150 0
-172 -149 -173 -140 -150 0
-178 -149 -179 -140 -150 0
-183 -149 -184 -140 -150 0
-187 -149 -188 -140 -150 0
-165 -158 -166 -140 -159 0
-172 -158 -173 -140 -159 0
-178 -158 -179 -140 -159 0
-183 -158 -184 -140 -159 0
-187 -158 -188 -140 -159 0
-172 -166 -173 -140 -167 0
-178 -166 -179 -140 -167 0
-183 -166 -184 -140 -167 0
-187 -166 -188 -140 -167 0
-178 -173 -179 -140 -174 0
-183 -173 -184 -140 -174 0
-187 -173 -188 -140 -174 0
-183 -179 -184 -140 -180 0
-187 -179 -188 -140 -180 0
-187 -184 -188 -140 -185 0
-165 -158 -166 -150 -159 0
-172 -158 -173 -150 -159 0
-178 -158 -179 -150 -159 0
-183 -158 -184 -150 -159 0
-187 -158 -188 -150 -159 0
-172 -166 -173 -150 -167 0
-178 -166 -179 -150 -167 0
-183 -166 -184 -150 -167 0
-187 -166 -188 -150 -167 0
-178 -173 -179 -150 -174 0
-183 -173 -184 -150 -174 0
-187 -173 -188 -150 -174 0
-183 -179 -184 -150 -180 0
-187 -179 -188 -150 -180 0
-187 -184 -188 -150 -185 0
-172 -166 -173 -159 -167 0
-178 -166 -179 -159 -167 0
-183 -166 -184 -159 -167 0
-187 -166 -188 -159 -167 0
-178 -173 -179 -159 -174 0
-183 -173 -184 -159 -174 0
-187 -173 -188 -159 -174 0
-183 -179 -184 -159 -180 0
-187 -179 -188 -159 -180 0
-187 -184 -188 -159 -185 0
-178 -173 -179 -167 -174 0
-183 -173 -184 -167 -174 0
-187 -173 -188 -167 -174 0
-183 -179 -184 -167 -180 0
-187 -179 -188 -167 -180 0
-187 -184 -188 -167 -185 0
-183 -179 -184 -174 -180 0
-187 -179 -188 -174 -180 0
-187 -184 -188 -174 -185 0
-187 -184 -188 -180 -185 0
-127 -116 -128 -105 -118 0
-138 -116 -139 -105 -118 0
-148 -116 -149 -105 -118 0
-157 -116 -158 -105 -118 0
-165 -116 -166 -105 -118 0
-172 -116 -173 -105 -118 0
-178 -116 -179 -105 -118 0
-183 -116 -184 -105 -118 0
-187 -116 -188 -105 -118 0
-138 -128 -139 -105 -130 0
-148 -128 -149 -105 -130 0
-157 -128 -158 -105 -130 0
-165 -128 -166 -105 -130 0
-172 -128 -173 -105 -130 0
-178 -128 -179 -105 -130 0
-183 -128 -184 -105 -130 0
-187 -128 -188 -105 -130 0
-148 -139 -149 -105 -141 0
-157 -139 -158 -105 -141 0
-165 -139 -166 -105 -141 0
-172 -139 -173 -105 -141 0
-178 -139 -179 -105 -141 0
-183 -139 -184 -105 -141 0
-187 -139 -188 -105 -141 0
-157 -149 -158 -105 -151 0
-165 -149 -166 -105 -151 0
-172 -149 -173 -105 -151 0
-178 -149 -179 -105 -151 0
-183 -149 -184 -105 -151 0
-187 -149 -188 -105 -151 0
-165 -158 -166 -105 -160 0
-172 -158 -173 -105 -160 0
-178 -158 -179 -105 -160 0
-183 -158 -184 -105 -160 0
-187 -158 -188 -105 -160 0
-172 -166 -173 -105 -168 0
-178 -166 -179 -105 -168 0
-183 -166 -184 -105 -168 0
-187 -166 -188 -105 -168 0
-178 -173 -179 -105 -175 0
-183 -173 -184 -105 -175 0
-187 -173 -188 -105 -175 0
-183 -179 -184 -105 -181 0
-187 -179 -188 -105 -181 0
-187 -184 -188 -105 -186 0
-138 -128 -139 -118 -130 0
-148 -128 -149 -118 -130 0
-157 -128 -158 -118 -130 0
-165 -128 -166 -118 -130 0
-172 -128 -173 -118 -130 0
-178 -128 -179 -118 -130 0
-183 -128 -184 -118 -130 0
-187 -128 -188 -118 -130 0
-148 -139 -149 -118 -141 0
-157 -139 -158 -118 -141 0
-165 -139 -166 -118 -141 0
-172 -139 -173 -118 -141 0
-178 -139 -179 -118 -141 0
-183 -139 -184 -118 -141 0
-187 -139 -188 -118 -141 0
-157 -149 -158 -118 -151 0
-165 -149 -166 -118 -151 0
-172 -149 -173 -118 -151 0
-178 -149 -179 -118 -151 0
-183 -149 -184 -118 -151 0
-187 -149 -188 -118 -151 0
-165 -158 -166 -118 -160 0
-172 -158 -173 -118 -160 0
-178 -158 -179 -118 -160 0
-183 -158 -184 -118 -160 0
-187 -158 -188 -118 -160 0
-172 -166 -173 -118 -168 0
-178 -166 -179 -118 -168 0
-183 -166 -184 -118 -168 0
-187 -166 -188 -118 -168 0
-178 -173 -179 -118 -175 0
-183 -173 -184 -118 -175 0
-187 -173 -188 -118 -175 0
-183 -179 -184 -118 -181 0
-187 -179 -188 -118 -181 0
-187 -184 -188 -118 -186 0
-148 -139 -149 -130 -141 0
-157 -139 -158 -130 -141 0
-165 -139 -166 -130 -141 0
-172 -139 -173 -130 -141 0
-178 -139 -179 -130 -141 0
-183 -139 -184 -130 -141 0
-187 -139 -188 -130 -141 0
-157 -149 -158 -130 -151 0
-165 -149 -166 -130 -151 0
-172 -149 -173 -130 -151 0
-178 -149 -179 -130 -151 0
-183 -149 -184 -130 -151 0
-187 -149 -188 -130 -151 0
-165 -158 -166 -130 -160 0
-172 -158 -173 -130 -160 0
-178 -158 -179 -130 -160 0
-183 -158 -184 -130 -160 0
-187 -158 -188 -130 -160 0
-172 -166 -173 -130 -168 0
-178 -166 -179 -130 -168 0
-183 -166 -184 -130 -168 0
-187 -166 -188 -130 -168 0
-178 -173 -179 -130 -175 0
-183 -173 -184 -130 -175 0
-187 -173 -188 -130 -175 0
-183 -179 -184 -130 -181 0
-187 -179 -188 -130 -181 0
-187 -184 -188 -130 -186 0
-157 -149 -158 -141 -151 0
-165 -149 -166 -141 -151 0
-172 -149 -173 -141 -151 0
-178 -149 -179 -141 -151 0
-183 -149 -184 -141 -151 0
-187 -149 -188 -141 -151 0
-165 -158 -166 -141 -160 0
-172 -158 -173 -141 -160 0
-178 -158 -179 -141 -160 0
-183 -158 -184 -141 -160 0
-187 -158 -188 -141 -160 0
-172 -166 -173 -141 -168 0
-178 -166 -179 -141 -168 0
-183 -166 -184 -141 -168 0
-187 -166 -188 -141 -168 0
-178 -173 -179 -141 -175 0
-183 -173 -184 -141 -175 0
-187 -173 -188 -141 -175 0
-183 -179 -184 -141 -181 0
-187 -179 -188 -141 -181 0
-187 -184 -188 -141 -186 0
-165 -158 -166 -151 -160 0
-172 -158 -173 -151 -160 0
-178 -158 -179 -151 -160 0
-183 -158 -184 -151 -160 0
-187 -158 -188 -151 -160 0
-172 -166 -173 -151 -168 0
-178 -166 -179 -151 -168 0
-183 -166 -184 -151 -168 0
-187 -166 -188 -151 -168 0
-178 -173 -179 -151 -175 0
-183 -173 -184 -151 -175 0
-187 -173 -188 -151 -175 0
-183 -179 -184 -151 -181 0
-187 -179 -188 -151 -181 0
-187 -184 -188 -151 -186 0
-172 -166 -173 -160 -168 0
-178 -166 -179 -160 -168 0
-183 -166 -184 -160 -168 0
-187 -166 -188 -160 -168 0
-178 -173 -179 -160 -175 0
-183 -173 -184 -160 -175 0
-187 -173 -188 -160 -175 0
-183 -179 -184 -160 -181 0
-187 -179 -188 -160 -181 0
-187 -184 -188 -160 -186 0
-178 -173 -179 -168 -175 0
-183 -173 -184 -168 -175 0
-187 -173 -188 -168 -175 0
-183 -179 -184 -168 -181 0
-187 -179 -188 -168 -181 0
-187 -184 -188 -168 -186 0
-183 -179 -184 -175 -181 0
-187 -179 -188 -175 -181 0
-187 -184 -188 -175 -186 0
-187 -184 -188 -181 -186 0
-138 -128 -139 -92 -93 0
-148 -128 -149 -92 -93 0
-157 -128 -158 -92 -93 0
-165 -128 -166 -92 -93 0
-172 -128 -173 -92 -93 0
-178 -128 -179 -92 -93 0
-183 -128 -184 -92 -93 0
-187 -128 -188 -92 -93 0
-148 -139 -149 -92 -94 0
-157 -139 -158 -92 -94 0
-165 -139 -166 -92 -94 0
-172 -139 -173 -92 -94 0
-178 -139 -179 -92 -94 0
-183 -139 -184 -92 -94 0
-187 -139 -188 -92 -94 0
-157 -149 -158 -92 -95 0
-165 -149 -166 -92 -95 0
-172 -149 -173 -92 -95 0
-178 -149 -179 -92 -95 0
-183 -149 -184 -92 -95 0
-187 -149 -188 -92 -95 0
-165 -158 -166 -92 -96 0
-172 -158 -173 -92 -96 0
-178 -158 -179 -92 -96 0
-183 -158 -184 -92 -96 0
-187 -158 -188 -92 -96 0
-172 -166 -173 -92 -97 0
-178 -166 -179 -92 -97 0
-183 -166 -184 -92 -97 0
-187 -166 -188 -92 -97 0
-178 -173 -179 -92 -98 0
-183 -173 -184 -92 -98 0
-187 -173 -188 -92 -98 0
-183 -179 -184 -92 -99 0
-187 -179 -188 -92 -99 0
-187 -184 -188 -92 -100 0
-148 -139 -149 -93 -94 0
-157 -139 -158 -93 -94 0
-165 -139 -166 -93 -94 0
-172 -139 -173 -93 -94 0
-178 -139 -179 -93 -94 0
-183 -139 -184 -93 -94 0
-187 -139 -188 -93 -94 0
-157 -149 -158 -93 -95 0
-165 -149 -166 -93 -95 0
-172 -149 -173 -93 -95 0
-178 -149 -179 -93 -95 0
-183 -149 -184 -93 -95 0
-187 -149 -188 -93 -95 0
-165 -158 -166 -93 -96 0
-172 -158 -173 -93 -96 0
-178 -158 -179 -93 -96 0
-183 -158 -184 -93 -96 0
-187 -158 -188 -93 -96 0
-172 -166 -173 -93 -97 0
-178 -166 -179 -93 -97 0
-183 -166 -184 -93 -97 0
-187 -166 -188 -93 -97 0
-178 -173 -179 -93 -98 0
-183 -173 -184 -93 -98 0
-187 -173 -188 -93 -98 0
-183 -179 -184 -93 -99 0
-187 -179 -188 -93 -99 0
-187 -184 -188 -93 -100 0
-157 -149 -158 -94 -95 0
-165 -149 -166 -94 -95 0
-172 -149 -173 -94 -95 0
-178 -149 -179 -94 -95 0
-183 -149 -184 -94 -95 0
-187 -149 -188 -94 -95 0
-165 -158 -166 -94 -96 0
-172 -158 -173 -94 -96 0
-178 -158 -179 -94 -96 0
-183 -158 -184 -94 -96 0
-187 -158 -188 -94 -96 0
-172 -166 -173 -94 -97 0
-178 -166 -179 -94 -97 0
-183 -166 -184 -94 -97 0
-187 -166 -188 -94 -97 0
-178 -173 -179 -94 -98 0
-183 -173 -184 -94 -98 0
-187 -173 -188 -94 -98 0
-183 -179 -184 -94 -99 0
-187 -179 -188 -94 -99 0
-187 -184 -188 -94 -100 0
-165 -158 -166 -95 -96 0
-172 -158 -173 -95 -96 0
-178 -158 -179 -95 -96 0
-183 -158 -184 -95 -96 0
-187 -158 -188 -95 -96 0
-172 -166 -173 -95 -97 0
-178 -166 -179 -95 -97 0
-183 -166 -184 -95 -97 0
-187 -166 -188 -95 -97 0
-178 -173 -179 -95 -98 0
-183 -173 -184 -95 -98 0
-187 -173 -188 -95 -98 0
-183 -179 -184 -95 -99 0
-187 -179 -188 -95 -99 0
-187 -184 -188 -95 -100 0
-172 -166 -173 -96 -97 0
-178 -166 -179 -96 -97 0
-183 -166 -184 -96 -97 0
-187 -166 -188 -96 -97 0
-178 -173 -179 -96 -98 0
-183 -173 -184 -96 -98 0
-187 -173 -188 -96 -98 0
-183 -179 -184 -96 -99 0
-187 -179 -188 -96 -99 0
-187 -184 -188 -96 -100 0
-178 -173 -179 -97 -98 0
-183 -173 -184 -97 -98 0
-187 -173 -188 -97 -98 0
-183 -179 -184 -97 -99 0
-187 -179 -188 -97 -99 0
-187 -184 -188 -97 -100 0
-183 -179 -184 -98 -99 0
-187 -179 -188 -98 -99 0
-187 -184 -188 -98 -100 0
-187 -184 -188 -99 -100 0
-148 -139 -149 -106 -107 0
-157 -139 -158 -106 -107 0
-165 -139 -166 -106 -107 0
-172 -139 -173 -106 -107 0
-178 -139 -179 -106 -107 0
-183 -139 -184 -106 -107 0
-187 -139 -188 -106 -107 0
-157 -149 -158 -106 -108 0
-165 -149 -166 -106 -108 0
-172 -149 -173 -106 -108 0
-178 -149 -179 -106 -108 0
-183 -149 -184 -106 -108 0
-187 -149 -188 -106 -108 0
-165 -158 -166 -106 -109 0
-172 -158 -173 -106 -109 0
-178 -158 -179 -106 -109 0
-183 -158 -184 -106 -109 0
-187 -158 -188 -106 -109 0
-172 -166 -173 -106 -110 0
-178 -166 -179 -106 -110 0
-183 -166 -184 -106 -110 0
-187 -166 -188 -106 -110 0
-178 -173 -179 -106 -111 0
-183 -173 -184 -106 -111 0
-187 -173 -188 -106 -111 0
-183 -179 -184 -106 -112 0
-187 -179 -188 -106 -112 0
-187 -184 -188 -106 -113 0
-157 -149 -158 -107 -108 0
-165 -149 -166 -107 -108 0
-172 -149 -173 -107 -108 0
-178 -149 -179 -107 -108 0
-183 -149 -184 -107 -108 0
-187 -149 -188 -107 -108 0
-165 -158 -166 -107 -109 0
-172 -158 -173 -107 -109 0
-178 -158 -179 -107 -109 0
-183 -158 -184 -107 -109 0
-187 -158 -188 -107 -109 0
-172 -166 -173 -107 -110 0
-178 -166 -179 -107 -110 0
-183 -166 -184 -107 -110 0
-187 -166 -188 -107 -110 0
-178 -173 -179 -107 -111 0
-183 -173 -184 -107 -111 0
-187 -173 -188 -107 -111 0
-183 -179 -184 -107 -112 0
-187 -179 -188 -107 -112 0
-187 -184 -188 -107 -113 0
-165 -158 -166 -108 -109 0
-172 -158 -173 -108 -109 0
-178 -158 -179 -108 -109 0
-183 -158 -184 -108 -109 0
-187 -158 -188 -108 -109 0
-172 -166 -173 -108 -110 0
-178 -166 -179 -108 -110 0
-183 -166 -184 -108 -110 0
-187 -166 -188 -108 -110 0
-178 -173 -179 -108 -111 0
-183 -173 -184 -108 -111 0
-187 -173 -188 -108 -111 0
-183 -179 -184 -108 -112 0
-187 -179 -188 -108 -112 0
-187 -184 -188 -108 -113 0
-172 -166 -173 -109 -110 0
-178 -166 -179 -109 -110 0
-183 -166 -184 -109 -110 0
-187 -166 -188 -109 -110 0
-178 -173 -179 -109 -111 0
-183 -173 -184 -109 -111 0
-187 -173 -188 -109 -111 0
-183 -179 -184 -109 -112 0
-187 -179 -188 -109 -112 0
-187 -184 -188 -109 -113 0
-178 -173 -179 -110 -111 0
-183 -173 -184 -110 -111 0
-187 -173 -188 -110 -111 0
-183 -179 -184 -110 -112 0
-187 -179 -188 -110 -112 0
-187 -184 -188 -110 -113 0
-183 -179 -184 -111 -112 0
-187 -179 -188 -111 -112 0
-187 -184 -188 -111 -113 0
-187 -184 -188 -112 -113 0
-157 -149 -158 -119 -120 0
-165 -149 -166 -119 -120 0
-172 -149 -173 -119 -120 0
-178 -149 -179 -119 -120 0
-183 -149 -184 -119 -120 0
-187 -149 -188 -119 -120 0
-165 -158 -166 -119 -121 0
-172 -158 -173 -119 -121 0
-178 -158 -179 -119 -121 0
-183 -158 -184 -119 -121 0
-187 -158 -188 -119 -121 0
-172 -166 -173 -119 -122 0
-178 -166 -179 -119 -122 0
-183 -166 -184 -119 -122 0
-187 -166 -188 -119 -122 0
-178 -173 -179 -119 -123 0
-183 -173 -184 -119 -123 0
-187 -173 -188 -119 -123 0
-183 -179 -184 -119 -124 0
-187 -179 -188 -119 -124 0
-187 -184 -188 -119 -125 0
-165 -158 -166 -120 -121 0
-172 -158 -173 -120 -121 0
-178 -158 -179 -120 -121 0
-183 -158 -184 -120 -121 0
-187 -158 -188 -120 -121 0
-172 -166 -173 -120 -122 0
-178 -166 -179 -120 -122 0
-183 -166 -184 -120 -122 0
-187 -166 -188 -120 -122 0
-178 -173 -179 -120 -123 0
-183 -173 -184 -120 -123 0
-187 -173 -188 -120 -123 0
-183 -179 -184 -120 -124 0
-187 -179 -188 -120 -124 0
-187 -184 -188 -120 -125 0
-172 -166 -173 -121 -122 0
-178 -166 -179 -121 -122 0
-183 -166 -184 -121 -122 0
-187 -166 -188 -121 -122 0
-178 -173 -179 -121 -123 0
-183 -173 -184 -121 -123 0
-187 -173 -188 -121 -123 0
-183 -179 -184 -121 -124 0
-187 -179 -188 -121 -124 0
-187 -184 -188 -121 -125 0
-178 -173 -179 -122 -123 0
-183 -173 -184 -122 -123 0
-187 -173 -188 -122 -123 0
-183 -179 -184 -122 -124 0
-187 -179 -188 -122 -124 0
-187 -184 -188 -122 -125 0
-183 -179 -184 -123 -124 0
-187 -179 -188 -123 -124 0
-187 -184 -188 -123 -125 0
-187 -184 -188 -124 -125 0
-165 -158 -166 -131 -132 0
-172 -158 -173 -131 -132 0
-178 -158 -179 -131 -132 0
-183 -158 -184 -131 -132 0
-187 -158 -188 -131 -132 0
-172 -166 -173 -131 -133 0
-178 -166 -179 -131 -133 0
-183 -166 -184 -131 -133 0
-187 -166 -188 -131 -133 0
-178 -173 -179 -131 -134 0
-183 -173 -184 -131 -134 0
-187 -173 -188 -131 -134 0
-183 -179 -184 -131 -135 0
-187 -179 -188 -131 -135 0
-187 -184 -188 -131 -136 0
-172 -166 -173 -132 -133 0
-178 -166 -179 -132 -133 0
-183 -166 -184 -132 -133 0
-187 -166 -188 -132 -133 0
-178 -173 -179 -132 -134 0
-183 -173 -184 -132 -134 0
-187 -173 -188 -132 -134 0
-183 -179 -184 -132 -135 0
-187 -179 -188 -132 -135 0
-187 -184 -188 -132 -136 0
-178 -173 -179 -133 -134 0
-183 -173 -184 -133 -134 0
-187 -173 -188 -133 -134 0
-183 -179 -184 -133 -135 0
-187 -179 -188 -133 -135 0
-187 -184 -188 -133 -136 0
-183 -179 -184 -134 -135 0
-187 -179 -188 -134 -135 0
-187 -184 -188 -134 -136 0
-187 -184 -188 -135 -136 0
-172 -166 -173 -142 -143 0
-178 -166 -179 -142 -143 0
-183 -166 -184 -142 -143 0
-187 -166 -188 -142 -143 0
-178 -173 -179 -142 -144 0
-183 -173 -184 -142 -144 0
-187 -173 -188 -142 -144 0
-183 -179 -184 -142 -145 0
-187 -179 -188 -142 -145 0
-187 -184 -188 -142 -146 0
-178 -173 -179 -143 -144 0
-183 -173 -184 -143 -144 0
-187 -173 -188 -143 -144 0
-183 -179 -184 -143 -145 0
-187 -179 -188 -143 -145 0
-187 -184 -188 -143 -146 0
-183 -179 -184 -144 -145 0
-187 -179 -188 -144 -145 0
-187 -184 -188 -144 -146 0
-187 -184 -188 -145 -146 0
-178 -173 -179 -152 -153 0
-183 -173 -184 -152 -153 0
-187 -173 -188 -152 -153 0
-183 -179 -184 -152 -154 0
-187 -179 -188 -152 -154 0
-187 -184 -188 -152 -155 0
-183 -179 -184 -153 -154 0
-187 -179 -188 -153 -154 0
-187 -184 -188 -153 -155 0
-187 -184 -188 -154 -155 0
-183 -179 -184 -161 -162 0
-187 -179 -188 -161 -162 0
-187 -184 -188 -161 -163 0
-187 -184 -188 -162 -163 0
-187 -184 -188 -169 -170 0
-127 -117 -129 -105 -118 0
-138 -117 -140 -105 -118 0
-148 -117 -150 -105 -118 0
-157 -117 -159 -105 -118 0
-165 -117 -167 -105 -118 0
-172 -117 -174 -105 -118 0
-178 -117 -180 -105 -118 0
-183 -117 -185 -105 -118 0
-187 -117 -189 -105 -118 0
-138 -129 -140 -105 -130 0
-148 -129 -150 -105 -130 0
-157 -129 -159 -105 -130 0
-165 -129 -167 -105 -130 0
-172 -129 -174 -105 -130 0
-178 -129 -180 -105 -130 0
-183 -129 -185 -105 -130 0
-187 -129 -189 -105 -130 0
-148 -140 -150 -105 -141 0
-157 -140 -159 -105 -141 0
-165 -140 -167 -105 -141 0
-172 -140 -174 -105 -141 0
-178 -140 -180 -105 -141 0
-183 -140 -185 -105 -141 0
-187 -140 -189 -105 -141 0
-157 -150 -159 -105 -151 0
-165 -150 -167 -105 -151 0
-172 -150 -174 -105 -151 0
-178 -150 -180 -105 -151 0
-183 -150 -185 -105 -151 0
-187 -150 -189 -105 -151 0
-165 -159 -167 -105 -160 0
-172 -159 -174 -105 -160 0
-178 -159 -180 -105 -160 0
-183 -159 -185 -105 -160 0
-187 -159 -189 -105 -160 0
-172 -167 -174 -105 -168 0
-178 -167 -180 -105 -168 0
-183 -167 -185 -105 -168 0
-187 -167 -189 -105 -168 0
-178 -174 -180 -105 -175 0
-183 -174 -185 -105 -175 0
-187 -174 -189 -105 -175 0
-183 -180 -185 -105 -181 0
-187 -180 -189 -105 -181 0
-187 -185 -189 -105 -186 0
-138 -129 -140 -118 -130 0
-148 -129 -150 -118 -130 0
-157 -129 -159 -118 -130 0
-165 -129 -167 -118 -130 0
-172 -129 -174 -118 -130 0
-178 -129 -180 -118 -130 0
-183 -129 -185 -118 -130 0
-187 -129 -189 -118 -130 0
-148 -140 -150 -118 -141 0
-157 -140 -159 -118 -141 0
-165 -140 -167 -118 -141 0
-172 -140 -174 -118 -141 0
-178 -140 -180 -118 -141 0
-183 -140 -185 -118 -141 0
-187 -140 -189 -118 -141 0
-157 -150 -159 -118 -151 0
-165 -150 -167 -118 -151 0
-172 -150 -174 -118 -151 0
-178 -150 -180 -118 -151 0
-183 -150 -185 -118 -151 0
-187 -150 -189 -118 -151 0
-165 -159 -167 -118 -160 0
-172 -159 -174 -118 -160 0
-178 -159 -180 -118 -160 0
-183 -159 -185 -118 -160 0
-187 -159 -189 -118 -160 0
-172 -167 -174 -118 -168 0
-178 -167 -180 -118 -168 0
-183 -167 -185 -118 -168 0
-187 -167 -189 -118 -168 0
-178 -174 -180 -118 -175 0
-183 -174 -185 -118 -175 0
-187 -174 -189 -118 -175 0
-183 -180 -185 -118 -181 0
-187 -180 -189 -118 -181 0
-187 -185 -189 -118 -186 0
-148 -140 -150 -130 -141 0
-157 -140 -159 -130 -141 0
-165 -140 -167 -130 -141 0
-172 -140 -174 -130 -141 0
-178 -140 -180 -130 -141 0
-183 -140 -185 -130 -141 0
-187 -140 -189 -130 -141 0
-157 -150 -159 -130 -151 0
-165 -150 -167 -130 -151 0
-172 -150 -174 -130 -151 0
-178 -150 -180 -130 -151 0
-183 -150 -185 -130 -151 0
-187 -150 -189 -130 -151 0
-165 -159 -167 -130 -160 0
-172 -159 -174 -130 -160 0
-178 -159 -180 -130 -160 0
-183 -159 -185 -130 -160 0
-187 -159 -189 -130 -160 0
-172 -167 -174 -130 -168 0
-178 -167 -180 -130 -168 0
-183 -167 -185 -130 -168 0
-187 -167 -189 -130 -168 0
-178 -174 -180 -130 -175 0
-183 -174 -185 -130 -175 0
-187 -174 -189 -130 -175 0
-183 -180 -185 -130 -181 0
-187 -180 -189 -130 -181 0
-187 -185 -189 -130 -186 0
-157 -150 -159 -141 -151 0
-165 -150 -167 -141 -151 0
-172 -150 -174 -141 -151 0
-178 -150 -180 -141 -151 0
-183 -150 -185 -141 -151 0
-187 -150 -189 -141 -151 0
-165 -159 -167 -141 -160 0
-172 -159 -174 -141 -160 0
-178 -159 -180 -141 -160 0
-183 -159 -185 -141 -160 0
-187 -159 -189 -141 -160 0
-172 -167 -174 -141 -168 0
-178 -167 -180 -141 -168 0
-183 -167 -185 -141 -168 0
-187 -167 -189 -141 -168 0
-178 -174 -180 -141 -175 0
-183 -174 -185 -141 -175 0
-187 -174 -189 -141 -175 0
-183 -180 -185 -141 -181 0
-187 -180 -189 -141 -181 0
-187 -185 -189 -141 -186 0
-165 -159 -167 -151 -160 0
-172 -159 -174 -151 -160 0
-178 -159 -180 -151 -160 0
-183 -159 -185 -151 -160 0
-187 -159 -189 -151 -160 0
-172 -167 -174 -151 -168 0
-178 -167 -180 -151 -168 0
-183 -167 -185 -151 -168 0
-187 -167 -189 -151 -168 0
-178 -174 -180 -151 -175 0
-183 -174 -185 -151 -175 0
-187 -174 -189 -151 -175 0
-183 -180 -185 -151 -181 0
-187 -180 -189 -151 -181 0
-187 -185 -189 -151 -186 0
-172 -167 -174 -160 -168 0
-178 -167 -180 -160 -168 0
-183 -167 -185 -160 -168 0
-187 -167 -189 -160 -168 0
-178 -174 -180 -160 -175 0
-183 -174 -185 -160 -175 0
-187 -174 -189 -160 -175 0
-183 -180 -185 -160 -181 0
-187 -180 -189 -160 -181 0
-187 -185 -189 -160 -186 0
-178 -174 -180 -168 -175 0
-183 -174 -185 -168 -175 0
-187 -174 -189 -168 -175 0
-183 -180 -185 -168 -181 0
-187 -180 -189 -168 -181 0
-187 -185 -189 -168 -186 0
-183 -180 -185 -175 -181 0
-187 -180 -189 -175 -181 0
-187 -185 -189 -175 -186 0
-187 -185 -189 -181 -186 0
-138 -129 -140 -92 -93 0
-148 -129 -150 -92 -93 0
-157 -129 -159 -92 -93 0
-165 -129 -167 -92 -93 0
-172 -129 -174 -92 -93 0
-178 -129 -180 -92 -93 0
-183 -129 -185 -92 -93 0
-187 -129 -189 -92 -93 0
-148 -140 -150 -92 -94 0
-157 -140 -159 -92 -94 0
-165 -140 -167 -92 -94 0
-172 -140 -174 -92 -94 0
-178 -140 -180 -92 -94 0
-183 -140 -185 -92 -94 0
-187 -140 -189 -92 -94 0
-157 -150 -159 -92 -95 0
-165 -150 -167 -92 -95 0
-172 -150 -174 -92 -95 0
-178 -150 -180 -92 -95 0
-183 -150 -185 -92 -95 0
-187 -150 -189 -92 -95 0
-165 -159 -167 -92 -96 0
-172 -159 -174 -92 -96 0
-178 -159 -180 -92 -96 0
-183 -159 -185 -92 -96 0
-187 -159 -189 -92 -96 0
-172 -167 -174 -92 -97 0
-178 -167 -180 -92 -97 0
-183 -167 -185 -92 -97 0
-187 -167 -189 -92 -97 0
-178 -174 -180 -92 -98 0
-183 -174 -185 -92 -98 0
-187 -174 -189 -92 -98 0
-183 -180 -185 -92 -99 0
-187 -180 -189 -92 -99 0
-187 -185 -189 -92 -100 0
-148 -140 -150 -93 -94 0
-157 -140 -159 -93 -94 0
-165 -140 -167 -93 -94 0
-172 -140 -174 -93 -94 0
-178 -140 -180 -93 -94 0
-183 -140 -185 -93 -94 0
-187 -140 -189 -93 -94 0
-157 -150 -159 -93 -95 0
-165 -150 -167 -93 -95 0
-172 -150 -174 -93 -95 0
-178 -150 -180 -93 -95 0
-183 -150 -185 -93 -95 0
-187 -150 -189 -93 -95 0
-165 -159 -167 -93 -96 0
-172 -159 -174 -93 -96 0
-178 -159 -180 -93 -96 0
-183 -159 -185 -93 -96 0
-187 -159 -189 -93 -96 0
-172 -167 -174 -93 -97 0
-178 -167 -180 -93 -97 0
-183 -167 -185 -93 -97 0
-187 -167 -189 -93 -97 0
-178 -174 -180 -93 -98 0
-183 -174 -185 -93 -98 0
-187 -174 -189 -93 -98 0
-183 -180 -185 -93 -99 0
-187 -180 -189 -93 -99 0
-187 -185 -189 -93 -100 0
-157 -150 -159 -94 -95 0
-165 -150 -167 -94 -95 0
-172 -150 -174 -94 -95 0
-178 -150 -180 -94 -95 0
-183 -150 -185 -94 -95 0
-187 -150 -189 -94 -95 0
-165 -159 -167 -94 -96 0
-172 -159 -174 -94 -96 0
-178 -159 -180 -94 -96 0
-183 -159 -185 -94 -96 0
-187 -159 -189 -94 -96 0
-172 -167 -174 -94 -97 0
-178 -167 -180 -94 -97 0
-183 -167 -185 -94 -97 0
-187 -167 -189 -94 -97 0
-178 -174 -180 -94 -98 0
-183 -174 -185 -94 -98 0
-187 -174 -189 -94 -98 0
-183 -180 -185 -94 -99 0
-187 -180 -189 -94 -99 0
-187 -185 -189 -94 -100 0
-165 -159 -167 -95 -96 0
-172 -159 -174 -95 -96 0
-178 -159 -180 -95 -96 0
-183 -159 -185 -95 -96 0
-187 -159 -189 -95 -96 0
-172 -167 -174 -95 -97 0
-178 -167 -180 -95 -97 0
-183 -167 -185 -95 -97 0
-187 -167 -189 -95 -97 0
-178 -174 -180 -95 -98 0
-183 -174 -185 -95 -98 0
-187 -174 -189 -95 -98 0
-183 -180 -185 -95 -99 0
-187 -180 -189 -95 -99 0
-187 -185 -189 -95 -100 0
-172 -167 -174 -96 -97 0
-178 -167 -180 -96 -97 0
-183 -167 -185 -96 -97 0
-187 -167 -189 -96 -97 0
-178 -174 -180 -96 -98 0
-183 -174 -185 -96 -98 0
-187 -174 -189 -96 -98 0
-183 -180 -185 -96 -99 0
-187 -180 -189 -96 -99 0
-187 -185 -189 -96 -100 0
-178 -174 -180 -97 -98 0
-183 -174 -185 -97 -98 0
-187 -174 -189 -97 -98 0
-183 -180 -185 -97 -99 0
-187 -180 -189 -97 -99 0
-187 -185 -189 -97 -100 0
-183 -180 -185 -98 -99 0
-187 -180 -189 -98 -99 0
-187 -185 -189 -98 -100 0
-187 -185 -189 -99 -100 0
-148 -140 -150 -106 -107 0
-157 -140 -159 -106 -107 0
-165 -140 -167 -106 -107 0
-172 -140 -174 -106 -107 0
-178 -140 -180 -106 -107 0
-183 -140 -185 -106 -107 0
-187 -140 -189 -106 -107 0
-157 -150 -159 -106 -108 0
-165 -150 -167 -106 -108 0
-172 -150 -174 -106 -108 0
-178 -150 -180 -106 -108 0
-183 -150 -185 -106 -108 0
-187 -150 -189 -106 -108 0
-165 -159 -167 -106 -109 0
-172 -159 -174 -106 -109 0
-178 -159 -180 -106 -109 0
-183 -159 -185 -106 -109 0
-187 -159 -189 -106 -109 0
-172 -167 -174 -106 -110 0
-178 -167 -180 -106 -110 0
-183 -167 -185 -106 -110 0
-187 -167 -189 -106 -110 0
-178 -174 -180 -106 -111 0
-183 -174 -185 -106 -111 0
-187 -174 -189 -106 -111 0
-183 -180 -185 -106 -112 0
-187 -180 -189 -106 -112 0
-187 -185 -189 -106 -113 0
-157 -150 -159 -107 -108 0
-165 -150 -167 -107 -108 0
-172 -150 -174 -107 -108 0
-178 -150 -180 -107 -108 0
-183 -150 -185 -107 -108 0
-187 -150 -189 -107 -108 0
-165 -159 -167 -107 -109 0
-172 -159 -174 -107 -109 0
-178 -159 -180 -107 -109 0
-183 -159 -185 -107 -109 0
-187 -159 -189 -107 -109 0
-172 -167 -174 -107 -110 0
-178 -167 -180 -107 -110 0
-183 -167 -185 -107 -110 0
-187 -167 -189 -107 -110 0
-178 -174 -180 -107 -111 0
-183 -174 -185 -107 -111 0
-187 -174 -189 -107 -111 0
-183 -180 -185 -107 -112 0
-187 -180 -189 -107 -112 0
-187 -185 -189 -107 -113 0
-165 -159 -167 -108 -109 0
-172 -159 -174 -108 -109 0
-178 -159 -180 -108 -109 0
-183 -159 -185 -108 -109 0
-187 -159 -189 -108 -109 0
-172 -167 -174 -108 -110 0
-178 -167 -180 -108 -110 0
-183 -167 -185 -108 -110 0
-187 -167 -189 -108 -110 0
-178 -174 -180 -108 -111 0
-183 -174 -185 -108 -111 0
-187 -174 -189 -108 -111 0
-183 -180 -185 -108 -112 0
-187 -180 -189 -108 -112 0
-187 -185 -189 -108 -113 0
-172 -167 -174 -109 -110 0
-178 -167 -180 -109 -110 0
-183 -167 -185 -109 -110 0
-187 -167 -189 -109 -110 0
-178 -174 -180 -109 -111 0
-183 -174 -185 -109 -111 0
-187 -174 -189 -109 -111 0
-183 -180 -185 -109 -112 0
-187 -180 -189 -109 -112 0
-187 -185 -189 -109 -113 0
-178 -174 -180 -110 -111 0
-183 -174 -185 -110 -111 0
-187 -174 -189 -110 -111 0
-183 -180 -185 -110 -112 0
-187 -180 -189 -110 -112 0
-187 -185 -189 -110 -113 0
-183 -180 -185 -111 -112 0
-187 -180 -189 -111 -112 0
-187 -185 -189 -111 -113 0
-187 -185 -189 -112 -113 0
-157 -150 -159 -119 -120 0
-165 -150 -167 -119 -120 0
-172 -150 -174 -119 -120 0
-178 -150 -180 -119 -120 0
-183 -150 -185 -119 -120 0
-187 -150 -189 -119 -120 0
-165 -159 -167 -119 -121 0
-172 -159 -174 -119 -121 0
-178 -159 -180 -119 -121 0
-183 -159 -185 -119 -121 0
-187 -159 -189 -119 -121 0
-172 -167 -174 -119 -122 0
-178 -167 -180 -119 -122 0
-183 -167 -185 -119 -122 0
-187 -167 -189 -119 -122 0
-178 -174 -180 -119 -123 0
-183 -174 -185 -119 -123 0
-187 -174 -189 -119 -123 0
-183 -180 -185 -119 -124 0
-187 -180 -189 -119 -124 0
-187 -185 -189 -119 -125 0
-165 -159 -167 -120 -121 0
-172 -159 -174 -120 -121 0
-178 -159 -180 -120 -121 0
-183 -159 -185 -120 -121 0
-187 -159 -189 -120 -121 0
-172 -167 -174 -120 -122 0
-178 -167 -180 -120 -122 0
-183 -167 -185 -120 -122 0
-187 -167 -189 -120 -122 0
-178 -174 -180 -120 -123 0
-183 -174 -185 -120 -123 0
-187 -174 -189 -120 -123 0
-183 -180 -185 -120 -124 0
-187 -180 -189 -120 -124 0
-187 -185 -189 -120 -125 0
-172 -167 -174 -121 -122 0
-178 -167 -180 -121 -122 0
-183 -167 -185 -121 -122 0
-187 -167 -189 -121 -122 0
-178 -174 -180 -121 -123 0
-183 -174 -185 -121 -123 0
-187 -174 -189 -121 -123 0
-183 -180 -185 -121 -124 0
-187 -180 -189 -121 -124 0
-187 -185 -189 -121 -125 0
-178 -174 -180 -122 -123 0
-183 -174 -185 -122 -123 0
-187 -174 -189 -122 -123 0
-183 -180 -185 -122 -124 0
-187 -180 -189 -122 -124 0
-187 -185 -189 -122 -125 0
-183 -180 -185 -123 -124 0
-187 -180 -189 -123 -124 0
-187 -185 -189 -123 -125 0
-187 -185 -189 -124 -125 0
-165 -159 -167 -131 -132 0
-172 -159 -174 -131 -132 0
-178 -159 -180 -131 -132 0
-183 -159 -185 -131 -132 0
-187 -159 -189 -131 -132 0
-172 -167 -174 -131 -133 0
-178 -167 -180 -131 -133 0
-183 -167 -185 -131 -133 0
-187 -167 -189 -131 -133 0
-178 -174 -180 -131 -134 0
-183 -174 -185 -131 -134 0
-187 -174 -189 -131 -134 0
-183 -180 -185 -131 -135 0
-187 -180 -189 -131 -135 0
-187 -185 -189 -131 -136 0
-172 -167 -174 -132 -133 0
-178 -167 -180 -132 -133 0
-183 -167 -185 -132 -133 0
-187 -167 -189 -132 -133 0
-178 -174 -180 -132 -134 0
-183 -174 -185 -132 -134 0
-187 -174 -189 -132 -134 0
-183 -180 -185 -132 -135 0
-187 -180 -189 -132 -135 0
-187 -185 -189 -132 -136 0
-178 -174 -180 -133 -134 0
-183 -174 -185 -133 -134 0
-187 -174 -189 -133 -134 0
-183 -180 -185 -133 -135 0
-187 -180 -189 -133 -135 0
-187 -185 -189 -133 -136 0
-183 -180 -185 -134 -135 0
-187 -180 -189 -134 -135 0
-187 -185 -189 -134 -136 0
-187 -185 -189 -135 -136 0
-172 -167 -174 -142 -143 0
-178 -167 -180 -142 -143 0
-183 -167 -185 -142 -143 0
-187 -167 -189 -142 -143 0
-178 -174 -180 -142 -144 0
-183 -174 -185 -142 -144 0
-187 -174 -189 -142 -144 0
-183 -180 -185 -142 -145 0
-187 -180 -189 -142 -145 0
-187 -185 -189 -142 -146 0
-178 -174 -180 -143 -144 0
-183 -174 -185 -143 -144 0
-187 -174 -189 -143 -144 0
-183 -180 -185 -143 -145 0
-187 -180 -189 -143 -145 0
-187 -185 -189 -143 -146 0
-183 -180 -185 -144 -145 0
-187 -180 -189 -144 -145 0
-187 -185 -189 -144 -146 0
-187 -185 -189 -145 -146 0
-178 -174 -180 -152 -153 0
-183 -174 -185 -152 -153 0
-187 -174 -189 -152 -153 0
-183 -180 -185 -152 -154 0
-187 -180 -189 -152 -154 0
-187 -185 -189 -152 -155 0
-183 -180 -185 -153 -154 0
-187 -180 -189 -153 -154 0
-187 -185 -189 -153 -155 0
-187 -185 -189 -154 -155 0
-183 -180 -185 -161 -162 0
-187 -180 -189 -161 -162 0
-187 -185 -189 -161 -163 0
-187 -185 -189 -162 -163 0
-187 -185 -189 -169 -170 0
-138 -130 -141 -92 -93 0
-148 -130 -151 -92 -93 0
-157 -130 -160 -92 -93 0
-165 -130 -168 -92 -93 0
-172 -130 -175 -92 -93 0
-178 -130 -181 -92 -93 0
-183 -130 -186 -92 -93 0
-187 -130 -190 -92 -93 0
-148 -141 -151 -92 -94 0
-157 -141 -160 -92 -94 0
-165 -141 -168 -92 -94 0
-172 -141 -175 -92 -94 0
-178 -141 -181 -92 -94 0
-183 -141 -186 -92 -94 0
-187 -141 -190 -92 -94 0
-157 -151 -160 -92 -95 0
-165 -151 -168 -92 -95 0
-172 -151 -175 -92 -95 0
-178 -151 -181 -92 -95 0
-183 -151 -186 -92 -95 0
-187 -151 -190 -92 -95 0
-165 -160 -168 -92 -96 0
-172 -160 -175 -92 -96 0
-178 -160 -181 -92 -96 0
-183 -160 -186 -92 -96 0
-187 -160 -190 -92 -96 0
-172 -168 -175 -92 -97 0
-178 -168 -181 -92 -97 0
-183 -168 -186 -92 -97 0
-187 -168 -190 -92 -97 0
-178 -175 -181 -92 -98 0
-183 -175 -186 -92 -98 0
-187 -175 -190 -92 -98 0
-183 -181 -186 -92 -99 0
-187 -181 -190 -92 -99 0
-187 -186 -190 -92 -100 0
-148 -141 -151 -93 -94 0
-157 -141 -160 -93 -94 0
-165 -141 -168 -93 -94 0
-172 -141 -175 -93 -94 0
-178 -141 -181 -93 -94 0
-183 -141 -186 -93 -94 0
-187 -141 -190 -93 -94 0
-157 -151 -160 -93 -95 0
-165 -151 -168 -93 -95 0
-172 -151 -175 -93 -95 0
-178 -151 -181 -93 -95 0
-183 -151 -186 -93 -95 0
-187 -151 -190 -93 -95 0
-165 -160 -168 -93 -96 0
-172 -160 -175 -93 -96 0
-178 -160 -181 -93 -96 0
-183 -160 -186 -93 -96 0
-187 -160 -190 -93 -96 0
-172 -168 -175 -93 -97 0
-178 -168 -181 -93 -97 0
-183 -168 -186 -93 -97 0
-187 -168 -190 -93 -97 0
-178 -175 -181 -93 -98 0
-183 -175 -186 -93 -98 0
-187 -175 -190 -93 -98 0
-183 -181 -186 -93 -99 0
-187 -181 -190 -93 -99 0
-187 -186 -190 -93 -100 0
-157 -151 -160 -94 -95 0
-165 -151 -168 -94 -95 0
-172 -151 -175 -94 -95 0
-178 -151 -181 -94 -95 0
-183 -151 -186 -94 -95 0
-187 -151 -190 -94 -95 0
-165 -160 -168 -94 -96 0
-172 -160 -175 -94 -96 0
-178 -160 -181 -94 -96 0
-183 -160 -186 -94 -96 0
-187 -160 -190 -94 -96 0
-172 -168 -175 -94 -97 0
-178 -168 -181 -94 -97 0
-183 -168 -186 -94 -97 0
-187 -168 -190 -94 -97 0
-178 -175 -181 -94 -98 0
-183 -175 -186 -94 -98 0
-187 -175 -190 -94 -98 0
-183 -181 -186 -94 -99 0
-187 -181 -190 -94 -99 0
-187 -186 -190 -94 -100 0
-165 -160 -168 -95 -96 0
-172 -160 -175 -95 -96 0
-178 -160 -181 -95 -96 0
-183 -160 -186 -95 -96 0
-187 -160 -190 -95 -96 0
-172 -168 -175 -95 -97 0
-178 -168 -181 -95 -97 0
-183 -168 -186 -95 -97 0
-187 -168 -190 -95 -97 0
-178 -175 -181 -95 -98 0
-183 -175 -186 -95 -98 0
-187 -175 -190 -95 -98 0
-183 -181 -186 -95 -99 0
-187 -181 -190 -95 -99 0
-187 -186 -190 -95 -100 0
-172 -168 -175 -96 -97 0
-178 -168 -181 -96 -97 0
-183 -168 -186 -96 -97 0
-187 -168 -190 -96 -97 0
-178 -175 -181 -96 -98 0
-183 -175 -186 -96 -98 0
-187 -175 -190 -96 -98 0
-183 -181 -186 -96 -99 0
-187 -181 -190 -96 -99 0
-187 -186 -190 -96 -100 0
-178 -175 -181 -97 -98 0
-183 -175 -186 -97 -98 0
-187 -175 -190 -97 -98 0
-183 -181 -186 -97 -99 0
-187 -181 -190 -97 -99 0
-187 -186 -190 -97 -100 0
-183 -181 -186 -98 -99 0
-187 -181 -190 -98 -99 0
-187 -186 -190 -98 -100 0
-187 -186 -190 -99 -100 0
-148 -141 -151 -106 -107 0
-157 -141 -160 -106 -107 0
-165 -141 -168 -106 -107 0
-172 -141 -175 -106 -107 0
-178 -141 -181 -106 -107 0
-183 -141 -186 -106 -107 0
-187 -141 -190 -106 -107 0
-157 -151 -160 -106 -108 0
-165 -151 -168 -106 -108 0
-172 -151 -175 -106 -108 0
-178 -151 -181 -106 -108 0
-183 -151 -186 -106 -108 0
-187 -151 -190 -106 -108 0
-165 -160 -168 -106 -109 0
-172 -160 -175 -106 -109 0
-178 -160 -181 -106 -109 0
-183 -160 -186 -106 -109 0
-187 -160 -190 -106 -109 0
-172 -168 -175 -106 -110 0
-178 -168 -181 -106 -110 0
-183 -168 -186 -106 -110 0
-187 -168 -190 -106 -110 0
-178 -175 -181 -106 -111 0
-183 -175 -186 -106 -111 0
-187 -175 -190 -106 -111 0
-183 -181 -186 -106 -112 0
-187 -181 -190 -106 -112 0
-187 -186 -190 -106 -113 0
-157 -151 -160 -107 -108 0
-165 -151 -168 -107 -108 0
-172 -151 -175 -107 -108 0
-178 -151 -181 -107 -108 0
-183 -151 -186 -107 -108 0
-187 -151 -190 -107 -108 0
-165 -160 -168 -107 -109 0
-172 -160 -175 -107 -109 0
-178 -160 -181 -107 -109 0
-183 -160 -186 -107 -109 0
-187 -160 -190 -107 -109 0
-172 -168 -175 -107 -110 0
-178 -168 -181 -107 -110 0
-183 -168 -186 -107 -110 0
-187 -168 -190 -107 -110 0
-178 -175 -181 -107 -111 0
-183 -175 -186 -107 -111 0
-187 -175 -190 -107 -111 0
-183 -181 -186 -107 -112 0
-187 -181 -190 -107 -112 0
-187 -186 -190 -107 -113 0
-165 -160 -168 -108 -109 0
-172 -160 -175 -108 -109 0
-178 -160 -181 -108 -109 0
-183 -160 -186 -108 -109 0
-187 -160 -190 -108 -109 0
-172 -168 -175 -108 -110 0
-178 -168 -181 -108 -110 0
-183 -168 -186 -108 -110 0
-187 -168 -190 -108 -110 0
-178 -175 -181 -108 -111 0
-183 -175 -186 -108 -111 0
-187 -175 -190 -108 -111 0
-183 -181 -186 -108 -112 0
-187 -181 -190 -108 -112 0
-187 -186 -190 -108 -113 0
-172 -168 -175 -109 -110 0
-178 -168 -181 -109 -110 0
-183 -168 -186 -109 -110 0
-187 -168 -190 -109 -110 0
-178 -175 -181 -109 -111 0
-183 -175 -186 -109 -111 0
-187 -175 -190 -109 -111 0
-183 -181 -186 -109 -112 0
-187 -181 -190 -109 -112 0
-187 -186 -190 -109 -113 0
-178 -175 -181 -110 -111 0
-183 -175 -186 -110 -111 0
-187 -175 -190 -110 -111 0
-183 -181 -186 -110 -112 0
-187 -181 -190 -110 -112 0
-187 -186 -190 -110 -113 0
-183 -181 -186 -111 -112 0
-187 -181 -190 -111 -112 0
-187 -186 -190 -111 -113 0
-187 -186 -190 -112 -113 0
-157 -151 -160 -119 -120 0
-165 -151 -168 -119 -120 0
-172 -151 -175 -119 -120 0
-178 -151 -181 -119 -120 0
-183 -151 -186 -119 -120 0
-187 -151 -190 -119 -120 0
-165 -160 -168 -119 -121 0
-172 -160 -175 -119 -121 0
-178 -160 -181 -119 -121 0
-183 -160 -186 -119 -121 0
-187 -160 -190 -119 -121 0
-172 -168 -175 -119 -122 0
-178 -168 -181 -119 -122 0
-183 -168 -186 -119 -122 0
-187 -168 -190 -119 -122 0
-178 -175 -181 -119 -123 0
-183 -175 -186 -119 -123 0
-187 -175 -190 -119 -123 0
-183 -181 -186 -119 -124 0
-187 -181 -190 -119 -124 0
-187 -186 -190 -119 -125 0
-165 -160 -168 -120 -121 0
-172 -160 -175 -120 -121 0
-178 -160 -181 -120 -121 0
-183 -160 -186 -120 -121 0
-187 -160 -190 -120 -121 0
-172 -168 -175 -120 -122 0
-178 -168 -181 -120 -122 0
-183 -168 -186 -120 -122 0
-187 -168 -190 -120 -122 0
-178 -175 -181 -120 -123 0
-183 -175 -186 -120 -123 0
-187 -175 -190 -120 -123 0
-183 -181 -186 -120 -124 0
-187 -181 -190 -120 -124 0
-187 -186 -190 -120 -125 0
-172 -168 -175 -121 -122 0
-178 -168 -181 -121 -122 0
-183 -168 -186 -121 -122 0
-187 -168 -190 -121 -122 0
-178 -175 -181 -121 -123 0
-183 -175 -186 -121 -123 0
-187 -175 -190 -121 -123 0
-183 -181 -186 -121 -124 0
-187 -181 -190 -121 -124 0
-187 -186 -190 -121 -125 0
-178 -175 -181 -122 -123 0
-183 -175 -186 -122 -123 0
-187 -175 -190 -122 -123 0
-183 -181 -186 -122 -124 0
-187 -181 -190 -122 -124 0
-187 -186 -190 -122 -125 0
-183 -181 -186 -123 -124 0
-187 -181 -190 -123 -124 0
-187 -186 -190 -123 -125 0
-187 -186 -190 -124 -125 0
-165 -160 -168 -131 -132 0
-172 -160 -175 -131 -132 0
-178 -160 -181 -131 -132 0
-183 -160 -186 -131 -132 0
-187 -160 -190 -131 -132 0
-172 -168 -175 -131 -133 0
-178 -168 -181 -131 -133 0
-183 -168 -186 -131 -133 0
-187 -168 -190 -131 -133 0
-178 -175 -181 -131 -134 0
-183 -175 -186 -131 -134 0
-187 -175 -190 -131 -134 0
-183 -181 -186 -131 -135 0
-187 -181 -190 -131 -135 0
-187 -186 -190 -131 -136 0
-172 -168 -175 -132 -133 0
-178 -168 -181 -132 -133 0
-183 -168 -186 -132 -133 0
-187 -168 -190 -132 -133 0
-178 -175 -181 -132 -134 0
-183 -175 -186 -132 -134 0
-187 -175 -190 -132 -134 0
-183 -181 -186 -132 -135 0
-187 -181 -190 -132 -135 0
-187 -186 -190 -132 -136 0
-178 -175 -181 -133 -134 0
-183 -175 -186 -133 -134 0
-187 -175 -190 -133 -134 0
-183 -181 -186 -133 -135 0
-187 -181 -190 -133 -135 0
-187 -186 -190 -133 -136 0
-183 -181 -186 -134 -135 0
-187 -181 -190 -134 -135 0
-187 -186 -190 -134 -136 0
-187 -186 -190 -135 -136 0
-172 -168 -175 -142 -143 0
-178 -168 -181 -142 -143 0
-183 -168 -186 -142 -143 0
-187 -168 -190 -142 -143 0
-178 -175 -181 -142 -144 0
-183 -175 -186 -142 -144 0
-187 -175 -190 -142 -144 0
-183 -181 -186 -142 -145 0
-187 -181 -190 -142 -145 0
-187 -186 -190 -142 -146 0
-178 -175 -181 -143 -144 0
-183 -175 -186 -143 -144 0
-187 -175 -190 -143 -144 0
-183 -181 -186 -143 -145 0
-187 -181 -190 -143 -145 0
-187 -186 -190 -143 -146 0
-183 -181 -186 -144 -145 0
-187 -181 -190 -144 -145 0
-187 -186 -190 -144 -146 0
-187 -186 -190 -145 -146 0
-178 -175 -181 -152 -153 0
-183 -175 -186 -152 -153 0
-187 -175 -190 -152 -153 0
-183 -181 -186 -152 -154 0
-187 -181 -190 -152 -154 0
-187 -186 -190 -152 -155 0
-183 -181 -186 -153 -154 0
-187 -181 -190 -153 -154 0
-187 -186 -190 -153 -155 0
-187 -186 -190 -154 -155 0
-183 -181 -186 -161 -162 0
-187 -181 -190 -161 -162 0
-187 -186 -190 -161 -163 0
-187 -186 -190 -162 -163 0
-187 -186 -190 -169 -170 0
-148 -94 -95 -106 -107 0
-157 -94 -96 -106 -107 0
-165 -94 -97 -106 -107 0
-172 -94 -98 -106 -107 0
-178 -94 -99 -106 -107 0
-183 -94 -100 -106 -107 0
-187 -94 -101 -106 -107 0
-157 -95 -96 -106 -108 0
-165 -95 -97 -106 -108 0
-172 -95 -98 -106 -108 0
-178 -95 -99 -106 -108 0
-183 -95 -100 -106 -108 0
-187 -95 -101 -106 -108 0
-165 -96 -97 -106 -109 0
-172 -96 -98 -106 -109 0
-178 -96 -99 -106 -109 0
-183 -96 -100 -106 -109 0
-187 -96 -101 -106 -109 0
-172 -97 -98 -106 -110 0
-178 -97 -99 -106 -110 0
-183 -97 -100 -106 -110 0
-187 -97 -101 -106 -110 0
-178 -98 -99 -106 -111 0
-183 -98 -100 -106 -111 0
-187 -98 -101 -106 -111 0
-183 -99 -100 -106 -112 0
-187 -99 -101 -106 -112 0
-187 -100 -101 -106 -113 0
-157 -95 -96 -107 -108 0
-165 -95 -97 -107 -108 0
-172 -95 -98 -107 -108 0
-178 -95 -99 -107 -108 0
-183 -95 -100 -107 -108 0
-187 -95 -101 -107 -108 0
-165 -96 -97 -107 -109 0
-172 -96 -98 -107 -109 0
-178 -96 -99 -107 -109 0
-183 -96 -100 -107 -109 0
-187 -96 -101 -107 -109 0
-172 -97 -98 -107 -110 0
-178 -97 -99 -107 -110 0
-183 -97 -100 -107 -110 0
-187 -97 -101 -107 -110 0
-178 -98 -99 -107 -111 0
-183 -98 -100 -107 -111 0
-187 -98 -101 -107 -111 0
-183 -99 -100 -107 -112 0
-187 -99 -101 -107 -112 0
-187 -100 -101 -107 -113 0
-165 -96 -97 -108 -109 0
-172 -96 -98 -108 -109 0
-178 -96 -99 -108 -109 0
-183 -96 -100 -108 -109 0
-187 -96 -101 -108 -109 0
-172 -97 -98 -108 -110 0
-178 -97 -99 -108 -110 0
-183 -97 -100 -108 -110 0
-187 -97 -101 -108 -110 0
-178 -98 -99 -108 -111 0
-183 -98 -100 -108 -111 0
-187 -98 -101 -108 -111 0
-183 -99 -100 -108 -112 0
-187 -99 -101 -108 -112 0
-187 -100 -101 -108 -113 0
-172 -97 -98 -109 -110 0
-178 -97 -99 -109 -110 0
-183 -97 -100 -109 -110 0
-187 -97 -101 -109 -110 0
-178 -98 -99 -109 -111 0
-183 -98 -100 -109 -111 0
-187 -98 -101 -109 -111 0
-183 -99 -100 -109 -112 0
-187 -99 -101 -109 -112 0
-187 -100 -101 -109 -113 0
-178 -98 -99 -110 -111 0
-183 -98 -100 -110 -111 0
-187 -98 -101 -110 -111 0
-183 -99 -100 -110 -112 0
-187 -99 -101 -110 -112 0
-187 -100 -101 -110 -113 0
-183 -99 -100 -111 -112 0
-187 -99 -101 -111 -112 0
-187 -100 -101 -111 -113 0
-187 -100 -101 -112 -113 0
-157 -95 -96 -119 -120 0
-165 -95 -97 -119 -120 0
-172 -95 -98 -119 -120 0
-178 -95 -99 -119 -120 0
-183 -95 -100 -119 -120 0
-187 -95 -101 -119 -120 0
-165 -96 -97 -119 -121 0
-172 -96 -98 -119 -121 0
-178 -96 -99 -119 -121 0
-183 -96 -100 -119 -121 0
-187 -96 -101 -119 -121 0
-172 -97 -98 -119 -122 0
-178 -97 -99 -119 -122 0
-183 -97 -100 -119 -122 0
-187 -97 -101 -119 -122 0
-178 -98 -99 -119 -123 0
-183 -98 -100 -119 -123 0
-187 -98 -101 -119 -123 0
-183 -99 -100 -119 -124 0
-187 -99 -101 -119 -124 0
-187 -100 -101 -119 -125 0
-165 -96 -97 -120 -121 0
-172 -96 -98 -120 -121 0
-178 -96 -99 -120 -121 0
-183 -96 -100 -120 -121 0
-187 -96 -101 -120 -121 0
-172 -97 -98 -120 -122 0
-178 -97 -99 -120 -122 0
-183 -97 -100 -120 -122 0
-187 -97 -101 -120 -122 0
-178 -98 -99 -120 -123 0
-183 -98 -100 -120 -123 0
-187 -98 -101 -120 -123 0
-183 -99 -100 -120 -124 0
-187 -99 -101 -120 -124 0
-187 -100 -101 -120 -125 0
-172 -97 -98 -121 -122 0
-178 -97 -99 -121 -122 0
-183 -97 -100 -121 -122 0
-187 -97 -101 -121 -122 0
-178 -98 -99 -121 -123 0
-183 -98 -100 -121 -123 0
-187 -98 -101 -121 -123 0
-183 -99 -100 -121 -124 0
-187 -99 -101 -121 -124 0
-187 -100 -101 -121 -125 0
-178 -98 -99 -122 -123 0
-183 -98 -100 -122 -123 0
-187 -98 -101 -122 -123 0
-183 -99 -100 -122 -124 0
-187 -99 -101 -122 -124 0
-187 -100 -101 -122 -125 0
-183 -99 -100 -123 -124 0
-187 -99 -101 -123 -124 0
-187 -100 -101 -123 -125 0
-187 -100 -101 -124 -125 0
-165 -96 -97 -131 -132 0
-172 -96 -98 -131 -132 0
-178 -96 -99 -131 -132 0
-183 -96 -100 -131 -132 0
-187 -96 -101 -131 -132 0
-172 -97 -98 -131 -133 0
-178 -97 -99 -131 -133 0
-183 -97 -100 -131 -133 0
-187 -97 -101 -131 -133 0
-178 -98 -99 -131 -134 0
-183 -98 -100 -131 -134 0
-187 -98 -101 -131 -134 0
-183 -99 -100 -131 -135 0
-187 -99 -101 -131 -135 0
-187 -100 -101 -131 -136 0
-172 -97 -98 -132 -133 0
-178 -97 -99 -132 -133 0
-183 -97 -100 -132 -133 0
-187 -97 -101 -132 -133 0
-178 -98 -99 -132 -134 0
-183 -98 -100 -132 -134 0
-187 -98 -101 -132 -134 0
-183 -99 -100 -132 -135 0
-187 -99 -101 -132 -135 0
-187 -100 -101 -132 -136 0
-178 -98 -99 -133 -134 0
-183 -98 -100 -133 -134 0
-187 -98 -101 -133 -134 0
-183 -99 -100 -133 -135 0
-187 -99 -101 -133 -135 0
-187 -100 -101 -133 -136 0
-183 -99 -100 -134 -135 0
-187 -99 -101 -134 -135 0
-187 -100 -101 -134 -136 0
-187 -100 -101 -135 -136 0
-172 -97 -98 -142 -143 0
-178 -97 -99 -142 -143 0
-183 -97 -100 -142 -143 0
-187 -97 -101 -142 -143 0
-178 -98 -99 -142 -144 0
-183 -98 -100 -142 -144 0
-187 -98 -101 -142 -144 0
-183 -99 -100 -142 -145 0
-187 -99 -101 -142 -145 0
-187 -100 -101 -142 -146 0
-178 -98 -99 -143 -144 0
-183 -98 -100 -143 -144 0
-187 -98 -101 -143 -144 0
-183 -99 -100 -143 -145 0
-187 -99 -101 -143 -145 0
-187 -100 -101 -143 -146 0
-183 -99 -100 -144 -145 0
-187 -99 -101 -144 -145 0
-187 -100 -101 -144 -146 0
-187 -100 -101 -145 -146 0
-178 -98 -99 -152 -153 0
-183 -98 -100 -152 -153 0
-187 -98 -101 -152 -153 0
-183 -99 -100 -152 -154 0
-187 -99 -101 -152 -154 0
-187 -100 -101 -152 -155 0
-183 -99 -100 -153 -154 0
-187 -99 -101 -153 -154 0
-187 -100 -101 -153 -155 0
-187 -100 -101 -154 -155 0
-183 -99 -100 -161 -162 0
-187 -99 -101 -161 -162 0
-187 -100 -101 -161 -163 0
-187 -100 -101 -162 -163 0
-187 -100 -101 -169 -170 0
-157 -108 -109 -119 -120 0
-165 -108 -110 -119 -120 0
-172 -108 -111 -119 -120 0
-178 -108 -112 -119 -120 0
-183 -108 -113 -119 -120 0
-187 -108 -114 -119 -120 0
-165 -109 -110 -119 -121 0
-172 -109 -111 -119 -121 0
-178 -109 -112 -119 -121 0
-183 -109 -113 -119 -121 0
-187 -109 -114 -119 -121 0
-172 -110 -111 -119 -122 0
-178 -110 -112 -119 -122 0
-183 -110 -113 -119 -122 0
-187 -110 -114 -119 -122 0
-178 -111 -112 -119 -123 0
-183 -111 -113 -119 -123 0
-187 -111 -114 -119 -123 0
-183 -112 -113 -119 -124 0
-187 -112 -114 -119 -124 0
-187 -113 -114 -119 -125 0
-165 -109 -110 -120 -121 0
-172 -109 -111 -120 -121 0
-178 -109 -112 -120 -121 0
-183 -109 -113 -120 -121 0
-187 -109 -114 -120 -121 0
-172 -110 -111 -120 -122 0
-178 -110 -112 -120 -122 0
-183 -110 -113 -120 -122 0
-187 -110 -114 -120 -122 0
-178 -111 -112 -120 -123 0
-183 -111 -113 -120 -123 0
-187 -111 -114 -120 -123 0
-183 -112 -113 -120 -124 0
-187 -112 -114 -120 -124 0
-187 -113 -114 -120 -125 0
-172 -110 -111 -121 -122 0
-178 -110 -112 -121 -122 0
-183 -110 -113 -121 -122 0
-187 -110 -114 -121 -122 0
-178 -111 -112 -121 -123 0
-183 -111 -113 -121 -123 0
-187 -111 -114 -121 -123 0
-183 -112 -113 -121 -124 0
-187 -112 -114 -121 -124 0
-187 -113 -114 -121 -125 0
-178 -111 -112 -122 -123 0
-183 -111 -113 -122 -123 0
-187 -111 -114 -122 -123 0
-183 -112 -113 -122 -124 0
-187 -112 -114 -122 -124 0
-187 -113 -114 -122 -125 0
-183 -112 -113 -123 -124 0
-187 -112 -114 -123 -124 0
-187 -113 -114 -123 -125 0
-187 -113 -114 -124 -125 0
-165 -109 -110 -131 -132 0
-172 -109 -111 -131 -132 0
-178 -109 -112 -131 -132 0
-183 -109 -113 -131 -132 0
-187 -109 -114 -131 -132 0
-172 -110 -111 -131 -133 0
-178 -110 -112 -131 -133 0
-183 -110 -113 -131 -133 0
-187 -110 -114 -131 -133 0
-178 -111 -112 -131 -134 0
-183 -111 -113 -131 -134 0
-187 -111 -114 -131 -134 0
-183 -112 -113 -131 -135 0
-187 -112 -114 -131 -135 0
-187 -113 -114 -131 -136 0
-172 -110 -111 -132 -133 0
-178 -110 -112 -132 -133 0
-183 -110 -113 -132 -133 0
-187 -110 -114 -132 -133 0
-178 -111 -112 -132 -134 0
-183 -111 -113 -132 -134 0
-187 -111 -114 -132 -134 0
-183 -112 -113 -132 -135 0
-187 -112 -114 -132 -135 0
-187 -113 -114 -132 -136 0
-178 -111 -112 -133 -134 0
-183 -111 -113 -133 -134 0
-187 -111 -114 -133 -134 0
-183 -112 -113 -133 -135 0
-187 -112 -114 -133 -135 0
-187 -113 -114 -133 -136 0
-183 -112 -113 -134 -135 0
-187 -112 -114 -134 -135 0
-187 -113 -114 -134 -136 0
-187 -113 -114 -135 -136 0
-172 -110 -111 -142 -143 0
-178 -110 -112 -142 -143 0
-183 -110 -113 -142 -143 0
-187 -110 -114 -142 -143 0
-178 -111 -112 -142 -144 0
-183 -111 -113 -142 -144 0
-187 -111 -114 -142 -144 0
-183 -112 -113 -142 -145 0
-187 -112 -114 -142 -145 0
-187 -113 -114 -142 -146 0
-178 -111 -112 -143 -144 0
-183 -111 -113 -143 -144 0
-187 -111 -114 -143 -144 0
-183 -112 -113 -143 -145 0
-187 -112 -114 -143 -145 0
-187 -113 -114 -143 -146 0
-183 -112 -113 -144 -145 0
-187 -112 -114 -144 -145 0
-187 -113 -114 -144 -146 0
-187 -113 -114 -145 -146 0
-178 -111 -112 -152 -153 0
-183 -111 -113 -152 -153 0
-187 -111 -114 -152 -153 0
-183 -112 -113 -152 -154 0
-187 -112 -114 -152 -154 0
-187 -113 -114 -152 -155 0
-183 -112 -113 -153 -154 0
-187 -112 -114 -153 -154 0
-187 -113 -114 -153 -155 0
-187 -113 -114 -154 -155 0
-183 -112 -113 -161 -162 0
-187 -112 -114 -161 -162 0
-187 -113 -114 -161 -163 0
-187 -113 -114 -162 -163 0
-187 -113 -114 -169 -170 0
-165 -121 -122 -131 -132 0
-172 -121 -123 -131 -132 0
-178 -121 -124 -131 -132 0
-183 -121 -125 -131 -132 0
-187 -121 -126 -131 -132 0
-172 -122 -123 -131 -133 0
-178 -122 -124 -131 -133 0
-183 -122 -125 -131 -133 0
-187 -122 -126 -131 -133 0
-178 -123 -124 -131 -134 0
-183 -123 -125 -131 -134 0
-187 -123 -126 -131 -134 0
-183 -124 -125 -131 -135 0
-187 -124 -126 -131 -135 0
-187 -125 -126 -131 -136 0
-172 -122 -123 -132 -133 0
-178 -122 -124 -132 -133 0
-183 -122 -125 -132 -133 0
-187 -122 -126 -132 -133 0
-178 -123 -124 -132 -134 0
-183 -123 -125 -132 -134 0
-187 -123 -126 -132 -134 0
-183 -124 -125 -132 -135 0
-187 -124 -126 -132 -135 0
-187 -125 -126 -132 -136 0
-178 -123 -124 -133 -134 0
-183 -123 -125 -133 -134 0
-187 -123 -126 -133 -134 0
-183 -124 -125 -133 -135 0
-187 -124 -126 -133 -135 0
-187 -125 -126 -133 -136 0
-183 -124 -125 -134 -135 0
-187 -124 -126 -134 -135 0
-187 -125 -126 -134 -136 0
-187 -125 -126 -135 -136 0
-172 -122 -123 -142 -143 0
-178 -122 -124 -142 -143 0
-183 -122 -125 -142 -143 0
-187 -122 -126 -142 -143 0
-178 -123 -124 -142 -144 0
-183 -123 -125 -142 -144 0
-187 -123 -126 -142 -144 0
-183 -124 -125 -142 -145 0
-187 -124 -126 -142 -145 0
-187 -125 -126 -142 -146 0
-178 -123 -124 -143 -144 0
-183 -123 -125 -143 -144 0
-187 -123 -126 -143 -144 0
-183 -124 -125 -143 -145 0
-187 -124 -126 -143 -145 0
-187 -125 -126 -143 -146 0
-183 -124 -125 -144 -145 0
-187 -124 -126 -144 -145 0
-187 -125 -126 -144 -146 0
-187 -125 -126 -145 -146 0
-178 -123 -124 -152 -153 0
-183 -123 -125 -152 -153 0
-187 -123 -126 -152 -153 0
-183 -124 -125 -152 -154 0
-187 -124 -126 -152 -154 0
-187 -125 -126 -152 -155 0
-183 -124 -125 -153 -154 0
-187 -124 -126 -153 -154 0
-187 -125 -126 -153 -155 0
-187 -125 -126 -154 -155 0
-183 -124 -125 -161 -162 0
-187 -124 -126 -161 -162 0
-187 -125 -126 -161 -163 0
-187 -125 -126 -162 -163 0
-187 -125 -126 -169 -170 0
-172 -133 -134 -142 -143 0
-178 -133 -135 -142 -143 0
-183 -133 -136 -142 -143 0
-187 -133 -137 -142 -143 0
-178 -134 -135 -142 -144 0
-183 -134 -136 -142 -144 0
-187 -134 -137 -142 -144 0
-183 -135 -136 -142 -145 0
-187 -135 -137 -142 -145 0
-187 -136 -137 -142 -146 0
-178 -134 -135 -143 -144 0
-183 -134 -136 -143 -144 0
-187 -134 -137 -143 -144 0
-183 -135 -136 -143 -145 0
-187 -135 -137 -143 -145 0
-187 -136 -137 -143 -146 0
-183 -135 -136 -144 -145 0
-187 -135 -137 -144 -145 0
-187 -136 -137 -144 -146 0
-187 -136 -137 -145 -146 0
-178 -134 -135 -152 -153 0
-183 -134 -136 -152 -153 0
-187 -134 -137 -152 -153 0
-183 -135 -136 -152 -154 0
-187 -135 -137 -152 -154 0
-187 -136 -137 -152 -155 0
-183 -135 -136 -153 -154 0
-187 -135 -137 -153 -154 0
-187 -136 -137 -153 -155 0
-187 -136 -137 -154 -155 0
-183 -135 -136 -161 -162 0
-187 -135 -137 -161 -162 0
-187 -136 -137 -161 -163 0
-187 -136 -137 -162 -163 0
-187 -136 -137 -169 -170 0
-178 -144 -145 -152 -153 0
-183 -144 -146 -152 -153 0
-187 -144 -147 -152 -153 0
-183 -145 -146 -152 -154 0
-187 -145 -147 -152 -154 0
-187 -146 -147 -152 -155 0
-183 -145 -146 -153 -154 0
-187 -145 -147 -153 -154 0
-187 -146 -147 -153 -155 0
-187 -146 -147 -154 -155 0
-183 -145 -146 -161 -162 0
-187 -145 -147 -161 -162 0
-187 -146 -147 -161 -163 0
-187 -146 -147 -162 -163 0
-187 -146 -147 -169 -170 0
-183 -154 -155 -161 -162 0
-187 -154 -156 -161 -162 0
-187 -155 -156 -161 -163 0
-187 -155 -156 -162 -163 0
-187 -155 -156 -169 -170 0
-187 -163 -164 -169 -170 0
-128 -117 -129 -105 -118 0
-139 -117 -140 -105 -118 0
-149 -117 -150 -105 -118 0
-158 -117 -159 -105 -118 0
-166 -117 -167 -105 -118 0
-173 -117 -174 -105 -118 0
-179 -117 -180 -105 -118 0
-184 -117 -185 -105 -118 0
-188 -117 -189 -105 -118 0
-191 -117 -192 -105 -118 0
-139 -129 -140 -105 -130 0
-149 -129 -150 -105 -130 0
-158 -129 -159 -105 -130 0
-166 -129 -167 -105 -130 0
-173 -129 -174 -105 -130 0
-179 -129 -180 -105 -130 0
-184 -129 -185 -105 -130 0
-188 -129 -189 -105 -130 0
-191 -129 -192 -105 -130 0
-149 -140 -150 -105 -141 0
-158 -140 -159 -105 -141 0
-166 -140 -167 -105 -141 0
-173 -140 -174 -105 -141 0
-179 -140 -180 -105 -141 0
-184 -140 -185 -105 -141 0
-188 -140 -189 -105 -141 0
-191 -140 -192 -105 -141 0
-158 -150 -159 -105 -151 0
-166 -150 -167 -105 -151 0
-173 -150 -174 -105 -151 0
-179 -150 -180 -105 -151 0
-184 -150 -185 -105 -151 0
-188 -150 -189 -105 -151 0
-191 -150 -192 -105 -151 0
-166 -159 -167 -105 -160 0
-173 -159 -174 -105 -160 0
-179 -159 -180 -105 -160 0
-184 -159 -185 -105 -160 0
-188 -159 -189 -105 -160 0
-191 -159 -192 -105 -160 0
-173 -167 -174 -105 -168 0
-179 -167 -180 -105 -168 0
-184 -167 -185 -105 -168 0
-188 -167 -189 -105 -168 0
-191 -167 -192 -105 -168 0
-179 -174 -180 -105 -175 0
-184 -174 -185 -105 -175 0
-188 -174 -189 -105 -175 0
-191 -174 -192 -105 -175 0
-184 -180 -185 -105 -181 0
-188 -180 -189 -105 -181 0
-191 -180 -192 -105 -181 0
-188 -185 -189 -105 -186 0
-191 -185 -192 -105 -186 0
-191 -189 -192 -105 -190 0
-139 -129 -140 -118 -130 0
-149 -129 -150 -118 -130 0
-158 -129 -159 -118 -130 0
-166 -129 -167 -118 -130 0
-173 -129 -174 -118 -130 0
-179 -129 -180 -118 -130 0
-184 -129 -185 -118 -130 0
-188 -129 -189 -118 -130 0
-191 -129 -192 -118 -130 0
-149 -140 -150 -118 -141 0
-158 -140 -159 -118 -141 0
-166 -140 -167 -118 -141 0
-173 -140 -174 -118 -141 0
-179 -140 -180 -118 -141 0
-184 -140 -185 -118 -141 0
-188 -140 -189 -118 -141 0
-191 -140 -192 -118 -141 0
-158 -150 -159 -118 -151 0
-166 -150 -167 -118 -151 0
-173 -150 -174 -118 -151 0
-179 -150 -180 -118 -151 0
-184 -150 -185 -118 -151 0
-188 -150 -189 -118 -151 0
-191 -150 -192 -118 -151 0
-166 -159 -167 -118 -160 0
-173 -159 -174 -118 -160 0
-179 -159 -180 -118 -160 0
-184 -159 -185 -118 -160 0
-188 -159 -189 -118 -160 0
-191 -159 -192 -118 -160 0
-173 -167 -174 -118 -168 0
-179 -167 -180 -118 -168 0
-184 -167 -185 -118 -168 0
-188 -167 -189 -118 -168 0
-191 -167 -192 -118 -168 0
-179 -174 -180 -118 -175 0
-184 -174 -185 -118 -175 0
-188 -174 -189 -118 -175 0
-191 -174 -192 -118 -175 0
-184 -180 -185 -118 -181 0
-188 -180 -189 -118 -181 0
-191 -180 -192 -118 -181 0
-188 -185 -189 -118 -186 0
-191 -185 -192 -118 -186 0
-191 -189 -192 -118 -190 0
-149 -140 -150 -130 -141 0
-158 -140 -159 -130 -141 0
-166 -140 -167 -130 -141 0
-173 -140 -174 -130 -141 0
-179 -140 -180 -130 -141 0
-184 -140 -185 -130 -141 0
-188 -140 -189 -130 -141 0
-191 -140 -192 -130 -141 0
-158 -150 -159 -130 -151 0
-166 -150 -167 -130 -151 0
-173 -150 -174 -130 -151 0
-179 -150 -180 -130 -151 0
-184 -150 -185 -130 -151 0
-188 -150 -189 -130 -151 0
-191 -150 -192 -130 -151 0
-166 -159 -167 -130 -160 0
-173 -159 -174 -130 -160 0
-179 -159 -180 -130 -160 0
-184 -159 -185 -130 -160 0
-188 -159 -189 -130 -160 0
-191 -159 -192 -130 -160 0
-173 -167 -174 -130 -168 0
-179 -167 -180 -130 -168 0
-184 -167 -185 -130 -168 0
-188 -167 -189 -130 -168 0
-191 -167 -192 -130 -168 0
-179 -174 -180 -130 -175 0
-184 -174 -185 -130 -175 0
-188 -174 -189 -130 -175 0
-191 -174 -192 -130 -175 0
-184 -180 -185 -130 -181 0
-188 -180 -189 -130 -181 0
-191 -180 -192 -130 -181 0
-188 -185 -189 -130 -186 0
-191 -185 -192 -130 -186 0
-191 -189 -192 -130 -190 0
-158 -150 -159 -141 -151 0
-166 -150 -167 -141 -151 0
-173 -150 -174 -141 -151 0
-179 -150 -180 -141 -151 0
-184 -150 -185 -141 -151 0
-188 -150 -189 -141 -151 0
-191 -150 -192 -141 -151 0
-166 -159 -167 -141 -160 0
-173 -159 -174 -141 -160 0
-179 -159 -180 -141 -160 0
-184 -159 -185 -141 -160 0
-188 -159 -189 -141 -160 0
-191 -159 -192 -141 -160 0
-173 -167 -174 -141 -168 0
-179 -167 -180 -141 -168 0
-184 -167 -185 -141 -168 0
-188 -167 -189 -141 -168 0
-191 -167 -192 -141 -168 0
-179 -174 -180 -141 -175 0
-184 -174 -185 -141 -175 0
-188 -174 -189 -141 -175 0
-191 -174 -192 -141 -175 0
-184 -180 -185 -141 -181 0
-188 -180 -189 -141 -181 0
-191 -180 -192 -141 -181 0
-188 -185 -189 -141 -186 0
-191 -185 -192 -141 -186 0
-191 -189 -192 -141 -190 0
-166 -159 -167 -151 -160 0
-173 -159 -174 -151 -160 0
-179 -159 -180 -151 -160 0
-184 -159 -185 -151 -160 0
-188 -159 -189 -151 -160 0
-191 -159 -192 -151 -160 0
-173 -167 -174 -151 -168 0
-179 -167 -180 -151 -168 0
-184 -167 -185 -151 -168 0
-188 -167 -189 -151 -168 0
-191 -167 -192 -151 -168 0
-179 -174 -180 -151 -175 0
-184 -174 -185 -151 -175 0
-188 -174 -189 -151 -175 0
-191 -174 -192 -151 -175 0
-184 -180 -185 -151 -181 0
-188 -180 -189 -151 -181 0
-191 -180 -192 -151 -181 0
-188 -185 -189 -151 -186 0
-191 -185 -192 -151 -186 0
-191 -189 -192 -151 -190 0
-173 -167 -174 -160 -168 0
-179 -167 -180 -160 -168 0
-184 -167 -185 -160 -168 0
-188 -167 -189 -160 -168 0
-191 -167 -192 -160 -168 0
-179 -174 -180 -160 -175 0
-184 -174 -185 -160 -175 0
-188 -174 -189 -160 -175 0
-191 -174 -192 -160 -175 0
-184 -180 -185 -160 -181 0
-188 -180 -189 -160 -181 0
-191 -180 -192 -160 -181 0
-188 -185 -189 -160 -186 0
-191 -185 -192 -160 -186 0
-191 -189 -192 -160 -190 0
-179 -174 -180 -168 -175 0
-184 -174 -185 -168 -175 0
-188 -174 -189 -168 -175 0
-191 -174 -192 -168 -175 0
-184 -180 -185 -168 -181 0
-188 -180 -189 -168 -181 0
-191 -180 -192 -168 -181 0
-188 -185 -189 -168 -186 0
-191 -185 -192 -168 -186 0
-191 -189 -192 -168 -190 0
-184 -180 -185 -175 -181 0
-188 -180 -189 -175 -181 0
-191 -180 -192 -175 -181 0
-188 -185 -189 -175 -186 0
-191 -185 -192 -175 -186 0
-191 -189 -192 -175 -190 0
-188 -185 -189 -181 -186 0
-191 -185 -192 -181 -186 0
-191 -189 -192 -181 -190 0
-191 -189 -192 -186 -190 0
-139 -129 -140 -92 -93 0
-149 -129 -150 -92 -93 0
-158 -129 -159 -92 -93 0
-166 -129 -167 -92 -93 0
-173 -129 -174 -92 -93 0
-179 -129 -180 -92 -93 0
-184 -129 -185 -92 -93 0
-188 -129 -189 -92 -93 0
-191 -129 -192 -92 -93 0
-149 -140 -150 -92 -94 0
-158 -140 -159 -92 -94 0
-166 -140 -167 -92 -94 0
-173 -140 -174 -92 -94 0
-179 -140 -180 -92 -94 0
-184 -140 -185 -92 -94 0
-188 -140 -189 -92 -94 0
-191 -140 -192 -92 -94 0
-158 -150 -159 -92 -95 0
-166 -150 -167 -92 -95 0
-173 -150 -174 -92 -95 0
-179 -150 -180 -92 -95 0
-184 -150 -185 -92 -95 0
-188 -150 -189 -92 -95 0
-191 -150 -192 -92 -95 0
-166 -159 -167 -92 -96 0
-173 -159 -174 -92 -96 0
-179 -159 -180 -92 -96 0
-184 -159 -185 -92 -96 0
-188 -159 -189 -92 -96 0
-191 -159 -192 -92 -96 0
-173 -167 -174 -92 -97 0
-179 -167 -180 -92 -97 0
-184 -167 -185 -92 -97 0
-188 -167 -189 -92 -97 0
-191 -167 -192 -92 -97 0
-179 -174 -180 -92 -98 0
-184 -174 -185 -92 -98 0
-188 -174 -189 -92 -98 0
-191 -174 -192 -92 -98 0
-184 -180 -185 -92 -99 0
-188 -180 -189 -92 -99 0
-191 -180 -192 -92 -99 0
-188 -185 -189 -92 -100 0
-191 -185 -192 -92 -100 0
-191 -189 -192 -92 -101 0
-149 -140 -150 -93 -94 0
-158 -140 -159 -93 -94 0
-166 -140 -167 -93 -94 0
-173 -140 -174 -93 -94 0
-179 -140 -180 -93 -94 0
-184 -140 -185 -93 -94 0
-188 -140 -189 -93 -94 0
-191 -140 -192 -93 -94 0
-158 -150 -159 -93 -95 0
-166 -150 -167 -93 -95 0
-173 -150 -174 -93 -95 0
-179 -150 -180 -93 -95 0
-184 -150 -185 -93 -95 0
-188 -150 -189 -93 -95 0
-191 -150 -192 -93 -95 0
-166 -159 -167 -93 -96 0
-173 -159 -174 -93 -96 0
-179 -159 -180 -93 -96 0
-184 -159 -185 -93 -96 0
-188 -159 -189 -93 -96 0
-191 -159 -192 -93 -96 0
-173 -167 -174 -93 -97 0
-179 -167 -180 -93 -97 0
-184 -167 -185 -93 -97 0
-188 -167 -189 -93 -97 0
-191 -167 -192 -93 -97 0
-179 -174 -180 -93 -98 0
-184 -174 -185 -93 -98 0
-188 -174 -189 -93 -98 0
-191 -174 -192 -93 -98 0
-184 -180 -185 -93 -99 0
-188 -180 -189 -93 -99 0
-191 -180 -192 -93 -99 0
-188 -185 -189 -93 -100 0
-191 -185 -192 -93 -100 0
-191 -189 -192 -93 -101 0
-158 -150 -159 -94 -95 0
-166 -150 -167 -94 -95 0
-173 -150 -174 -94 -95 0
-179 -150 -180 -94 -95 0
-184 -150 -185 -94 -95 0
-188 -150 -189 -94 -95 0
-191 -150 -192 -94 -95 0
-166 -159 -167 -94 -96 0
-173 -159 -174 -94 -96 0
-179 -159 -180 -94 -96 0
-184 -159 -185 -94 -96 0
-188 -159 -189 -94 -96 0
-191 -159 -192 -94 -96 0
-173 -167 -174 -94 -97 0
-179 -167 -180 -94 -97 0
-184 -167 -185 -94 -97 0
-188 -167 -189 -94 -97 0
-191 -167 -192 -94 -97 0
-179 -174 -180 -94 -98 0
-184 -174 -185 -94 -98 0
-188 -174 -189 -94 -98 0
-191 -174 -192 -94 -98 0
-184 -180 -185 -94 -99 0
-188 -180 -189 -94 -99 0
-191 -180 -192 -94 -99 0
-188 -185 -189 -94 -100 0
-191 -185 -192 -94 -100 0
-191 -189 -192 -94 -101 0
-166 -159 -167 -95 -96 0
-173 -159 -174 -95 -96 0
-179 -159 -180 -95 -96 0
-184 -159 -185 -95 -96 0
-188 -159 -189 -95 -96 0
-191 -159 -192 -95 -96 0
-173 -167 -174 -95 -97 0
-179 -167 -180 -95 -97 0
-184 -167 -185 -95 -97 0
-188 -167 -189 -95 -97 0
-191 -167 -192 -95 -97 0
-179 -174 -180 -95 -98 0
-184 -174 -185 -95 -98 0
-188 -174 -189 -95 -98 0
-191 -174 -192 -95 -98 0
-184 -180 -185 -95 -99 0
-188 -180 -189 -95 -99 0
-191 -180 -192 -95 -99 0
-188 -185 -189 -95 -100 0
-191 -185 -192 -95 -100 0
-191 -189 -192 -95 -101 0
-173 -167 -174 -96 -97 0
-179 -167 -180 -96 -97 0
-184 -167 -185 -96 -97 0
-188 -167 -189 -96 -97 0
-191 -167 -192 -96 -97 0
-179 -174 -180 -96 -98 0
-184 -174 -185 -96 -98 0
-188 -174 -189 -96 -98 0
-191 -174 -192 -96 -98 0
-184 -180 -185 -96 -99 0
-188 -180 -189 -96 -99 0
-191 -180 -192 -96 -99 0
-188 -185 -189 -96 -100 0
-191 -185 -192 -96 -100 0
-191 -189 -192 -96 -101 0
-179 -174 -180 -97 -98 0
-184 -174 -185 -97 -98 0
-188 -174 -189 -97 -98 0
-191 -174 -192 -97 -98 0
-184 -180 -185 -97 -99 0
-188 -180 -189 -97 -99 0
-191 -180 -192 -97 -99 0
-188 -185 -189 -97 -100 0
-191 -185 -192 -97 -100 0
-191 -189 -192 -97 -101 0
-184 -180 -185 -98 -99 0
-188 -180 -189 -98 -99 0
-191 -180 -192 -98 -99 0
-188 -185 -189 -98 -100 0
-191 -185 -192 -98 -100 0
-191 -189 -192 -98 -101 0
-188 -185 -189 -99 -100 0
-191 -185 -192 -99 -100 0
-191 -189 -192 -99 -101 0
-191 -189 -192 -100 -101 0
-149 -140 -150 -106 -107 0
-158 -140 -159 -106 -107 0
-166 -140 -167 -106 -107 0
-173 -140 -174 -106 -107 0
-179 -140 -180 -106 -107 0
-184 -140 -185 -106 -107 0
-188 -140 -189 -106 -107 0
-191 -140 -192 -106 -107 0
-158 -150 -159 -106 -108 0
-166 -150 -167 -106 -108 0
-173 -150 -174 -106 -108 0
-179 -150 -180 -106 -108 0
-184 -150 -185 -106 -108 0
-188 -150 -189 -106 -108 0
-191 -150 -192 -106 -108 0
-166 -159 -167 -106 -109 0
-173 -159 -174 -106 -109 0
-179 -159 -180 -106 -109 0
-184 -159 -185 -106 -109 0
-188 -159 -189 -106 -109 0
-191 -159 -192 -106 -109 0
-173 -167 -174 -106 -110 0
-179 -167 -180 -106 -110 0
-184 -167 -185 -106 -110 0
-188 -167 -189 -106 -110 0
-191 -167 -192 -106 -110 0
-179 -174 -180 -106 -111 0
-184 -174 -185 -106 -111 0
-188 -174 -189 -106 -111 0
-191 -174 -192 -106 -111 0
-184 -180 -185 -106 -112 0
-188 -180 -189 -106 -112 0
-191 -180 -192 -106 -112 0
-188 -185 -189 -106 -113 0
-191 -185 -192 -106 -113 0
-191 -189 -192 -106 -114 0
-158 -150 -159 -107 -108 0
-166 -150 -167 -107 -108 0
-173 -150 -174 -107 -108 0
-179 -150 -180 -107 -108 0
-184 -150 -185 -107 -108 0
-188 -150 -189 -107 -108 0
-191 -150 -192 -107 -108 0
-166 -159 -167 -107 -109 0
-173 -159 -174 -107 -109 0
-179 -159 -180 -107 -109 0
-184 -159 -185 -107 -109 0
-188 -159 -189 -107 -109 0
-191 -159 -192 -107 -109 0
-173 -167 -174 -107 -110 0
-179 -167 -180 -107 -110 0
-184 -167 -185 -107 -110 0
-188 -167 -189 -107 -110 0
-191 -167 -192 -107 -110 0
-179 -174 -180 -107 -111 0
-184 -174 -185 -107 -111 0
-188 -174 -189 -107 -111 0
-191 -174 -192 -107 -111 0
-184 -180 -185 -107 -112 0
-188 -180 -189 -107 -112 0
-191 -180 -192 -107 -112 0
-188 -185 -189 -107 -113 0
-191 -185 -192 -107 -113 0
-191 -189 -192 -107 -114 0
-166 -159 -167 -108 -109 0
-173 -159 -174 -108 -109 0
-179 -159 -180 -108 -109 0
-184 -159 -185 -108 -109 0
-188 -159 -189 -108 -109 0
-191 -159 -192 -108 -109 0
-173 -167 -174 -108 -110 0
-179 -167 -180 -108 -110 0
-184 -167 -185 -108 -110 0
-188 -167 -189 -108 -110 0
-191 -167 -192 -108 -110 0
-179 -174 -180 -108 -111 0
-184 -174 -185 -108 -111 0
-188 -174 -189 -108 -111 0
-191 -174 -192 -108 -111 0
-184 -180 -185 -108 -112 0
-188 -180 -189 -108 -112 0
-191 -180 -192 -108 -112 0
-188 -185 -189 -108 -113 0
-191 -185 -192 -108 -113 0
-191 -189 -192 -108 -114 0
-173 -167 -174 -109 -110 0
-179 -167 -180 -109 -110 0
-184 -167 -185 -109 -110 0
-188 -167 -189 -109 -110 0
-191 -167 -192 -109 -110 0
-179 -174 -180 -109 -111 0
-184 -174 -185 -109 -111 0
-188 -174 -189 -109 -111 0
-191 -174 -192 -109 -111 0
-184 -180 -185 -109 -112 0
-188 -180 -189 -109 -112 0
-191 -180 -192 -109 -112 0
-188 -185 -189 -109 -113 0
-191 -185 -192 -109 -113 0
-191 -189 -192 -109 -114 0
-179 -174 -180 -110 -111 0
-184 -174 -185 -110 -111 0
-188 -174 -189 -110 -111 0
-191 -174 -192 -110 -111 0
-184 -180 -185 -110 -112 0
-188 -180 -189 -110 -112 0
-191 -180 -192 -110 -112 0
-188 -185 -189 -110 -113 0
-191 -185 -192 -110 -113 0
-191 -189 -192 -110 -114 0
-184 -180 -185 -111 -112 0
-188 -180 -189 -111 -112 0
-191 -180 -192 -111 -112 0
-188 -185 -189 -111 -113 0
-191 -185 -192 -111 -113 0
-191 -189 -192 -111 -114 0
-188 -185 -189 -112 -113 0
-191 -185 -192 -112 -113 0
-191 -189 -192 -112 -114 0
-191 -189 -192 -113 -114 0
-158 -150 -159 -119 -120 0
-166 -150 -167 -119 -120 0
-173 -150 -174 -119 -120 0
-179 -150 -180 -119 -120 0
-184 -150 -185 -119 -120 0
-188 -150 -189 -119 -120 0
-191 -150 -192 -119 -120 0
-166 -159 -167 -119 -121 0
-173 -159 -174 -119 -121 0
-179 -159 -180 -119 -121 0
-184 -159 -185 -119 -121 0
-188 -159 -189 -119 -121 0
-191 -159 -192 -119 -121 0
-173 -167 -174 -119 -122 0
-179 -167 -180 -119 -122 0
-184 -167 -185 -119 -122 0
-188 -167 -189 -119 -122 0
-191 -167 -192 -119 -122 0
-179 -174 -180 -119 -123 0
-184 -174 -185 -119 -123 0
-188 -174 -189 -119 -123 0
-191 -174 -192 -119 -123 0
-184 -180 -185 -119 -124 0
-188 -180 -189 -119 -124 0
-191 -180 -192 -119 -124 0
-188 -185 -189 -119 -125 0
-191 -185 -192 -119 -125 0
-191 -189 -192 -119 -126 0
-166 -159 -167 -120 -121 0
-173 -159 -174 -120 -121 0
-179 -159 -180 -120 -121 0
-184 -159 -185 -120 -121 0
-188 -159 -189 -120 -121 0
-191 -159 -192 -120 -121 0
-173 -167 -174 -120 -122 0
-179 -167 -180 -120 -122 0
-184 -167 -185 -120 -122 0
-188 -167 -189 -120 -122 0
-191 -167 -192 -120 -122 0
-179 -174 -180 -120 -123 0
-184 -174 -185 -120 -123 0
-188 -174 -189 -120 -123 0
-191 -174 -192 -120 -123 0
-184 -180 -185 -120 -124 0
-188 -180 -189 -120 -124 0
-191 -180 -192 -120 -124 0
-188 -185 -189 -120 -125 0
-191 -185 -192 -120 -125 0
-191 -189 -192 -120 -126 0
-173 -167 -174 -121 -122 0
-179 -167 -180 -121 -122 0
-184 -167 -185 -121 -122 0
-188 -167 -189 -121 -122 0
-191 -167 -192 -121 -122 0
-179 -174 -180 -121 -123 0
-184 -174 -185 -121 -123 0
-188 -174 -189 -121 -123 0
-191 -174 -192 -121 -123 0
-184 -180 -185 -121 -124 0
-188 -180 -189 -121 -124 0
-191 -180 -192 -121 -124 0
-188 -185 -189 -121 -125 0
-191 -185 -192 -121 -125 0
-191 -189 -192 -121 -126 0
-179 -174 -180 -122 -123 0
-184 -174 -185 -122 -123 0
-188 -174 -189 -122 -123 0
-191 -174 -192 -122 -123 0
-184 -180 -185 -122 -124 0
-188 -180 -189 -122 -124 0
-191 -180 -192 -122 -124 0
-188 -185 -189 -122 -125 0
-191 -185 -192 -122 -125 0
-191 -189 -192 -122 -126 0
-184 -180 -185 -123 -124 0
-188 -180 -189 -123 -124 0
-191 -180 -192 -123 -124 0
-188 -185 -189 -123 -125 0
-191 -185 -192 -123 -125 0
-191 -189 -192 -123 -126 0
-188 -185 -189 -124 -125 0
-191 -185 -192 -124 -125 0
-191 -189 -192 -124 -126 0
-191 -189 -192 -125 -126 0
-166 -159 -167 -131 -132 0
-173 -159 -174 -131 -132 0
-179 -159 -180 -131 -132 0
-184 -159 -185 -131 -132 0
-188 -159 -189 -131 -132 0
-191 -159 -192 -131 -132 0
-173 -167 -174 -131 -133 0
-179 -167 -180 -131 -133 0
-184 -167 -185 -131 -133 0
-188 -167 -189 -131 -133 0
-191 -167 -192 -131 -133 0
-179 -174 -180 -131 -134 0
-184 -174 -185 -131 -134 0
-188 -174 -189 -131 -134 0
-191 -174 -192 -131 -134 0
-184 -180 -185 -131 -135 0
-188 -180 -189 -131 -135 0
-191 -180 -192 -131 -135 0
-188 -185 -189 -131 -136 0
-191 -185 -192 -131 -136 0
-191 -189 -192 -131 -137 0
-173 -167 -174 -132 -133 0
-179 -167 -180 -132 -133 0
-184 -167 -185 -132 -133 0
-188 -167 -189 -132 -133 0
-191 -167 -192 -132 -133 0
-179 -174 -180 -132 -134 0
-184 -174 -185 -132 -134 0
-188 -174 -189 -132 -134 0
-191 -174 -192 -132 -134 0
-184 -180 -185 -132 -135 0
-188 -180 -189 -132 -135 0
-191 -180 -192 -132 -135 0
-188 -185 -189 -132 -136 0
-191 -185 -192 -132 -136 0
-191 -189 -192 -132 -137 0
-179 -174 -180 -133 -134 0
-184 -174 -185 -133 -134 0
-188 -174 -189 -133 -134 0
-191 -174 -192 -133 -134 0
-184 -180 -185 -133 -135 0
-188 -180 -189 -133 -135 0
-191 -180 -192 -133 -135 0
-188 -185 -189 -133 -136 0
-191 -185 -192 -133 -136 0
-191 -189 -192 -133 -137 0
-184 -180 -185 -134 -135 0
-188 -180 -189 -134 -135 0
-191 -180 -192 -134 -135 0
-188 -185 -189 -134 -136 0
-191 -185 -192 -134 -136 0
-191 -189 -192 -134 -137 0
-188 -185 -189 -135 -136 0
-191 -185 -192 -135 -136 0
-191 -189 -192 -135 -137 0
-191 -189 -192 -136 -137 0
-173 -167 -174 -142 -143 0
-179 -167 -180 -142 -143 0
-184 -167 -185 -142 -143 0
-188 -167 -189 -142 -143 0
-191 -167 -192 -142 -143 0
-179 -174 -180 -142 -144 0
-184 -174 -185 -142 -144 0
-188 -174 -189 -142 -144 0
-191 -174 -192 -142 -144 0
-184 -180 -185 -142 -145 0
-188 -180 -189 -142 -145 0
-191 -180 -192 -142 -145 0
-188 -185 -189 -142 -146 0
-191 -185 -192 -142 -146 0
-191 -189 -192 -142 -147 0
-179 -174 -180 -143 -144 0
-184 -174 -185 -143 -144 0
-188 -174 -189 -143 -144 0
-191 -174 -192 -143 -144 0
-184 -180 -185 -143 -145 0
-188 -180 -189 -143 -145 0
-191 -180 -192 -143 -145 0
-188 -185 -189 -143 -146 0
-191 -185 -192 -143 -146 0
-191 -189 -192 -143 -147 0
-184 -180 -185 -144 -145 0
-188 -180 -189 -144 -145 0
-191 -180 -192 -144 -145 0
-188 -185 -189 -144 -146 0
-191 -185 -192 -144 -146 0
-191 -189 -192 -144 -147 0
-188 -185 -189 -145 -146 0
-191 -185 -192 -145 -146 0
-191 -189 -192 -145 -147 0
-191 -189 -192 -146 -147 0
-179 -174 -180 -152 -153 0
-184 -174 -185 -152 -153 0
-188 -174 -189 -152 -153 0
-191 -174 -192 -152 -153 0
-184 -180 -185 -152 -154 0
-188 -180 -189 -152 -154 0
-191 -180 -192 -152 -154 0
-188 -185 -189 -152 -155 0
-191 -185 -192 -152 -155 0
-191 -189 -192 -152 -156 0
-184 -180 -185 -153 -154 0
-188 -180 -189 -153 -154 0
-191 -180 -192 -153 -154 0
-188 -185 -189 -153 -155 0
-191 -185 -192 -153 -155 0
-191 -189 -192 -153 -156 0
-188 -185 -189 -154 -155 0
-191 -185 -192 -154 -155 0
-191 -189 -192 -154 -156 0
-191 -189 -192 -155 -156 0
-184 -180 -185 -161 -162 0
-188 -180 -189 -161 -162 0
-191 -180 -192 -161 -162 0
-188 -185 -189 -161 -163 0
-191 -185 -192 -161 -163 0
-191 -189 -192 -161 -164 0
-188 -185 -189 -162 -163 0
-191 -185 -192 -162 -163 0
-191 -189 -192 -162 -164 0
-191 -189 -192 -163 -164 0
-188 -185 -189 -169 -170 0
-191 -185 -192 -169 -170 0
-191 -189 -192 -169 -171 0
-191 -189 -192 -170 -171 0
-191 -189 -192 -176 -177 0
-139 -130 -141 -92 -93 0
-149 -130 -151 -92 -93 0
-158 -130 -160 -92 -93 0
-166 -130 -168 -92 -93 0
-173 -130 -175 -92 -93 0
-179 -130 -181 -92 -93 0
-184 -130 -186 -92 -93 0
-188 -130 -190 -92 -93 0
-191 -130 -193 -92 -93 0
-149 -141 -151 -92 -94 0
-158 -141 -160 -92 -94 0
-166 -141 -168 -92 -94 0
-173 -141 -175 -92 -94 0
-179 -141 -181 -92 -94 0
-184 -141 -186 -92 -94 0
-188 -141 -190 -92 -94 0
-191 -141 -193 -92 -94 0
-158 -151 -160 -92 -95 0
-166 -151 -168 -92 -95 0
-173 -151 -175 -92 -95 0
-179 -151 -181 -92 -95 0
-184 -151 -186 -92 -95 0
-188 -151 -190 -92 -95 0
-191 -151 -193 -92 -95 0
-166 -160 -168 -92 -96 0
-173 -160 -175 -92 -96 0
-179 -160 -181 -92 -96 0
-184 -160 -186 -92 -96 0
-188 -160 -190 -92 -96 0
-191 -160 -193 -92 -96 0
-173 -168 -175 -92 -97 0
-179 -168 -181 -92 -97 0
-184 -168 -186 -92 -97 0
-188 -168 -190 -92 -97 0
-191 -168 -193 -92 -97 0
-179 -175 -181 -92 -98 0
-184 -175 -186 -92 -98 0
-188 -175 -190 -92 -98 0
-191 -175 -193 -92 -98 0
-184 -181 -186 -92 -99 0
-188 -181 -190 -92 -99 0
-191 -181 -193 -92 -99 0
-188 -186 -190 -92 -100 0
-191 -186 -193 -92 -100 0
-191 -190 -193 -92 -101 0
-149 -141 -151 -93 -94 0
-158 -141 -160 -93 -94 0
-166 -141 -168 -93 -94 0
-173 -141 -175 -93 -94 0
-179 -141 -181 -93 -94 0
-184 -141 -186 -93 -94 0
-188 -141 -190 -93 -94 0
-191 -141 -193 -93 -94 0
-158 -151 -160 -93 -95 0
-166 -151 -168 -93 -95 0
-173 -151 -175 -93 -95 0
-179 -151 -181 -93 -95 0
-184 -151 -186 -93 -95 0
-188 -151 -190 -93 -95 0
-191 -151 -193 -93 -95 0
-166 -160 -168 -93 -96 0
-173 -160 -175 -93 -96 0
-179 -160 -181 -93 -96 0
-184 -160 -186 -93 -96 0
-188 -160 -190 -93 -96 0
-191 -160 -193 -93 -96 0
-173 -168 -175 -93 -97 0
-179 -168 -181 -93 -97 0
-184 -168 -186 -93 -97 0
-188 -168 -190 -93 -97 0
-191 -168 -193 -93 -97 0
-179 -175 -181 -93 -98 0
-184 -175 -186 -93 -98 0
-188 -175 -190 -93 -98 0
-191 -175 -193 -93 -98 0
-184 -181 -186 -93 -99 0
-188 -181 -190 -93 -99 0
-191 -181 -193 -93 -99 0
-188 -186 -190 -93 -100 0
-191 -186 -193 -93 -100 0
-191 -190 -193 -93 -101 0
-158 -151 -160 -94 -95 0
-166 -151 -168 -94 -95 0
-173 -151 -175 -94 -95 0
-179 -151 -181 -94 -95 0
-184 -151 -186 -94 -95 0
-188 -151 -190 -94 -95 0
-191 -151 -193 -94 -95 0
-166 -160 -168 -94 -96 0
-173 -160 -175 -94 -96 0
-179 -160 -181 -94 -96 0
-184 -160 -186 -94 -96 0
-188 -160 -190 -94 -96 0
-191 -160 -193 -94 -96 0
-173 -168 -175 -94 -97 0
-179 -168 -181 -94 -97 0
-184 -168 -186 -94 -97 0
-188 -168 -190 -94 -97 0
-191 -168 -193 -94 -97 0
-179 -175 -181 -94 -98 0
-184 -175 -186 -94 -98 0
-188 -175 -190 -94 -98 0
-191 -175 -193 -94 -98 0
-184 -181 -186 -94 -99 0
-188 -181 -190 -94 -99 0
-191 -181 -193 -94 -99 0
-188 -186 -190 -94 -100 0
-191 -186 -193 -94 -100 0
-191 -190 -193 -94 -101 0
-166 -160 -168 -95 -96 0
-173 -160 -175 -95 -96 0
-179 -160 -181 -95 -96 0
-184 -160 -186 -95 -96 0
-188 -160 -190 -95 -96 0
-191 -160 -193 -95 -96 0
-173 -168 -175 -95 -97 0
-179 -168 -181 -95 -97 0
-184 -168 -186 -95 -97 0
-188 -168 -190 -95 -97 0
-191 -168 -193 -95 -97 0
-179 -175 -181 -95 -98 0
-184 -175 -186 -95 -98 0
-188 -175 -190 -95 -98 0
-191 -175 -193 -95 -98 0
-184 -181 -186 -95 -99 0
-188 -181 -190 -95 -99 0
-191 -181 -193 -95 -99 0
-188 -186 -190 -95 -100 0
-191 -186 -193 -95 -100 0
-191 -190 -193 -95 -101 0
-173 -168 -175 -96 -97 0
-179 -168 -181 -96 -97 0
-184 -168 -186 -96 -97 0
-188 -168 -190 -96 -97 0
-191 -168 -193 -96 -97 0
-179 -175 -181 -96 -98 0
-184 -175 -186 -96 -98 0
-188 -175 -190 -96 -98 0
-191 -175 -193 -96 -98 0
-184 -181 -186 -96 -99 0
-188 -181 -190 -96 -99 0
-191 -181 -193 -96 -99 0
-188 -186 -190 -96 -100 0
-191 -186 -193 -96 -100 0
-191 -190 -193 -96 -101 0
-179 -175 -181 -97 -98 0
-184 -175 -186 -97 -98 0
-188 -175 -190 -97 -98 0
-191 -175 -193 -97 -98 0
-184 -181 -186 -97 -99 0
-188 -181 -190 -97 -99 0
-191 -181 -193 -97 -99 0
-188 -186 -190 -97 -100 0
-191 -186 -193 -97 -100 0
-191 -190 -193 -97 -101 0
-184 -181 -186 -98 -99 0
-188 -181 -190 -98 -99 0
-191 -181 -193 -98 -99 0
-188 -186 -190 -98 -100 0
-191 -186 -193 -98 -100 0
-191 -190 -193 -98 -101 0
-188 -186 -190 -99 -100 0
-191 -186 -193 -99 -100 0
-191 -190 -193 -99 -101 0
-191 -190 -193 -100 -101 0
-149 -141 -151 -106 -107 0
-158 -141 -160 -106 -107 0
-166 -141 -168 -106 -107 0
-173 -141 -175 -106 -107 0
-179 -141 -181 -106 -107 0
-184 -141 -186 -106 -107 0
-188 -141 -190 -106 -107 0
-191 -141 -193 -106 -107 0
-158 -151 -160 -106 -108 0
-166 -151 -168 -106 -108 0
-173 -151 -175 -106 -108 0
-179 -151 -181 -106 -108 0
-184 -151 -186 -106 -108 0
-188 -151 -190 -106 -108 0
-191 -151 -193 -106 -108 0
-166 -160 -168 -106 -109 0
-173 -160 -175 -106 -109 0
-179 -160 -181 -106 -109 0
-184 -160 -186 -106 -109 0
-188 -160 -190 -106 -109 0
-191 -160 -193 -106 -109 0
-173 -168 -175 -106 -110 0
-179 -168 -181 -106 -110 0
-184 -168 -186 -106 -110 0
-188 -168 -190 -106 -110 0
-191 -168 -193 -106 -110 0
-179 -175 -181 -106 -111 0
-184 -175 -186 -106 -111 0
-188 -175 -190 -106 -111 0
-191 -175 -193 -106 -111 0
-184 -181 -186 -106 -112 0
-188 -181 -190 -106 -112 0
-191 -181 -193 -106 -112 0
-188 -186 -190 -106 -113 0
-191 -186 -193 -106 -113 0
-191 -190 -193 -106 -114 0
-158 -151 -160 -107 -108 0
-166 -151 -168 -107 -108 0
-173 -151 -175 -107 -108 0
-179 -151 -181 -107 -108 0
-184 -151 -186 -107 -108 0
-188 -151 -190 -107 -108 0
-191 -151 -193 -107 -108 0
-166 -160 -168 -107 -109 0
-173 -160 -175 -107 -109 0
-179 -160 -181 -107 -109 0
-184 -160 -186 -107 -109 0
-188 -160 -190 -107 -109 0
-191 -160 -193 -107 -109 0
-173 -168 -175 -107 -110 0
-179 -168 -181 -107 -110 0
-184 -168 -186 -107 -110 0
-188 -168 -190 -107 -110 0
-191 -168 -193 -107 -110 0
-179 -175 -181 -107 -111 0
-184 -175 -186 -107 -111 0
-188 -175 -190 -107 -111 0
-191 -175 -193 -107 -111 0
-184 -181 -186 -107 -112 0
-188 -181 -190 -107 -112 0
-191 -181 -193 -107 -112 0
-188 -186 -190 -107 -113 0
-191 -186 -193 -107 -113 0
-191 -190 -193 -107 -114 0
-166 -160 -168 -108 -109 0
-173 -160 -175 -108 -109 0
-179 -160 -181 -108 -109 0
-184 -160 -186 -108 -109 0
-188 -160 -190 -108 -109 0
-191 -160 -193 -108 -109 0
-173 -168 -175 -108 -110 0
-179 -168 -181 -108 -110 0
-184 -168 -186 -108 -110 0
-188 -168 -190 -108 -110 0
-191 -168 -193 -108 -110 0
-179 -175 -181 -108 -111 0
-184 -175 -186 -108 -111 0
-188 -175 -190 -108 -111 0
-191 -175 -193 -108 -111 0
-184 -181 -186 -108 -112 0
-188 -181 -190 -108 -112 0
-191 -181 -193 -108 -112 0
-188 -186 -190 -108 -113 0
-191 -186 -193 -108 -113 0
-191 -190 -193 -108 -114 0
-173 -168 -175 -109 -110 0
-179 -168 -181 -109 -110 0
-184 -168 -186 -109 -110 0
-188 -168 -190 -109 -110 0
-191 -168 -193 -109 -110 0
-179 -175 -181 -109 -111 0
-184 -175 -186 -109 -111 0
-188 -175 -190 -109 -111 0
-191 -175 -193 -109 -111 0
-184 -181 -186 -109 -112 0
-188 -181 -190 -109 -112 0
-191 -181 -193 -109 -112 0
-188 -186 -190 -109 -113 0
-191 -186 -193 -109 -113 0
-191 -190 -193 -109 -114 0
-179 -175 -181 -110 -111 0
-184 -175 -186 -110 -111 0
-188 -175 -190 -110 -111 0
-191 -175 -193 -110 -111 0
-184 -181 -186 -110 -112 0
-188 -181 -190 -110 -112 0
-191 -181 -193 -110 -112 0
-188 -186 -190 -110 -113 0
-191 -186 -193 -110 -113 0
-191 -190 -193 -110 -114 0
-184 -181 -186 -111 -112 0
-188 -181 -190 -111 -112 0
-191 -181 -193 -111 -112 0
-188 -186 -190 -111 -113 0
-191 -186 -193 -111 -113 0
-191 -190 -193 -111 -114 0
-188 -186 -190 -112 -113 0
-191 -186 -193 -112 -113 0
-191 -190 -193 -112 -114 0
-191 -190 -193 -113 -114 0
-158 -151 -160 -119 -120 0
-166 -151 -168 -119 -120 0
-173 -151 -175 -119 -120 0
-179 -151 -181 -119 -120 0
-184 -151 -186 -119 -120 0
-188 -151 -190 -119 -120 0
-191 -151 -193 -119 -120 0
-166 -160 -168 -119 -121 0
-173 -160 -175 -119 -121 0
-179 -160 -181 -119 -121 0
-184 -160 -186 -119 -121 0
-188 -160 -190 -119 -121 0
-191 -160 -193 -119 -121 0
-173 -168 -175 -119 -122 0
-179 -168 -181 -119 -122 0
-184 -168 -186 -119 -122 0
-188 -168 -190 -119 -122 0
-191 -168 -193 -119 -122 0
-179 -175 -181 -119 -123 0
-184 -175 -186 -119 -123 0
-188 -175 -190 -119 -123 0
-191 -175 -193 -119 -123 0
-184 -181 -186 -119 -124 0
-188 -181 -190 -119 -124 0
-191 -181 -193 -119 -124 0
-188 -186 -190 -119 -125 0
-191 -186 -193 -119 -125 0
-191 -190 -193 -119 -126 0
-166 -160 -168 -120 -121 0
-173 -160 -175 -120 -121 0
-179 -160 -181 -120 -121 0
-184 -160 -186 -120 -121 0
-188 -160 -190 -120 -121 0
-191 -160 -193 -120 -121 0
-173 -168 -175 -120 -122 0
-179 -168 -181 -120 -122 0
-184 -168 -186 -120 -122 0
-188 -168 -190 -120 -122 0
-191 -168 -193 -120 -122 0
-179 -175 -181 -120 -123 0
-184 -175 -186 -120 -123 0
-188 -175 -190 -120 -123 0
-191 -175 -193 -120 -123 0
-184 -181 -186 -120 -124 0
-188 -181 -190 -120 -124 0
-191 -181 -193 -120 -124 0
-188 -186 -190 -120 -125 0
-191 -186 -193 -120 -125 0
-191 -190 -193 -120 -126 0
-173 -168 -175 -121 -122 0
-179 -168 -181 -121 -122 0
-184 -168 -186 -121 -122 0
-188 -168 -190 -121 -122 0
-191 -168 -193 -121 -122 0
-179 -175 -181 -121 -123 0
-184 -175 -186 -121 -123 0
-188 -175 -190 -121 -123 0
-191 -175 -193 -121 -123 0
-184 -181 -186 -121 -124 0
-188 -181 -190 -121 -124 0
-191 -181 -193 -121 -124 0
-188 -186 -190 -121 -125 0
-191 -186 -193 -121 -125 0
-191 -190 -193 -121 -126 0
-179 -175 -181 -122 -123 0
-184 -175 -186 -122 -123 0
-188 -175 -190 -122 -123 0
-191 -175 -193 -122 -123 0
-184 -181 -186 -122 -124 0
-188 -181 -190 -122 -124 0
-191 -181 -193 -122 -124 0
-188 -186 -190 -122 -125 0
-191 -186 -193 -122 -125 0
-191 -190 -193 -122 -126 0
-184 -181 -186 -123 -124 0
-188 -181 -190 -123 -124 0
-191 -181 -193 -123 -124 0
-188 -186 -190 -123 -125 0
-191 -186 -193 -123 -125 0
-191 -190 -193 -123 -126 0
-188 -186 -190 -124 -125 0
-191 -186 -193 -124 -125 0
-191 -190 -193 -124 -126 0
-191 -190 -193 -125 -126 0
-166 -160 -168 -131 -132 0
-173 -160 -175 -131 -132 0
-179 -160 -181 -131 -132 0
-184 -160 -186 -131 -132 0
-188 -160 -190 -131 -132 0
-191 -160 -193 -131 -132 0
-173 -168 -175 -131 -133 0
-179 -168 -181 -131 -133 0
-184 -168 -186 -131 -133 0
-188 -168 -190 -131 -133 0
-191 -168 -193 -131 -133 0
-179 -175 -181 -131 -134 0
-184 -175 -186 -131 -134 0
-188 -175 -190 -131 -134 0
-191 -175 -193 -131 -134 0
-184 -181 -186 -131 -135 0
-188 -181 -190 -131 -135 0
-191 -181 -193 -131 -135 0
-188 -186 -190 -131 -136 0
-191 -186 -193 -131 -136 0
-191 -190 -193 -131 -137 0
-173 -168 -175 -132 -133 0
-179 -168 -181 -132 -133 0
-184 -168 -186 -132 -133 0
-188 -168 -190 -132 -133 0
-191 -168 -193 -132 -133 0
-179 -175 -181 -132 -134 0
-184 -175 -186 -132 -134 0
-188 -175 -190 -132 -134 0
-191 -175 -193 -132 -134 0
-184 -181 -186 -132 -135 0
-188 -181 -190 -132 -135 0
-191 -181 -193 -132 -135 0
-188 -186 -190 -132 -136 0
-191 -186 -193 -132 -136 0
-191 -190 -193 -132 -137 0
-179 -175 -181 -133 -134 0
-184 -175 -186 -133 -134 0
-188 -175 -190 -133 -134 0
-191 -175 -193 -133 -134 0
-184 -181 -186 -133 -135 0
-188 -181 -190 -133 -135 0
-191 -181 -193 -133 -135 0
-188 -186 -190 -133 -136 0
-191 -186 -193 -133 -136 0
-191 -190 -193 -133 -137 0
-184 -181 -186 -134 -135 0
-188 -181 -190 -134 -135 0
-191 -181 -193 -134 -135 0
-188 -186 -190 -134 -136 0
-191 -186 -193 -134 -136 0
-191 -190 -193 -134 -137 0
-188 -186 -190 -135 -136 0
-191 -186 -193 -135 -136 0
-191 -190 -193 -135 -137 0
-191 -190 -193 -136 -137 0
-173 -168 -175 -142 -143 0
-179 -168 -181 -142 -143 0
-184 -168 -186 -142 -143 0
-188 -168 -190 -142 -143 0
-191 -168 -193 -142 -143 0
-179 -175 -181 -142 -144 0
-184 -175 -186 -142 -144 0
-188 -175 -190 -142 -144 0
-191 -175 -193 -142 -144 0
-184 -181 -186 -142 -145 0
-188 -181 -190 -142 -145 0
-191 -181 -193 -142 -145 0
-188 -186 -190 -142 -146 0
-191 -186 -193 -142 -146 0
-191 -190 -193 -142 -147 0
-179 -175 -181 -143 -144 0
-184 -175 -186 -143 -144 0
-188 -175 -190 -143 -144 0
-191 -175 -193 -143 -144 0
-184 -181 -186 -143 -145 0
-188 -181 -190 -143 -145 0
-191 -181 -193 -143 -145 0
-188 -186 -190 -143 -146 0
-191 -186 -193 -143 -146 0
-191 -190 -193 -143 -147 0
-184 -181 -186 -144 -145 0
-188 -181 -190 -144 -145 0
-191 -181 -193 -144 -145 0
-188 -186 -190 -144 -146 0
-191 -186 -193 -144 -146 0
-191 -190 -193 -144 -147 0
-188 -186 -190 -145 -146 0
-191 -186 -193 -145 -146 0
-191 -190 -193 -145 -147 0
-191 -190 -193 -146 -147 0
-179 -175 -181 -152 -153 0
-184 -175 -186 -152 -153 0
-188 -175 -190 -152 -153 0
-191 -175 -193 -152 -153 0
-184 -181 -186 -152 -154 0
-188 -181 -190 -152 -154 0
-191 -181 -193 -152 -154 0
-188 -186 -190 -152 -155 0
-191 -186 -193 -152 -155 0
-191 -190 -193 -152 -156 0
-184 -181 -186 -153 -154 0
-188 -181 -190 -153 -154 0
-191 -181 -193 -153 -154 0
-188 -186 -190 -153 -155 0
-191 -186 -193 -153 -155 0
-191 -190 -193 -153 -156 0
-188 -186 -190 -154 -155 0
-191 -186 -193 -154 -155 0
-191 -190 -193 -154 -156 0
-191 -190 -193 -155 -156 0
-184 -181 -186 -161 -162 0
-188 -181 -190 -161 -162 0
-191 -181 -193 -161 -162 0
-188 -186 -190 -161 -163 0
-191 -186 -193 -161 -163 0
-191 -190 -193 -161 -164 0
-188 -186 -190 -162 -163 0
-191 -186 -193 -162 -163 0
-191 -190 -193 -162 -164 0
-191 -190 -193 -163 -164 0
-188 -186 -190 -169 -170 0
-191 -186 -193 -169 -170 0
-191 -190 -193 -169 -171 0
-191 -190 -193 -170 -171 0
-191 -190 -193 -176 -177 0
-149 -94 -95 -106 -107 0
-158 -94 -96 -106 -107 0
-166 -94 -97 -106 -107 0
-173 -94 -98 -106 -107 0
-179 -94 -99 -106 -107 0
-184 -94 -100 -106 -107 0
-188 -94 -101 -106 -107 0
-191 -94 -102 -106 -107 0
-158 -95 -96 -106 -108 0
-166 -95 -97 -106 -108 0
-173 -95 -98 -106 -108 0
-179 -95 -99 -106 -108 0
-184 -95 -100 -106 -108 0
-188 -95 -101 -106 -108 0
-191 -95 -102 -106 -108 0
-166 -96 -97 -106 -109 0
-173 -96 -98 -106 -109 0
-179 -96 -99 -106 -109 0
-184 -96 -100 -106 -109 0
-188 -96 -101 -106 -109 0
-191 -96 -102 -106 -109 0
-173 -97 -98 -106 -110 0
-179 -97 -99 -106 -110 0
-184 -97 -100 -106 -110 0
-188 -97 -101 -106 -110 0
-191 -97 -102 -106 -110 0
-179 -98 -99 -106 -111 0
-184 -98 -100 -106 -111 0
-188 -98 -101 -106 -111 0
-191 -98 -102 -106 -111 0
-184 -99 -100 -106 -112 0
-188 -99 -101 -106 -112 0
-191 -99 -102 -106 -112 0
-188 -100 -101 -106 -113 0
-191 -100 -102 -106 -113 0
-191 -101 -102 -106 -114 0
-158 -95 -96 -107 -108 0
-166 -95 -97 -107 -108 0
-173 -95 -98 -107 -108 0
-179 -95 -99 -107 -108 0
-184 -95 -100 -107 -108 0
-188 -95 -101 -107 -108 0
-191 -95 -102 -107 -108 0
-166 -96 -97 -107 -109 0
-173 -96 -98 -107 -109 0
-179 -96 -99 -107 -109 0
-184 -96 -100 -107 -109 0
-188 -96 -101 -107 -109 0
-191 -96 -102 -107 -109 0
-173 -97 -98 -107 -110 0
-179 -97 -99 -107 -110 0
-184 -97 -100 -107 -110 0
-188 -97 -101 -107 -110 0
-191 -97 -102 -107 -110 0
-179 -98 -99 -107 -111 0
-184 -98 -100 -107 -111 0
-188 -98 -101 -107 -111 0
-191 -98 -102 -107 -111 0
-184 -99 -100 -107 -112 0
-188 -99 -101 -107 -112 0
-191 -99 -102 -107 -112 0
-188 -100 -101 -107 -113 0
-191 -100 -102 -107 -113 0
-191 -101 -102 -107 -114 0
-166 -96 -97 -108 -109 0
-173 -96 -98 -108 -109 0
-179 -96 -99 -108 -109 0
-184 -96 -100 -108 -109 0
-188 -96 -101 -108 -109 0
-191 -96 -102 -108 -109 0
-173 -97 -98 -108 -110 0
-179 -97 -99 -108 -110 0
-184 -97 -100 -108 -110 0
-188 -97 -101 -108 -110 0
-191 -97 -102 -108 -110 0
-179 -98 -99 -108 -111 0
-184 -98 -100 -108 -111 0
-188 -98 -101 -108 -111 0
-191 -98 -102 -108 -111 0
-184 -99 -100 -108 -112 0
-188 -99 -101 -108 -112 0
-191 -99 -102 -108 -112 0
-188 -100 -101 -108 -113 0
-191 -100 -102 -108 -113 0
-191 -101 -102 -108 -114 0
-173 -97 -98 -109 -110 0
-179 -97 -99 -109 -110 0
-184 -97 -100 -109 -110 0
-188 -97 -101 -109 -110 0
-191 -97 -102 -109 -110 0
-179 -98 -99 -109 -111 0
-184 -98 -100 -109 -111 0
-188 -98 -101 -109 -111 0
-191 -98 -102 -109 -111 0
-184 -99 -100 -109 -112 0
-188 -99 -101 -109 -112 0
-191 -99 -102 -109 -112 0
-188 -100 -101 -109 -113 0
-191 -100 -102 -109 -113 0
-191 -101 -102 -109 -114 0
-179 -98 -99 -110 -111 0
-184 -98 -100 -110 -111 0
-188 -98 -101 -110 -111 0
-191 -98 -102 -110 -111 0
-184 -99 -100 -110 -112 0
-188 -99 -101 -110 -112 0
-191 -99 -102 -110 -112 0
-188 -100 -101 -110 -113 0
-191 -100 -102 -110 -113 0
-191 -101 -102 -110 -114 0
-184 -99 -100 -111 -112 0
-188 -99 -101 -111 -112 0
-191 -99 -102 -111 -112 0
-188 -100 -101 -111 -113 0
-191 -100 -102 -111 -113 0
-191 -101 -102 -111 -114 0
-188 -100 -101 -112 -113 0
-191 -100 -102 -112 -113 0
-191 -101 -102 -112 -114 0
-191 -101 -102 -113 -114 0
-158 -95 -96 -119 -120 0
-166 -95 -97 -119 -120 0
-173 -95 -98 -119 -120 0
-179 -95 -99 -119 -120 0
-184 -95 -100 -119 -120 0
-188 -95 -101 -119 -120 0
-191 -95 -102 -119 -120 0
-166 -96 -97 -119 -121 0
-173 -96 -98 -119 -121 0
-179 -96 -99 -119 -121 0
-184 -96 -100 -119 -121 0
-188 -96 -101 -119 -121 0
-191 -96 -102 -119 -121 0
-173 -97 -98 -119 -122 0
-179 -97 -99 -119 -122 0
-184 -97 -100 -119 -122 0
-188 -97 -101 -119 -122 0
-191 -97 -102 -119 -122 0
-179 -98 -99 -119 -123 0
-184 -98 -100 -119 -123 0
-188 -98 -101 -119 -123 0
-191 -98 -102 -119 -123 0
-184 -99 -100 -119 -124 0
-188 -99 -101 -119 -124 0
-191 -99 -102 -119 -124 0
-188 -100 -101 -119 -125 0
-191 -100 -102 -119 -125 0
-191 -101 -102 -119 -126 0
-166 -96 -97 -120 -121 0
-173 -96 -98 -120 -121 0
-179 -96 -99 -120 -121 0
-184 -96 -100 -120 -121 0
-188 -96 -101 -120 -121 0
-191 -96 -102 -120 -121 0
-173 -97 -98 -120 -122 0
-179 -97 -99 -120 -122 0
-184 -97 -100 -120 -122 0
-188 -97 -101 -120 -122 0
-191 -97 -102 -120 -122 0
-179 -98 -99 -120 -123 0
-184 -98 -100 -120 -123 0
-188 -98 -101 -120 -123 0
-191 -98 -102 -120 -123 0
-184 -99 -100 -120 -124 0
-188 -99 -101 -120 -124 0
-191 -99 -102 -120 -124 0
-188 -100 -101 -120 -125 0
-191 -100 -102 -120 -125 0
-191 -101 -102 -120 -126 0
-173 -97 -98 -121 -122 0
-179 -97 -99 -121 -122 0
-184 -97 -100 -121 -122 0
-188 -97 -101 -121 -122 0
-191 -97 -102 -121 -122 0
-179 -98 -99 -121 -123 0
-184 -98 -100 -121 -123 0
-188 -98 -101 -121 -123 0
-191 -98 -102 -121 -123 0
-184 -99 -100 -121 -124 0
-188 -99 -101 -121 -124 0
-191 -99 -102 -121 -124 0
-188 -100 -101 -121 -125 0
-191 -100 -102 -121 -125 0
-191 -101 -102 -121 -126 0
-179 -98 -99 -122 -123 0
-184 -98 -100 -122 -123 0
-188 -98 -101 -122 -123 0
-191 -98 -102 -122 -123 0
-184 -99 -100 -122 -124 0
-188 -99 -101 -122 -124 0
-191 -99 -102 -122 -124 0
-188 -100 -101 -122 -125 0
-191 -100 -102 -122 -125 0
-191 -101 -102 -122 -126 0
-184 -99 -100 -123 -124 0
-188 -99 -101 -123 -124 0
-191 -99 -102 -123 -124 0
-188 -100 -101 -123 -125 0
-191 -100 -102 -123 -125 0
-191 -101 -102 -123 -126 0
-188 -100 -101 -124 -125 0
-191 -100 -102 -124 -125 0
-191 -101 -102 -124 -126 0
-191 -101 -102 -125 -126 0
-166 -96 -97 -131 -132 0
-173 -96 -98 -131 -132 0
-179 -96 -99 -131 -132 0
-184 -96 -100 -131 -132 0
-188 -96 -101 -131 -132 0
-191 -96 -102 -131 -132 0
-173 -97 -98 -131 -133 0
-179 -97 -99 -131 -133 0
-184 -97 -100 -131 -133 0
-188 -97 -101 -131 -133 0
-191 -97 -102 -131 -133 0
-179 -98 -99 -131 -134 0
-184 -98 -100 -131 -134 0
-188 -98 -101 -131 -134 0
-191 -98 -102 -131 -134 0
-184 -99 -100 -131 -135 0
-188 -99 -101 -131 -135 0
-191 -99 -102 -131 -135 0
-188 -100 -101 -131 -136 0
-191 -100 -102 -131 -136 0
-191 -101 -102 -131 -137 0
-173 -97 -98 -132 -133 0
-179 -97 -99 -132 -133 0
-184 -97 -100 -132 -133 0
-188 -97 -101 -132 -133 0
-191 -97 -102 -132 -133 0
-179 -98 -99 -132 -134 0
-184 -98 -100 -132 -134 0
-188 -98 -101 -132 -134 0
-191 -98 -102 -132 -134 0
-184 -99 -100 -132 -135 0
-188 -99 -101 -132 -135 0
-191 -99 -102 -132 -135 0
-188 -100 -101 -132 -136 0
-191 -100 -102 -132 -136 0
-191 -101 -102 -132 -137 0
-179 -98 -99 -133 -134 0
-184 -98 -100 -133 -134 0
-188 -98 -101 -133 -134 0
-191 -98 -102 -133 -134 0
-184 -99 -100 -133 -135 0
-188 -99 -101 -133 -135 0
-191 -99 -102 -133 -135 0
-188 -100 -101 -133 -136 0
-191 -100 -102 -133 -136 0
-191 -101 -102 -133 -137 0
-184 -99 -100 -134 -135 0
-188 -99 -101 -134 -135 0
-191 -99 -102 -134 -135 0
-188 -100 -101 -134 -136 0
-191 -100 -102 -134 -136 0
-191 -101 -102 -134 -137 0
-188 -100 -101 -135 -136 0
-191 -100 -102 -135 -136 0
-191 -101 -102 -135 -137 0
-191 -101 -102 -136 -137 0
-173 -97 -98 -142 -143 0
-179 -97 -99 -142 -143 0
-184 -97 -100 -142 -143 0
-188 -97 -101 -142 -143 0
-191 -97 -102 -142 -143 0
-179 -98 -99 -142 -144 0
-184 -98 -100 -142 -144 0
-188 -98 -101 -142 -144 0
-191 -98 -102 -142 -144 0
-184 -99 -100 -142 -145 0
-188 -99 -101 -142 -145 0
-191 -99 -102 -142 -145 0
-188 -100 -101 -142 -146 0
-191 -100 -102 -142 -146 0
-191 -101 -102 -142 -147 0
-179 -98 -99 -143 -144 0
-184 -98 -100 -143 -144 0
-188 -98 -101 -143 -144 0
-191 -98 -102 -143 -144 0
-184 -99 -100 -143 -145 0
-188 -99 -101 -143 -145 0
-191 -99 -102 -143 -145 0
-188 -100 -101 -143 -146 0
-191 -100 -102 -143 -146 0
-191 -101 -102 -143 -147 0
-184 -99 -100 -144 -145 0
-188 -99 -101 -144 -145 0
-191 -99 -102 -144 -145 0
-188 -100 -101 -144 -146 0
-191 -100 -102 -144 -146 0
-191 -101 -102 -144 -147 0
-188 -100 -101 -145 -146 0
-191 -100 -102 -145 -146 0
-191 -101 -102 -145 -147 0
-191 -101 -102 -146 -147 0
-179 -98 -99 -152 -153 0
-184 -98 -100 -152 -153 0
-188 -98 -101 -152 -153 0
-191 -98 -102 -152 -153 0
-184 -99 -100 -152 -154 0
-188 -99 -101 -152 -154 0
-191 -99 -102 -152 -154 0
-188 -100 -101 -152 -155 0
-191 -100 -102 -152 -155 0
-191 -101 -102 -152 -156 0
-184 -99 -100 -153 -154 0
-188 -99 -101 -153 -154 0
-191 -99 -102 -153 -154 0
-188 -100 -101 -153 -155 0
-191 -100 -102 -153 -155 0
-191 -101 -102 -153 -156 0
-188 -100 -101 -154 -155 0
-191 -100 -102 -154 -155 0
-191 -101 -102 -154 -156 0
-191 -101 -102 -155 -156 0
-184 -99 -100 -161 -162 0
-188 -99 -101 -161 -162 0
-191 -99 -102 -161 -162 0
-188 -100 -101 -161 -163 0
-191 -100 -102 -161 -163 0
-191 -101 -102 -161 -164 0
-188 -100 -101 -162 -163 0
-191 -100 -102 -162 -163 0
-191 -101 -102 -162 -164 0
-191 -101 -102 -163 -164 0
-188 -100 -101 -169 -170 0
-191 -100 -102 -169 -170 0
-191 -101 -102 -169 -171 0
-191 -101 -102 -170 -171 0
-191 -101 -102 -176 -177 0
-158 -108 -109 -119 -120 0
-166 -108 -110 -119 -120 0
-173 -108 -111 -119 -120 0
-179 -108 -112 -119 -120 0
-184 -108 -113 -119 -120 0
-188 -108 -114 -119 -120 0
-191 -108 -115 -119 -120 0
-166 -109 -110 -119 -121 0
-173 -109 -111 -119 -121 0
-179 -109 -112 -119 -121 0
-184 -109 -113 -119 -121 0
-188 -109 -114 -119 -121 0
-191 -109 -115 -119 -121 0
-173 -110 -111 -119 -122 0
-179 -110 -112 -119 -122 0
-184 -110 -113 -119 -122 0
-188 -110 -114 -119 -122 0
-191 -110 -115 -119 -122 0
-179 -111 -112 -119 -123 0
-184 -111 -113 -119 -123 0
-188 -111 -114 -119 -123 0
-191 -111 -115 -119 -123 0
-184 -112 -113 -119 -124 0
-188 -112 -114 -119 -124 0
-191 -112 -115 -119 -124 0
-188 -113 -114 -119 -125 0
-191 -113 -115 -119 -125 0
-191 -114 -115 -119 -126 0
-166 -109 -110 -120 -121 0
-173 -109 -111 -120 -121 0
-179 -109 -112 -120 -121 0
-184 -109 -113 -120 -121 0
-188 -109 -114 -120 -121 0
-191 -109 -115 -120 -121 0
-173 -110 -111 -120 -122 0
-179 -110 -112 -120 -122 0
-184 -110 -113 -120 -122 0
-188 -110 -114 -120 -122 0
-191 -110 -115 -120 -122 0
-179 -111 -112 -120 -123 0
-184 -111 -113 -120 -123 0
-188 -111 -114 -120 -123 0
-191 -111 -115 -120 -123 0
-184 -112 -113 -120 -124 0
-188 -112 -114 -120 -124 0
-191 -112 -115 -120 -124 0
-188 -113 -114 -120 -125 0
-191 -113 -115 -120 -125 0
-191 -114 -115 -120 -126 0
-173 -110 -111 -121 -122 0
-179 -110 -112 -121 -122 0
-184 -110 -113 -121 -122 0
-188 -110 -114 -121 -122 0
-191 -110 -115 -121 -122 0
-179 -111 -112 -121 -123 0
-184 -111 -113 -121 -123 0
-188 -111 -114 -121 -123 0
-191 -111 -115 -121 -123 0
-184 -112 -113 -121 -124 0
-188 -112 -114 -121 -124 0
-191 -112 -115 -121 -124 0
-188 -113 -114 -121 -125 0
-191 -113 -115 -121 -125 0
-191 -114 -115 -121 -126 0
-179 -111 -112 -122 -123 0
-184 -111 -113 -122 -123 0
-188 -111 -114 -122 -123 0
-191 -111 -115 -122 -123 0
-184 -112 -113 -122 -124 0
-188 -112 -114 -122 -124 0
-191 -112 -115 -122 -124 0
-188 -113 -114 -122 -125 0
-191 -113 -115 -122 -125 0
-191 -114 -115 -122 -126 0
-184 -112 -113 -123 -124 0
-188 -112 -114 -123 -124 0
-191 -112 -115 -123 -124 0
-188 -113 -114 -123 -125 0
-191 -113 -115 -123 -125 0
-191 -114 -115 -123 -126 0
-188 -113 -114 -124 -125 0
-191 -113 -115 -124 -125 0
-191 -114 -115 -124 -126 0
-191 -114 -115 -125 -126 0
-166 -109 -110 -131 -132 0
-173 -109 -111 -131 -132 0
-179 -109 -112 -131 -132 0
-184 -109 -113 -131 -132 0
-188 -109 -114 -131 -132 0
-191 -109 -115 -131 -132 0
-173 -110 -111 -131 -133 0
-179 -110 -112 -131 -133 0
-184 -110 -113 -131 -133 0
-188 -110 -114 -131 -133 0
-191 -110 -115 -131 -133 0
-179 -111 -112 -131 -134 0
-184 -111 -113 -131 -134 0
-188 -111 -114 -131 -134 0
-191 -111 -115 -131 -134 0
-184 -112 -113 -131 -135 0
-188 -112 -114 -131 -135 0
-191 -112 -115 -131 -135 0
-188 -113 -114 -131 -136 0
-191 -113 -115 -131 -136 0
-191 -114 -115 -131 -137 0
-173 -110 -111 -132 -133 0
-179 -110 -112 -132 -133 0
-184 -110 -113 -132 -133 0
-188 -110 -114 -132 -133 0
-191 -110 -115 -132 -133 0
-179 -111 -112 -132 -134 0
-184 -111 -113 -132 -134 0
-188 -111 -114 -132 -134 0
-191 -111 -115 -132 -134 0
-184 -112 -113 -132 -135 0
-188 -112 -114 -132 -135 0
-191 -112 -115 -132 -135 0
-188 -113 -114 -132 -136 0
-191 -113 -115 -132 -136 0
-191 -114 -115 -132 -137 0
-179 -111 -112 -133 -134 0
-184 -111 -113 -133 -134 0
-188 -111 -114 -133 -134 0
-191 -111 -115 -133 -134 0
-184 -112 -113 -133 -135 0
-188 -112 -114 -133 -135 0
-191 -112 -115 -133 -135 0
-188 -113 -114 -133 -136 0
-191 -113 -115 -133 -136 0
-191 -114 -115 -133 -137 0
-184 -112 -113 -134 -135 0
-188 -112 -114 -134 -135 0
-191 -112 -115 -134 -135 0
-188 -113 -114 -134 -136 0
-191 -113 -115 -134 -136 0
-191 -114 -115 -134 -137 0
-188 -113 -114 -135 -136 0
-191 -113 -115 -135 -136 0
-191 -114 -115 -135 -137 0
-191 -114 -115 -136 -137 0
-173 -110 -111 -142 -143 0
-179 -110 -112 -142 -143 0
-184 -110 -113 -142 -143 0
-188 -110 -114 -142 -143 0
-191 -110 -115 -142 -143 0
-179 -111 -112 -142 -144 0
-184 -111 -113 -142 -144 0
-188 -111 -114 -142 -144 0
-191 -111 -115 -142 -144 0
-184 -112 -113 -142 -145 0
-188 -112 -114 -142 -145 0
-191 -112 -115 -142 -145 0
-188 -113 -114 -142 -146 0
-191 -113 -115 -142 -146 0
-191 -114 -115 -142 -147 0
-179 -111 -112 -143 -144 0
-184 -111 -113 -143 -144 0
-188 -111 -114 -143 -144 0
-191 -111 -115 -143 -144 0
-184 -112 -113 -143 -145 0
-188 -112 -114 -143 -145 0
-191 -112 -115 -143 -145 0
-188 -113 -114 -143 -146 0
-191 -113 -115 -143 -146 0
-191 -114 -115 -143 -147 0
-184 -112 -113 -144 -145 0
-188 -112 -114 -144 -145 0
-191 -112 -115 -144 -145 0
-188 -113 -114 -144 -146 0
-191 -113 -115 -144 -146 0
-191 -114 -115 -144 -147 0
-188 -113 -114 -145 -146 0
-191 -113 -115 -145 -146 0
-191 -114 -115 -145 -147 0
-191 -114 -115 -146 -147 0
-179 -111 -112 -152 -153 0
-184 -111 -113 -152 -153 0
-188 -111 -114 -152 -153 0
-191 -111 -115 -152 -153 0
-184 -112 -113 -152 -154 0
-188 -112 -114 -152 -154 0
-191 -112 -115 -152 -154 0
-188 -113 -114 -152 -155 0
-191 -113 -115 -152 -155 0
-191 -114 -115 -152 -156 0
-184 -112 -113 -153 -154 0
-188 -112 -114 -153 -154 0
-191 -112 -115 -153 -154 0
-188 -113 -114 -153 -155 0
-191 -113 -115 -153 -155 0
-191 -114 -115 -153 -156 0
-188 -113 -114 -154 -155 0
-191 -113 -115 -154 -155 0
-191 -114 -115 -154 -156 0
-191 -114 -115 -155 -156 0
-184 -112 -113 -161 -162 0
-188 -112 -114 -161 -162 0
-191 -112 -115 -161 -162 0
-188 -113 -114 -161 -163 0
-191 -113 -115 -161 -163 0
-191 -114 -115 -161 -164 0
-188 -113 -114 -162 -163 0
-191 -113 -115 -162 -163 0
-191 -114 -115 -162 -164 0
-191 -114 -115 -163 -164 0
-188 -113 -114 -169 -170 0
-191 -113 -115 -169 -170 0
-191 -114 -115 -169 -171 0
-191 -114 -115 -170 -171 0
-191 -114 -115 -176 -177 0
-166 -121 -122 -131 -132 0
-173 -121 -123 -131 -132 0
-179 -121 -124 -131 -132 0
-184 -121 -125 -131 -132 0
-188 -121 -126 -131 -132 0
-191 -121 -127 -131 -132 0
-173 -122 -123 -131 -133 0
-179 -122 -124 -131 -133 0
-184 -122 -125 -131 -133 0
-188 -122 -126 -131 -133 0
-191 -122 -127 -131 -133 0
-179 -123 -124 -131 -134 0
-184 -123 -125 -131 -134 0
-188 -123 -126 -131 -134 0
-191 -123 -127 -131 -134 0
-184 -124 -125 -131 -135 0
-188 -124 -126 -131 -135 0
-191 -124 -127 -131 -135 0
-188 -125 -126 -131 -136 0
-191 -125 -127 -131 -136 0
-191 -126 -127 -131 -137 0
-173 -122 -123 -132 -133 0
-179 -122 -124 -132 -133 0
-184 -122 -125 -132 -133 0
-188 -122 -126 -132 -133 0
-191 -122 -127 -132 -133 0
-179 -123 -124 -132 -134 0
-184 -123 -125 -132 -134 0
-188 -123 -126 -132 -134 0
-191 -123 -127 -132 -134 0
-184 -124 -125 -132 -135 0
-188 -124 -126 -132 -135 0
-191 -124 -127 -132 -135 0
-188 -125 -126 -132 -136 0
-191 -125 -127 -132 -136 0
-191 -126 -127 -132 -137 0
-179 -123 -124 -133 -134 0
-184 -123 -125 -133 -134 0
-188 -123 -126 -133 -134 0
-191 -123 -127 -133 -134 0
-184 -124 -125 -133 -135 0
-188 -124 -126 -133 -135 0
-191 -124 -127 -133 -135 0
-188 -125 -126 -133 -136 0
-191 -125 -127 -133 -136 0
-191 -126 -127 -133 -137 0
-184 -124 -125 -134 -135 0
-188 -124 -126 -134 -135 0
-191 -124 -127 -134 -135 0
-188 -125 -126 -134 -136 0
-191 -125 -127 -134 -136 0
-191 -126 -127 -134 -137 0
-188 -125 -126 -135 -136 0
-191 -125 -127 -135 -136 0
-191 -126 -127 -135 -137 0
-191 -126 -127 -136 -137 0
-173 -122 -123 -142 -143 0
-179 -122 -124 -142 -143 0
-184 -122 -125 -142 -143 0
-188 -122 -126 -142 -143 0
-191 -122 -127 -142 -143 0
-179 -123 -124 -142 -144 0
-184 -123 -125 -142 -144 0
-188 -123 -126 -142 -144 0
-191 -123 -127 -142 -144 0
-184 -124 -125 -142 -145 0
-188 -124 -126 -142 -145 0
-191 -124 -127 -142 -145 0
-188 -125 -126 -142 -146 0
-191 -125 -127 -142 -146 0
-191 -126 -127 -142 -147 0
-179 -123 -124 -143 -144 0
-184 -123 -125 -143 -144 0
-188 -123 -126 -143 -144 0
-191 -123 -127 -143 -144 0
-184 -124 -125 -143 -145 0
-188 -124 -126 -143 -145 0
-191 -124 -127 -143 -145 0
-188 -125 -126 -143 -146 0
-191 -125 -127 -143 -146 0
-191 -126 -127 -143 -147 0
-184 -124 -125 -144 -145 0
-188 -124 -126 -144 -145 0
-191 -124 -127 -144 -145 0
-188 -125 -126 -144 -146 0
-191 -125 -127 -144 -146 0
-191 -126 -127 -144 -147 0
-188 -125 -126 -145 -146 0
-191 -125 -127 -145 -146 0
-191 -126 -127 -145 -147 0
-191 -126 -127 -146 -147 0
-179 -123 -124 -152 -153 0
-184 -123 -125 -152 -153 0
-188 -123 -126 -152 -153 0
-191 -123 -127 -152 -153 0
-184 -124 -125 -152 -154 0
-188 -124 -126 -152 -154 0
-191 -124 -127 -152 -154 0
-188 -125 -126 -152 -155 0
-191 -125 -127 -152 -155 0
-191 -126 -127 -152 -156 0
-184 -124 -125 -153 -154 0
-188 -124 -126 -153 -154 0
-191 -124 -127 -153 -154 0
-188 -125 -126 -153 -155 0
-191 -125 -127 -153 -155 0
-191 -126 -127 -153 -156 0
-188 -125 -126 -154 -155 0
-191 -125 -127 -154 -155 0
-191 -126 -127 -154 -156 0
-191 -126 -127 -155 -156 0
-184 -124 -125 -161 -162 0
-188 -124 -126 -161 -162 0
-191 -124 -127 -161 -162 0
-188 -125 -126 -161 -163 0
-191 -125 -127 -161 -163 0
-191 -126 -127 -161 -164 0
-188 -125 -126 -162 -163 0
-191 -125 -127 -162 -163 0
-191 -126 -127 -162 -164 0
-191 -126 -127 -163 -164 0
-188 -125 -126 -169 -170 0
-191 -125 -127 -169 -170 0
-191 -126 -127 -169 -171 0
-191 -126 -127 -170 -171 0
-191 -126 -127 -176 -177 0
-173 -133 -134 -142 -143 0
-179 -133 -135 -142 -143 0
-184 -133 -136 -142 -143 0
-188 -133 -137 -142 -143 0
-191 -133 -138 -142 -143 0
-179 -134 -135 -142 -144 0
-184 -134 -136 -142 -144 0
-188 -134 -137 -142 -144 0
-191 -134 -138 -142 -144 0
-184 -135 -136 -142 -145 0
-188 -135 -137 -142 -145 0
-191 -135 -138 -142 -145 0
-188 -136 -137 -142 -146 0
-191 -136 -138 -142 -146 0
-191 -137 -138 -142 -147 0
-179 -134 -135 -143 -144 0
-184 -134 -136 -143 -144 0
-188 -134 -137 -143 -144 0
-191 -134 -138 -143 -144 0
-184 -135 -136 -143 -145 0
-188 -135 -137 -143 -145 0
-191 -135 -138 -143 -145 0
-188 -136 -137 -143 -146 0
-191 -136 -138 -143 -146 0
-191 -137 -138 -143 -147 0
-184 -135 -136 -144 -145 0
-188 -135 -137 -144 -145 0
-191 -135 -138 -144 -145 0
-188 -136 -137 -144 -146 0
-191 -136 -138 -144 -146 0
-191 -137 -138 -144 -147 0
-188 -136 -137 -145 -146 0
-191 -136 -138 -145 -146 0
-191 -137 -138 -145 -147 0
-191 -137 -138 -146 -147 0
-179 -134 -135 -152 -153 0
-184 -134 -136 -152 -153 0
-188 -134 -137 -152 -153 0
-191 -134 -138 -152 -153 0
-184 -135 -136 -152 -154 0
-188 -135 -137 -152 -154 0
-191 -135 -138 -152 -154 0
-188 -136 -137 -152 -155 0
-191 -136 -138 -152 -155 0
-191 -137 -138 -152 -156 0
-184 -135 -136 -153 -154 0
-188 -135 -137 -153 -154 0
-191 -135 -138 -153 -154 0
-188 -136 -137 -153 -155 0
-191 -136 -138 -153 -155 0
-191 -137 -138 -153 -156 0
-188 -136 -137 -154 -155 0
-191 -136 -138 -154 -155 0
-191 -137 -138 -154 -156 0
-191 -137 -138 -155 -156 0
-184 -135 -136 -161 -162 0
-188 -135 -137 -161 -162 0
-191 -135 -138 -161 -162 0
-188 -136 -137 -161 -163 0
-191 -136 -138 -161 -163 0
-191 -137 -138 -161 -164 0
-188 -136 -137 -162 -163 0
-191 -136 -138 -162 -163 0
-191 -137 -138 -162 -164 0
-191 -137 -138 -163 -164 0
-188 -136 -137 -169 -170 0
-191 -136 -138 -169 -170 0
-191 -137 -138 -169 -171 0
-191 -137 -138 -170 -171 0
-191 -137 -138 -176 -177 0
-179 -144 -145 -152 -153 0
-184 -144 -146 -152 -153 0
-188 -144 -147 -152 -153 0
-191 -144 -148 -152 -153 0
-184 -145 -146 -152 -154 0
-188 -145 -147 -152 -154 0
-191 -145 -148 -152 -154 0
-188 -146 -147 -152 -155 0
-191 -146 -148 -152 -155 0
-191 -147 -148 -152 -156 0
-184 -145 -146 -153 -154 0
-188 -145 -147 -153 -154 0
-191 -145 -148 -153 -154 0
-188 -146 -147 -153 -155 0
-191 -146 -148 -153 -155 0
-191 -147 -148 -153 -156 0
-188 -146 -147 -154 -155 0
-191 -146 -148 -154 -155 0
-191 -147 -148 -154 -156 0
-191 -147 -148 -155 -156 0
-184 -145 -146 -161 -162 0
-188 -145 -147 -161 -162 0
-191 -145 -148 -161 -162 0
-188 -146 -147 -161 -163 0
-191 -146 -148 -161 -163 0
-191 -147 -148 -161 -164 0
-188 -146 -147 -162 -163 0
-191 -146 -148 -162 -163 0
-191 -147 -148 -162 -164 0
-191 -147 -148 -163 -164 0
-188 -146 -147 -169 -170 0
-191 -146 -148 -169 -170 0
-191 -147 -148 -169 -171 0
-191 -147 -148 -170 -171 0
-191 -147 -148 -176 -177 0
-184 -154 -155 -161 -162 0
-188 -154 -156 -161 -162 0
-191 -154 -157 -161 -162 0
-188 -155 -156 -161 -163 0
-191 -155 -157 -161 -163 0
-191 -156 -157 -161 -164 0
-188 -155 -156 -162 -163 0
-191 -155 -157 -162 -163 0
-191 -156 -157 -162 -164 0
-191 -156 -157 -163 -164 0
-188 -155 -156 -169 -170 0
-191 -155 -157 -169 -170 0
-191 -156 -157 -169 -171 0
-191 -156 -157 -170 -171 0
-191 -156 -157 -176 -177 0
-188 -163 -164 -169 -170 0
-191 -163 -165 -169 -170 0
-191 -164 -165 -169 -171 0
-191 -164 -165 -170 -171 0
-191 -164 -165 -176 -177 0
-191 -171 -172 -176 -177 0
-140 -130 -141 -92 -93 0
-150 -130 -151 -92 -93 0
-159 -130 -160 -92 -93 0
-167 -130 -168 -92 -93 0
-174 -130 -175 -92 -93 0
-180 -130 -181 -92 -93 0
-185 -130 -186 -92 -93 0
-189 -130 -190 -92 -93 0
-192 -130 -193 -92 -93 0
-194 -130 -195 -92 -93 0
-150 -141 -151 -92 -94 0
-159 -141 -160 -92 -94 0
-167 -141 -168 -92 -94 0
-174 -141 -175 -92 -94 0
-180 -141 -181 -92 -94 0
-185 -141 -186 -92 -94 0
-189 -141 -190 -92 -94 0
-192 -141 -193 -92 -94 0
-194 -141 -195 -92 -94 0
-159 -151 -160 -92 -95 0
-167 -151 -168 -92 -95 0
-174 -151 -175 -92 -95 0
-180 -151 -181 -92 -95 0
-185 -151 -186 -92 -95 0
-189 -151 -190 -92 -95 0
-192 -151 -193 -92 -95 0
-194 -151 -195 -92 -95 0
-167 -160 -168 -92 -96 0
-174 -160 -175 -92 -96 0
-180 -160 -181 -92 -96 0
-185 -160 -186 -92 -96 0
-189 -160 -190 -92 -96 0
-192 -160 -193 -92 -96 0
-194 -160 -195 -92 -96 0
-174 -168 -175 -92 -97 0
-180 -168 -181 -92 -97 0
-185 -168 -186 -92 -97 0
-189 -168 -190 -92 -97 0
-192 -168 -193 -92 -97 0
-194 -168 -195 -92 -97 0
-180 -175 -181 -92 -98 0
-185 -175 -186 -92 -98 0
-189 -175 -190 -92 -98 0
-192 -175 -193 -92 -98 0
-194 -175 -195 -92 -98 0
-185 -181 -186 -92 -99 0
-189 -181 -190 -92 -99 0
-192 -181 -193 -92 -99 0
-194 -181 -195 -92 -99 0
-189 -186 -190 -92 -100 0
-192 -186 -193 -92 -100 0
-194 -186 -195 -92 -100 0
-192 -190 -193 -92 -101 0
-194 -190 -195 -92 -101 0
-194 -193 -195 -92 -102 0
-150 -141 -151 -93 -94 0
-159 -141 -160 -93 -94 0
-167 -141 -168 -93 -94 0
-174 -141 -175 -93 -94 0
-180 -141 -181 -93 -94 0
-185 -141 -186 -93 -94 0
-189 -141 -190 -93 -94 0
-192 -141 -193 -93 -94 0
-194 -141 -195 -93 -94 0
-159 -151 -160 -93 -95 0
-167 -151 -168 -93 -95 0
-174 -151 -175 -93 -95 0
-180 -151 -181 -93 -95 0
-185 -151 -186 -93 -95 0
-189 -151 -190 -93 -95 0
-192 -151 -193 -93 -95 0
-194 -151 -195 -93 -95 0
-167 -160 -168 -93 -96 0
-174 -160 -175 -93 -96 0
-180 -160 -181 -93 -96 0
-185 -160 -186 -93 -96 0
-189 -160 -190 -93 -96 0
-192 -160 -193 -93 -96 0
-194 -160 -195 -93 -96 0
-174 -168 -175 -93 -97 0
-180 -168 -181 -93 -97 0
-185 -168 -186 -93 -97 0
-189 -168 -190 -93 -97 0
-192 -168 -193 -93 -97 0
-194 -168 -195 -93 -97 0
-180 -175 -181 -93 -98 0
-185 -175 -186 -93 -98 0
-189 -175 -190 -93 -98 0
-192 -175 -193 -93 -98 0
-194 -175 -195 -93 -98 0
-185 -181 -186 -93 -99 0
-189 -181 -190 -93 -99 0
-192 -181 -193 -93 -99 0
-194 -181 -195 -93 -99 0
-189 -186 -190 -93 -100 0
-192 -186 -193 -93 -100 0
-194 -186 -195 -93 -100 0
-192 -190 -193 -93 -101 0
-194 -190 -195 -93 -101 0
-194 -193 -195 -93 -102 0
-159 -151 -160 -94 -95 0
-167 -151 -168 -94 -95 0
-174 -151 -175 -94 -95 0
-180 -151 -181 -94 -95 0
-185 -151 -186 -94 -95 0
-189 -151 -190 -94 -95 0
-192 -151 -193 -94 -95 0
-194 -151 -195 -94 -95 0
-167 -160 -168 -94 -96 0
-174 -160 -175 -94 -96 0
-180 -160 -181 -94 -96 0
-185 -160 -186 -94 -96 0
-189 -160 -190 -94 -96 0
-192 -160 -193 -94 -96 0
-194 -160 -195 -94 -96 0
-174 -168 -175 -94 -97 0
-180 -168 -181 -94 -97 0
-185 -168 -186 -94 -97 0
-189 -168 -190 -94 -97 0
-192 -168 -193 -94 -97 0
-194 -168 -195 -94 -97 0
-180 -175 -181 -94 -98 0
-185 -175 -186 -94 -98 0
-189 -175 -190 -94 -98 0
-192 -175 -193 -94 -98 0
-194 -175 -195 -94 -98 0
-185 -181 -186 -94 -99 0
-189 -181 -190 -94 -99 0
-192 -181 -193 -94 -99 0
-194 -181 -195 -94 -99 0
-189 -186 -190 -94 -100 0
-192 -186 -193 -94 -100 0
-194 -186 -195 -94 -100 0
-192 -190 -193 -94 -101 0
-194 -190 -195 -94 -101 0
-194 -193 -195 -94 -102 0
-167 -160 -168 -95 -96 0
-174 -160 -175 -95 -96 0
-180 -160 -181 -95 -96 0
-185 -160 -186 -95 -96 0
-189 -160 -190 -95 -96 0
-192 -160 -193 -95 -96 0
-194 -160 -195 -95 -96 0
-174 -168 -175 -95 -97 0
-180 -168 -181 -95 -97 0
-185 -168 -186 -95 -97 0
-189 -168 -190 -95 -97 0
-192 -168 -193 -95 -97 0
-194 -168 -195 -95 -97 0
-180 -175 -181 -95 -98 0
-185 -175 -186 -95 -98 0
-189 -175 -190 -95 -98 0
-192 -175 -193 -95 -98 0
-194 -175 -195 -95 -98 0
-185 -181 -186 -95 -99 0
-189 -181 -190 -95 -99 0
-192 -181 -193 -95 -99 0
-194 -181 -195 -95 -99 0
-189 -186 -190 -95 -100 0
-192 -186 -193 -95 -100 0
-194 -186 -195 -95 -100 0
-192 -190 -193 -95 -101 0
-194 -190 -195 -95 -101 0
-194 -193 -195 -95 -102 0
-174 -168 -175 -96 -97 0
-180 -168 -181 -96 -97 0
-185 -168 -186 -96 -97 0
-189 -168 -190 -96 -97 0
-192 -168 -193 -96 -97 0
-194 -168 -195 -96 -97 0
-180 -175 -181 -96 -98 0
-185 -175 -186 -96 -98 0
-189 -175 -190 -96 -98 0
-192 -175 -193 -96 -98 0
-194 -175 -195 -96 -98 0
-185 -181 -186 -96 -99 0
-189 -181 -190 -96 -99 0
-192 -181 -193 -96 -99 0
-194 -181 -195 -96 -99 0
-189 -186 -190 -96 -100 0
-192 -186 -193 -96 -100 0
-194 -186 -195 -96 -100 0
-192 -190 -193 -96 -101 0
-194 -190 -195 -96 -101 0
-194 -193 -195 -96 -102 0
-180 -175 -181 -97 -98 0
-185 -175 -186 -97 -98 0
-189 -175 -190 -97 -98 0
-192 -175 -193 -97 -98 0
-194 -175 -195 -97 -98 0
-185 -181 -186 -97 -99 0
-189 -181 -190 -97 -99 0
-192 -181 -193 -97 -99 0
-194 -181 -195 -97 -99 0
-189 -186 -190 -97 -100 0
-192 -186 -193 -97 -100 0
-194 -186 -195 -97 -100 0
-192 -190 -193 -97 -101 0
-194 -190 -195 -97 -101 0
-194 -193 -195 -97 -102 0
-185 -181 -186 -98 -99 0
-189 -181 -190 -98 -99 0
-192 -181 -193 -98 -99 0
-194 -181 -195 -98 -99 0
-189 -186 -190 -98 -100 0
-192 -186 -193 -98 -100 0
-194 -186 -195 -98 -100 0
-192 -190 -193 -98 -101 0
-194 -190 -195 -98 -101 0
-194 -193 -195 -98 -102 0
-189 -186 -190 -99 -100 0
-192 -186 -193 -99 -100 0
-194 -186 -195 -99 -100 0
-192 -190 -193 -99 -101 0
-194 -190 -195 -99 -101 0
-194 -193 -195 -99 -102 0
-192 -190 -193 -100 -101 0
-194 -190 -195 -100 -101 0
-194 -193 -195 -100 -102 0
-194 -193 -195 -101 -102 0
-150 -141 -151 -106 -107 0
-159 -141 -160 -106 -107 0
-167 -141 -168 -106 -107 0
-174 -141 -175 -106 -107 0
-180 -141 -181 -106 -107 0
-185 -141 -186 -106 -107 0
-189 -141 -190 -106 -107 0
-192 -141 -193 -106 -107 0
-194 -141 -195 -106 -107 0
-159 -151 -160 -106 -108 0
-167 -151 -168 -106 -108 0
-174 -151 -175 -106 -108 0
-180 -151 -181 -106 -108 0
-185 -151 -186 -106 -108 0
-189 -151 -190 -106 -108 0
-192 -151 -193 -106 -108 0
-194 -151 -195 -106 -108 0
-167 -160 -168 -106 -109 0
-174 -160 -175 -106 -109 0
-180 -160 -181 -106 -109 0
-185 -160 -186 -106 -109 0
-189 -160 -190 -106 -109 0
-192 -160 -193 -106 -109 0
-194 -160 -195 -106 -109 0
-174 -168 -175 -106 -110 0
-180 -168 -181 -106 -110 0
-185 -168 -186 -106 -110 0
-189 -168 -190 -106 -110 0
-192 -168 -193 -106 -110 0
-194 -168 -195 -106 -110 0
-180 -175 -181 -106 -111 0
-185 -175 -186 -106 -111 0
-189 -175 -190 -106 -111 0
-192 -175 -193 -106 -111 0
-194 -175 -195 -106 -111 0
-185 -181 -186 -106 -112 0
-189 -181 -190 -106 -112 0
-192 -181 -193 -106 -112 0
-194 -181 -195 -106 -112 0
-189 -186 -190 -106 -113 0
-192 -186 -193 -106 -113 0
-194 -186 -195 -106 -113 0
-192 -190 -193 -106 -114 0
-194 -190 -195 -106 -114 0
-194 -193 -195 -106 -115 0
-159 -151 -160 -107 -108 0
-167 -151 -168 -107 -108 0
-174 -151 -175 -107 -108 0
-180 -151 -181 -107 -108 0
-185 -151 -186 -107 -108 0
-189 -151 -190 -107 -108 0
-192 -151 -193 -107 -108 0
-194 -151 -195 -107 -108 0
-167 -160 -168 -107 -109 0
-174 -160 -175 -107 -109 0
-180 -160 -181 -107 -109 0
-185 -160 -186 -107 -109 0
-189 -160 -190 -107 -109 0
-192 -160 -193 -107 -109 0
-194 -160 -195 -107 -109 0
-174 -168 -175 -107 -110 0
-180 -168 -181 -107 -110 0
-185 -168 -186 -107 -110 0
-189 -168 -190 -107 -110 0
-192 -168 -193 -107 -110 0
-194 -168 -195 -107 -110 0
-180 -175 -181 -107 -111 0
-185 -175 -186 -107 -111 0
-189 -175 -190 -107 -111 0
-192 -175 -193 -107 -111 0
-194 -175 -195 -107 -111 0
-185 -181 -186 -107 -112 0
-189 -181 -190 -107 -112 0
-192 -181 -193 -107 -112 0
-194 -181 -195 -107 -112 0
-189 -186 -190 -107 -113 0
-192 -186 -193 -107 -113 0
-194 -186 -195 -107 -113 0
-192 -190 -193 -107 -114 0
-194 -190 -195 -107 -114 0
-194 -193 -195 -107 -115 0
-167 -160 -168 -108 -109 0
-174 -160 -175 -108 -109 0
-180 -160 -181 -108 -109 0
-185 -160 -186 -108 -109 0
-189 -160 -190 -108 -109 0
-192 -160 -193 -108 -109 0
-194 -160 -195 -108 -109 0
-174 -168 -175 -108 -110 0
-180 -168 -181 -108 -110 0
-185 -168 -186 -108 -110 0
-189 -168 -190 -108 -110 0
-192 -168 -193 -108 -110 0
-194 -168 -195 -108 -110 0
-180 -175 -181 -108 -111 0
-185 -175 -186 -108 -111 0
-189 -175 -190 -108 -111 0
-192 -175 -193 -108 -111 0
-194 -175 -195 -108 -111 0
-185 -181 -186 -108 -112 0
-189 -181 -190 -108 -112 0
-192 -181 -193 -108 -112 0
-194 -181 -195 -108 -112 0
-189 -186 -190 -108 -113 0
-192 -186 -193 -108 -113 0
-194 -186 -195 -108 -113 0
-192 -190 -193 -108 -114 0
-194 -190 -195 -108 -114 0
-194 -193 -195 -108 -115 0
-174 -168 -175 -109 -110 0
-180 -168 -181 -109 -110 0
-185 -168 -186 -109 -110 0
-189 -168 -190 -109 -110 0
-192 -168 -193 -109 -110 0
-194 -168 -195 -109 -110 0
-180 -175 -181 -109 -111 0
-185 -175 -186 -109 -111 0
-189 -175 -190 -109 -111 0
-192 -175 -193 -109 -111 0
-194 -175 -195 -109 -111 0
-185 -181 -186 -109 -112 0
-189 -181 -190 -109 -112 0
-192 -181 -193 -109 -112 0
-194 -181 -195 -109 -112 0
-189 -186 -190 -109 -113 0
-192 -186 -193 -109 -113 0
-194 -186 -195 -109 -113 0
-192 -190 -193 -109 -114 0
-194 -190 -195 -109 -114 0
-194 -193 -195 -109 -115 0
-180 -175 -181 -110 -111 0
-185 -175 -186 -110 -111 0
-189 -175 -190 -110 -111 0
-192 -175 -193 -110 -111 0
-194 -175 -195 -110 -111 0
-185 -181 -186 -110 -112 0
-189 -181 -190 -110 -112 0
-192 -181 -193 -110 -112 0
-194 -181 -195 -110 -112 0
-189 -186 -190 -110 -113 0
-192 -186 -193 -110 -113 0
-194 -186 -195 -110 -113 0
-192 -190 -193 -110 -114 0
-194 -190 -195 -110 -114 0
-194 -193 -195 -110 -115 0
-185 -181 -186 -111 -112 0
-189 -181 -190 -111 -112 0
-192 -181 -193 -111 -112 0
-194 -181 -195 -111 -112 0
-189 -186 -190 -111 -113 0
-192 -186 -193 -111 -113 0
-194 -186 -195 -111 -113 0
-192 -190 -193 -111 -114 0
-194 -190 -195 -111 -114 0
-194 -193 -195 -111 -115 0
-189 -186 -190 -112 -113 0
-192 -186 -193 -112 -113 0
-194 -186 -195 -112 -113 0
-192 -190 -193 -112 -114 0
-194 -190 -195 -112 -114 0
-194 -193 -195 -112 -115 0
-192 -190 -193 -113 -114 0
-194 -190 -195 -113 -114 0
-194 -193 -195 -113 -115 0
-194 -193 -195 -114 -115 0
-159 -151 -160 -119 -120 0
-167 -151 -168 -119 -120 0
-174 -151 -175 -119 -120 0
-180 -151 -181 -119 -120 0
-185 -151 -186 -119 -120 0
-189 -151 -190 -119 -120 0
-192 -151 -193 -119 -120 0
-194 -151 -195 -119 -120 0
-167 -160 -168 -119 -121 0
-174 -160 -175 -119 -121 0
-180 -160 -181 -119 -121 0
-185 -160 -186 -119 -121 0
-189 -160 -190 -119 -121 0
-192 -160 -193 -119 -121 0
-194 -160 -195 -119 -121 0
-174 -168 -175 -119 -122 0
-180 -168 -181 -119 -122 0
-185 -168 -186 -119 -122 0
-189 -168 -190 -119 -122 0
-192 -168 -193 -119 -122 0
-194 -168 -195 -119 -122 0
-180 -175 -181 -119 -123 0
-185 -175 -186 -119 -123 0
-189 -175 -190 -119 -123 0
-192 -175 -193 -119 -123 0
-194 -175 -195 -119 -123 0
-185 -181 -186 -119 -124 0
-189 -181 -190 -119 -124 0
-192 -181 -193 -119 -124 0
-194 -181 -195 -119 -124 0
-189 -186 -190 -119 -125 0
-192 -186 -193 -119 -125 0
-194 -186 -195 -119 -125 0
-192 -190 -193 -119 -126 0
-194 -190 -195 -119 -126 0
-194 -193 -195 -119 -127 0
-167 -160 -168 -120 -121 0
-174 -160 -175 -120 -121 0
-180 -160 -181 -120 -121 0
-185 -160 -186 -120 -121 0
-189 -160 -190 -120 -121 0
-192 -160 -193 -120 -121 0
-194 -160 -195 -120 -121 0
-174 -168 -175 -120 -122 0
-180 -168 -181 -120 -122 0
-185 -168 -186 -120 -122 0
-189 -168 -190 -120 -122 0
-192 -168 -193 -120 -122 0
-194 -168 -195 -120 -122 0
-180 -175 -181 -120 -123 0
-185 -175 -186 -120 -123 0
-189 -175 -190 -120 -123 0
-192 -175 -193 -120 -123 0
-194 -175 -195 -120 -123 0
-185 -181 -186 -120 -124 0
-189 -181 -190 -120 -124 0
-192 -181 -193 -120 -124 0
-194 -181 -195 -120 -124 0
-189 -186 -190 -120 -125 0
-192 -186 -193 -120 -125 0
-194 -186 -195 -120 -125 0
-192 -190 -193 -120 -126 0
-194 -190 -195 -120 -126 0
-194 -193 -195 -120 -127 0
-174 -168 -175 -121 -122 0
-180 -168 -181 -121 -122 0
-185 -168 -186 -121 -122 0
-189 -168 -190 -121 -122 0
-192 -168 -193 -121 -122 0
-194 -168 -195 -121 -122 0
-180 -175 -181 -121 -123 0
-185 -175 -186 -121 -123 0
-189 -175 -190 -121 -123 0
-192 -175 -193 -121 -123 0
-194 -175 -195 -121 -123 0
-185 -181 -186 -121 -124 0
-189 -181 -190 -121 -124 0
-192 -181 -193 -121 -124 0
-194 -181 -195 -121 -124 0
-189 -186 -190 -121 -125 0
-192 -186 -193 -121 -125 0
-194 -186 -195 -121 -125 0
-192 -190 -193 -121 -126 0
-194 -190 -195 -121 -126 0
-194 -193 -195 -121 -127 0
-180 -175 -181 -122 -123 0
-185 -175 -186 -122 -123 0
-189 -175 -190 -122 -123 0
-192 -175 -193 -122 -123 0
-194 -175 -195 -122 -123 0
-185 -181 -186 -122 -124 0
-189 -181 -190 -122 -124 0
-192 -181 -193 -122 -124 0
-194 -181 -195 -122 -124 0
-189 -186 -190 -122 -125 0
-192 -186 -193 -122 -125 0
-194 -186 -195 -122 -125 0
-192 -190 -193 -122 -126 0
-194 -190 -195 -122 -126 0
-194 -193 -195 -122 -127 0
-185 -181 -186 -123 -124 0
-189 -181 -190 -123 -124 0
-192 -181 -193 -123 -124 0
-194 -181 -195 -123 -124 0
-189 -186 -190 -123 -125 0
-192 -186 -193 -123 -125 0
-194 -186 -195 -123 -125 0
-192 -190 -193 -123 -126 0
-194 -190 -195 -123 -126 0
-194 -193 -195 -123 -127 0
-189 -186 -190 -124 -125 0
-192 -186 -193 -124 -125 0
-194 -186 -195 -124 -125 0
-192 -190 -193 -124 -126 0
-194 -190 -195 -124 -126 0
-194 -193 -195 -124 -127 0
-192 -190 -193 -125 -126 0
-194 -190 -195 -125 -126 0
-194 -193 -195 -125 -127 0
-194 -193 -195 -126 -127 0
-167 -160 -168 -131 -132 0
-174 -160 -175 -131 -132 0
-180 -160 -181 -131 -132 0
-185 -160 -186 -131 -132 0
-189 -160 -190 -131 -132 0
-192 -160 -193 -131 -132 0
-194 -160 -195 -131 -132 0
-174 -168 -175 -131 -133 0
-180 -168 -181 -131 -133 0
-185 -168 -186 -131 -133 0
-189 -168 -190 -131 -133 0
-192 -168 -193 -131 -133 0
-194 -168 -195 -131 -133 0
-180 -175 -181 -131 -134 0
-185 -175 -186 -131 -134 0
-189 -175 -190 -131 -134 0
-192 -175 -193 -131 -134 0
-194 -175 -195 -131 -134 0
-185 -181 -186 -131 -135 0
-189 -181 -190 -131 -135 0
-192 -181 -193 -131 -135 0
-194 -181 -195 -131 -135 0
-189 -186 -190 -131 -136 0
-192 -186 -193 -131 -136 0
-194 -186 -195 -131 -136 0
-192 -190 -193 -131 -137 0
-194 -190 -195 -131 -137 0
-194 -193 -195 -131 -138 0
-174 -168 -175 -132 -133 0
-180 -168 -181 -132 -133 0
-185 -168 -186 -132 -133 0
-189 -168 -190 -132 -133 0
-192 -168 -193 -132 -133 0
-194 -168 -195 -132 -133 0
-180 -175 -181 -132 -134 0
-185 -175 -186 -132 -134 0
-189 -175 -190 -132 -134 0
-192 -175 -193 -132 -134 0
-194 -175 -195 -132 -134 0
-185 -181 -186 -132 -135 0
-189 -181 -190 -132 -135 0
-192 -181 -193 -132 -135 0
-194 -181 -195 -132 -135 0
-189 -186 -190 -132 -136 0
-192 -186 -193 -132 -136 0
-194 -186 -195 -132 -136 0
-192 -190 -193 -132 -137 0
-194 -190 -195 -132 -137 0
-194 -193 -195 -132 -138 0
-180 -175 -181 -133 -134 0
-185 -175 -186 -133 -134 0
-189 -175 -190 -133 -134 0
-192 -175 -193 -133 -134 0
-194 -175 -195 -133 -134 0
-185 -181 -186 -133 -135 0
-189 -181 -190 -133 -135 0
-192 -181 -193 -133 -135 0
-194 -181 -195 -133 -135 0
-189 -186 -190 -133 -136 0
-192 -186 -193 -133 -136 0
-194 -186 -195 -133 -136 0
-192 -190 -193 -133 -137 0
-194 -190 -195 -133 -137 0
-194 -193 -195 -133 -138 0
-185 -181 -186 -134 -135 0
-189 -181 -190 -134 -135 0
-192 -181 -193 -134 -135 0
-194 -181 -195 -134 -135 0
-189 -186 -190 -134 -136 0
-192 -186 -193 -134 -136 0
-194 -186 -195 -134 -136 0
-192 -190 -193 -134 -137 0
-194 -190 -195 -134 -137 0
-194 -193 -195 -134 -138 0
-189 -186 -190 -135 -136 0
-192 -186 -193 -135 -136 0
-194 -186 -195 -135 -136 0
-192 -190 -193 -135 -137 0
-194 -190 -195 -135 -137 0
-194 -193 -195 -135 -138 0
-192 -190 -193 -136 -137 0
-194 -190 -195 -136 -137 0
-194 -193 -195 -136 -138 0
-194 -193 -195 -137 -138 0
-174 -168 -175 -142 -143 0
-180 -168 -181 -142 -143 0
-185 -168 -186 -142 -143 0
-189 -168 -190 -142 -143 0
-192 -168 -193 -142 -143 0
-194 -168 -195 -142 -143 0
-180 -175 -181 -142 -144 0
-185 -175 -186 -142 -144 0
-189 -175 -190 -142 -144 0
-192 -175 -193 -142 -144 0
-194 -175 -195 -142 -144 0
-185 -181 -186 -142 -145 0
-189 -181 -190 -142 -145 0
-192 -181 -193 -142 -145 0
-194 -181 -195 -142 -145 0
-189 -186 -190 -142 -146 0
-192 -186 -193 -142 -146 0
-194 -186 -195 -142 -146 0
-192 -190 -193 -142 -147 0
-194 -190 -195 -142 -147 0
-194 -193 -195 -142 -148 0
-180 -175 -181 -143 -144 0
-185 -175 -186 -143 -144 0
-189 -175 -190 -143 -144 0
-192 -175 -193 -143 -144 0
-194 -175 -195 -143 -144 0
-185 -181 -186 -143 -145 0
-189 -181 -190 -143 -145 0
-192 -181 -193 -143 -145 0
-194 -181 -195 -143 -145 0
-189 -186 -190 -143 -146 0
-192 -186 -193 -143 -146 0
-194 -186 -195 -143 -146 0
-192 -190 -193 -143 -147 0
-194 -190 -195 -143 -147 0
-194 -193 -195 -143 -148 0
-185 -181 -186 -144 -145 0
-189 -181 -190 -144 -145 0
-192 -181 -193 -144 -145 0
-194 -181 -195 -144 -145 0
-189 -186 -190 -144 -146 0
-192 -186 -193 -144 -146 0
-194 -186 -195 -144 -146 0
-192 -190 -193 -144 -147 0
-194 -190 -195 -144 -147 0
-194 -193 -195 -144 -148 0
-189 -186 -190 -145 -146 0
-192 -186 -193 -145 -146 0
-194 -186 -195 -145 -146 0
-192 -190 -193 -145 -147 0
-194 -190 -195 -145 -147 0
-194 -193 -195 -145 -148 0
-192 -190 -193 -146 -147 0
-194 -190 -195 -146 -147 0
-194 -193 -195 -146 -148 0
-194 -193 -195 -147 -148 0
-180 -175 -181 -152 -153 0
-185 -175 -186 -152 -153 0
-189 -175 -190 -152 -153 0
-192 -175 -193 -152 -153 0
-194 -175 -195 -152 -153 0
-185 -181 -186 -152 -154 0
-189 -181 -190 -152 -154 0
-192 -181 -193 -152 -154 0
-194 -181 -195 -152 -154 0
-189 -186 -190 -152 -155 0
-192 -186 -193 -152 -155 0
-194 -186 -195 -152 -155 0
-192 -190 -193 -152 -156 0
-194 -190 -195 -152 -156 0
-194 -193 -195 -152 -157 0
-185 -181 -186 -153 -154 0
-189 -181 -190 -153 -154 0
-192 -181 -193 -153 -154 0
-194 -181 -195 -153 -154 0
-189 -186 -190 -153 -155 0
-192 -186 -193 -153 -155 0
-194 -186 -195 -153 -155 0
-192 -190 -193 -153 -156 0
-194 -190 -195 -153 -156 0
-194 -193 -195 -153 -157 0
-189 -186 -190 -154 -155 0
-192 -186 -193 -154 -155 0
-194 -186 -195 -154 -155 0
-192 -190 -193 -154 -156 0
-194 -190 -195 -154 -156 0
-194 -193 -195 -154 -157 0
-192 -190 -193 -155 -156 0
-194 -190 -195 -155 -156 0
-194 -193 -195 -155 -157 0
-194 -193 -195 -156 -157 0
-185 -181 -186 -161 -162 0
-189 -181 -190 -161 -162 0
-192 -181 -193 -161 -162 0
-194 -181 -195 -161 -162 0
-189 -186 -190 -161 -163 0
-192 -186 -193 -161 -163 0
-194 -186 -195 -161 -163 0
-192 -190 -193 -161 -164 0
-194 -190 -195 -161 -164 0
-194 -193 -195 -161 -165 0
-189 -186 -190 -162 -163 0
-192 -186 -193 -162 -163 0
-194 -186 -195 -162 -163 0
-192 -190 -193 -162 -164 0
-194 -190 -195 -162 -164 0
-194 -193 -195 -162 -165 0
-192 -190 -193 -163 -164 0
-194 -190 -195 -163 -164 0
-194 -193 -195 -163 -165 0
-194 -193 -195 -164 -165 0
-189 -186 -190 -169 -170 0
-192 -186 -193 -169 -170 0
-194 -186 -195 -169 -170 0
-192 -190 -193 -169 -171 0
-194 -190 -195 -169 -171 0
-194 -193 -195 -169 -172 0
-192 -190 -193 -170 -171 0
-194 -190 -195 -170 -171 0
-194 -193 -195 -170 -172 0
-194 -193 -195 -171 -172 0
-192 -190 -193 -176 -177 0
-194 -190 -195 -176 -177 0
-194 -193 -195 -176 -178 0
-194 -193 -195 -177 -178 0
-194 -193 -195 -182 -183 0
-150 -94 -95 -106 -107 0
-159 -94 -96 -106 -107 0
-167 -94 -97 -106 -107 0
-174 -94 -98 -106 -107 0
-180 -94 -99 -106 -107 0
-185 -94 -100 -106 -107 0
-189 -94 -101 -106 -107 0
-192 -94 -102 -106 -107 0
-194 -94 -103 -106 -107 0
-159 -95 -96 -106 -108 0
-167 -95 -97 -106 -108 0
-174 -95 -98 -106 -108 0
-180 -95 -99 -106 -108 0
-185 -95 -100 -106 -108 0
-189 -95 -101 -106 -108 0
-192 -95 -102 -106 -108 0
-194 -95 -103 -106 -108 0
-167 -96 -97 -106 -109 0
-174 -96 -98 -106 -109 0
-180 -96 -99 -106 -109 0
-185 -96 -100 -106 -109 0
-189 -96 -101 -106 -109 0
-192 -96 -102 -106 -109 0
-194 -96 -103 -106 -109 0
-174 -97 -98 -106 -110 0
-180 -97 -99 -106 -110 0
-185 -97 -100 -106 -110 0
-189 -97 -101 -106 -110 0
-192 -97 -102 -106 -110 0
-194 -97 -103 -106 -110 0
-180 -98 -99 -106 -111 0
-185 -98 -100 -106 -111 0
-189 -98 -101 -106 -111 0
-192 -98 -102 -106 -111 0
-194 -98 -103 -106 -111 0
-185 -99 -100 -106 -112 0
-189 -99 -101 -106 -112 0
-192 -99 -102 -106 -112 0
-194 -99 -103 -106 -112 0
-189 -100 -101 -106 -113 0
-192 -100 -102 -106 -113 0
-194 -100 -103 -106 -113 0
-192 -101 -102 -106 -114 0
-194 -101 -103 -106 -114 0
-194 -102 -103 -106 -115 0
-159 -95 -96 -107 -108 0
-167 -95 -97 -107 -108 0
-174 -95 -98 -107 -108 0
-180 -95 -99 -107 -108 0
-185 -95 -100 -107 -108 0
-189 -95 -101 -107 -108 0
-192 -95 -102 -107 -108 0
-194 -95 -103 -107 -108 0
-167 -96 -97 -107 -109 0
-174 -96 -98 -107 -109 0
-180 -96 -99 -107 -109 0
-185 -96 -100 -107 -109 0
-189 -96 -101 -107 -109 0
-192 -96 -102 -107 -109 0
-194 -96 -103 -107 -109 0
-174 -97 -98 -107 -110 0
-180 -97 -99 -107 -110 0
-185 -97 -100 -107 -110 0
-189 -97 -101 -107 -110 0
-192 -97 -102 -107 -110 0
-194 -97 -103 -107 -110 0
-180 -98 -99 -107 -111 0
-185 -98 -100 -107 -111 0
-189 -98 -101 -107 -111 0
-192 -98 -102 -107 -111 0
-194 -98 -103 -107 -111 0
-185 -99 -100 -107 -112 0
-189 -99 -101 -107 -112 0
-192 -99 -102 -107 -112 0
-194 -99 -103 -107 -112 0
-189 -100 -101 -107 -113 0
-192 -100 -102 -107 -113 0
-194 -100 -103 -107 -113 0
-192 -101 -102 -107 -114 0
-194 -101 -103 -107 -114 0
-194 -102 -103 -107 -115 0
-167 -96 -97 -108 -109 0
-174 -96 -98 -108 -109 0
-180 -96 -99 -108 -109 0
-185 -96 -100 -108 -109 0
-189 -96 -101 -108 -109 0
-192 -96 -102 -108 -109 0
-194 -96 -103 -108 -109 0
-174 -97 -98 -108 -110 0
-180 -97 -99 -108 -110 0
-185 -97 -100 -108 -110 0
-189 -97 -101 -108 -110 0
-192 -97 -102 -108 -110 0
-194 -97 -103 -108 -110 0
-180 -98 -99 -108 -111 0
-185 -98 -100 -108 -111 0
-189 -98 -101 -108 -111 0
-192 -98 -102 -108 -111 0
-194 -98 -103 -108 -111 0
-185 -99 -100 -108 -112 0
-189 -99 -101 -108 -112 0
-192 -99 -102 -108 -112 0
-194 -99 -103 -108 -112 0
-189 -100 -101 -108 -113 0
-192 -100 -102 -108 -113 0
-194 -100 -103 -108 -113 0
-192 -101 -102 -108 -114 0
-194 -101 -103 -108 -114 0
-194 -102 -103 -108 -115 0
-174 -97 -98 -109 -110 0
-180 -97 -99 -109 -110 0
-185 -97 -100 -109 -110 0
-189 -97 -101 -109 -110 0
-192 -97 -102 -109 -110 0
-194 -97 -103 -109 -110 0
-180 -98 -99 -109 -111 0
-185 -98 -100 -109 -111 0
-189 -98 -101 -109 -111 0
-192 -98 -102 -109 -111 0
-194 -98 -103 -109 -111 0
-185 -99 -100 -109 -112 0
-189 -99 -101 -109 -112 0
-192 -99 -102 -109 -112 0
-194 -99 -103 -109 -112 0
-189 -100 -101 -109 -113 0
-192 -100 -102 -109 -113 0
-194 -100 -103 -109 -113 0
-192 -101 -102 -109 -114 0
-194 -101 -103 -109 -114 0
-194 -102 -103 -109 -115 0
-180 -98 -99 -110 -111 0
-185 -98 -100 -110 -111 0
-189 -98 -101 -110 -111 0
-192 -98 -102 -110 -111 0
-194 -98 -103 -110 -111 0
-185 -99 -100 -110 -112 0
-189 -99 -101 -110 -112 0
-192 -99 -102 -110 -112 0
-194 -99 -103 -110 -112 0
-189 -100 -101 -110 -113 0
-192 -100 -102 -110 -113 0
-194 -100 -103 -110 -113 0
-192 -101 -102 -110 -114 0
-194 -101 -103 -110 -114 0
-194 -102 -103 -110 -115 0
-185 -99 -100 -111 -112 0
-189 -99 -101 -111 -112 0
-192 -99 -102 -111 -112 0
-194 -99 -103 -111 -112 0
-189 -100 -101 -111 -113 0
-192 -100 -102 -111 -113 0
-194 -100 -103 -111 -113 0
-192 -101 -102 -111 -114 0
-194 -101 -103 -111 -114 0
-194 -102 -103 -111 -115 0
-189 -100 -101 -112 -113 0
-192 -100 -102 -112 -113 0
-194 -100 -103 -112 -113 0
-192 -101 -102 -112 -114 0
-194 -101 -103 -112 -114 0
-194 -102 -103 -112 -115 0
-192 -101 -102 -113 -114 0
-194 -101 -103 -113 -114 0
-194 -102 -103 -113 -115 0
-194 -102 -103 -114 -115 0
-159 -95 -96 -119 -120 0
-167 -95 -97 -119 -120 0
-174 -95 -98 -119 -120 0
-180 -95 -99 -119 -120 0
-185 -95 -100 -119 -120 0
-189 -95 -101 -119 -120 0
-192 -95 -102 -119 -120 0
-194 -95 -103 -119 -120 0
-167 -96 -97 -119 -121 0
-174 -96 -98 -119 -121 0
-180 -96 -99 -119 -121 0
-185 -96 -100 -119 -121 0
-189 -96 -101 -119 -121 0
-192 -96 -102 -119 -121 0
-194 -96 -103 -119 -121 0
-174 -97 -98 -119 -122 0
-180 -97 -99 -119 -122 0
-185 -97 -100 -119 -122 0
-189 -97 -101 -119 -122 0
-192 -97 -102 -119 -122 0
-194 -97 -103 -119 -122 0
-180 -98 -99 -119 -123 0
-185 -98 -100 -119 -123 0
-189 -98 -101 -119 -123 0
-192 -98 -102 -119 -123 0
-194 -98 -103 -119 -123 0
-185 -99 -100 -119 -124 0
-189 -99 -101 -119 -124 0
-192 -99 -102 -119 -124 0
-194 -99 -103 -119 -124 0
-189 -100 -101 -119 -125 0
-192 -100 -102 -119 -125 0
-194 -100 -103 -119 -125 0
-192 -101 -102 -119 -126 0
-194 -101 -103 -119 -126 0
-194 -102 -103 -119 -127 0
-167 -96 -97 -120 -121 0
-174 -96 -98 -120 -121 0
-180 -96 -99 -120 -121 0
-185 -96 -100 -120 -121 0
-189 -96 -101 -120 -121 0
-192 -96 -102 -120 -121 0
-194 -96 -103 -120 -121 0
-174 -97 -98 -120 -122 0
-180 -97 -99 -120 -122 0
-185 -97 -100 -120 -122 0
-189 -97 -101 -120 -122 0
-192 -97 -102 -120 -122 0
-194 -97 -103 -120 -122 0
-180 -98 -99 -120 -123 0
-185 -98 -100 -120 -123 0
-189 -98 -101 -120 -123 0
-192 -98 -102 -120 -123 0
-194 -98 -103 -120 -123 0
-185 -99 -100 -120 -124 0
-189 -99 -101 -120 -124 0
-192 -99 -102 -120 -124 0
-194 -99 -103 -120 -124 0
-189 -100 -101 -120 -125 0
-192 -100 -102 -120 -125 0
-194 -100 -103 -120 -125 0
-192 -101 -102 -120 -126 0
-194 -101 -103 -120 -126 0
-194 -102 -103 -120 -127 0
-174 -97 -98 -121 -122 0
-180 -97 -99 -121 -122 0
-185 -97 -100 -121 -122 0
-189 -97 -101 -121 -122 0
-192 -97 -102 -121 -122 0
-194 -97 -103 -121 -122 0
-180 -98 -99 -121 -123 0
-185 -98 -100 -121 -123 0
-189 -98 -101 -121 -123 0
-192 -98 -102 -121 -123 0
-194 -98 -103 -121 -123 0
-185 -99 -100 -121 -124 0
-189 -99 -101 -121 -124 0
-192 -99 -102 -121 -124 0
-194 -99 -103 -121 -124 0
-189 -100 -101 -121 -125 0
-192 -100 -102 -121 -125 0
-194 -100 -103 -121 -125 0
-192 -101 -102 -121 -126 0
-194 -101 -103 -121 -126 0
-194 -102 -103 -121 -127 0
-180 -98 -99 -122 -123 0
-185 -98 -100 -122 -123 0
-189 -98 -101 -122 -123 0
-192 -98 -102 -122 -123 0
-194 -98 -103 -122 -123 0
-185 -99 -100 -122 -124 0
-189 -99 -101 -122 -124 0
-192 -99 -102 -122 -124 0
-194 -99 -103 -122 -124 0
-189 -100 -101 -122 -125 0
-192 -100 -102 -122 -125 0
-194 -100 -103 -122 -125 0
-192 -101 -102 -122 -126 0
-194 -101 -103 -122 -126 0
-194 -102 -103 -122 -127 0
-185 -99 -100 -123 -124 0
-189 -99 -101 -123 -124 0
-192 -99 -102 -123 -124 0
-194 -99 -103 -123 -124 0
-189 -100 -101 -123 -125 0
-192 -100 -102 -123 -125 0
-194 -100 -103 -123 -125 0
-192 -101 -102 -123 -126 0
-194 -101 -103 -123 -126 0
-194 -102 -103 -123 -127 0
-189 -100 -101 -124 -125 0
-192 -100 -102 -124 -125 0
-194 -100 -103 -124 -125 0
-192 -101 -102 -124 -126 0
-194 -101 -103 -124 -126 0
-194 -102 -103 -124 -127 0
-192 -101 -102 -125 -126 0
-194 -101 -103 -125 -126 0
-194 -102 -103 -125 -127 0
-194 -102 -103 -126 -127 0
-167 -96 -97 -131 -132 0
-174 -96 -98 -131 -132 0
-180 -96 -99 -131 -132 0
-185 -96 -100 -131 -132 0
-189 -96 -101 -131 -132 0
-192 -96 -102 -131 -132 0
-194 -96 -103 -131 -132 0
-174 -97 -98 -131 -133 0
-180 -97 -99 -131 -133 0
-185 -97 -100 -131 -133 0
-189 -97 -101 -131 -133 0
-192 -97 -102 -131 -133 0
-194 -97 -103 -131 -133 0
-180 -98 -99 -131 -134 0
-185 -98 -100 -131 -134 0
-189 -98 -101 -131 -134 0
-192 -98 -102 -131 -134 0
-194 -98 -103 -131 -134 0
-185 -99 -100 -131 -135 0
-189 -99 -101 -131 -135 0
-192 -99 -102 -131 -135 0
-194 -99 -103 -131 -135 0
-189 -100 -101 -131 -136 0
-192 -100 -102 -131 -136 0
-194 -100 -103 -131 -136 0
-192 -101 -102 -131 -137 0
-194 -101 -103 -131 -137 0
-194 -102 -103 -131 -138 0
-174 -97 -98 -132 -133 0
-180 -97 -99 -132 -133 0
-185 -97 -100 -132 -133 0
-189 -97 -101 -132 -133 0
-192 -97 -102 -132 -133 0
-194 -97 -103 -132 -133 0
-180 -98 -99 -132 -134 0
-185 -98 -100 -132 -134 0
-189 -98 -101 -132 -134 0
-192 -98 -102 -132 -134 0
-194 -98 -103 -132 -134 0
-185 -99 -100 -132 -135 0
-189 -99 -101 -132 -135 0
-192 -99 -102 -132 -135 0
-194 -99 -103 -132 -135 0
-189 -100 -101 -132 -136 0
-192 -100 -102 -132 -136 0
-194 -100 -103 -132 -136 0
-192 -101 -102 -132 -137 0
-194 -101 -103 -132 -137 0
-194 -102 -103 -132 -138 0
-180 -98 -99 -133 -134 0
-185 -98 -100 -133 -134 0
-189 -98 -101 -133 -134 0
-192 -98 -102 -133 -134 0
-194 -98 -103 -133 -134 0
-185 -99 -100 -133 -135 0
-189 -99 -101 -133 -135 0
-192 -99 -102 -133 -135 0
-194 -99 -103 -133 -135 0
-189 -100 -101 -133 -136 0
-192 -100 -102 -133 -136 0
-194 -100 -103 -133 -136 0
-192 -101 -102 -133 -137 0
-194 -101 -103 -133 -137 0
-194 -102 -103 -133 -138 0
-185 -99 -100 -134 -135 0
-189 -99 -101 -134 -135 0
-192 -99 -102 -134 -135 0
-194 -99 -103 -134 -135 0
-189 -100 -101 -134 -136 0
-192 -100 -102 -134 -136 0
-194 -100 -103 -134 -136 0
-192 -101 -102 -134 -137 0
-194 -101 -103 -134 -137 0
-194 -102 -103 -134 -138 0
-189 -100 -101 -135 -136 0
-192 -100 -102 -135 -136 0
-194 -100 -103 -135 -136 0
-192 -101 -102 -135 -137 0
-194 -101 -103 -135 -137 0
-194 -102 -103 -135 -138 0
-192 -101 -102 -136 -137 0
-194 -101 -103 -136 -137 0
-194 -102 -103 -136 -138 0
-194 -102 -103 -137 -138 0
-174 -97 -98 -142 -143 0
-180 -97 -99 -142 -143 0
-185 -97 -100 -142 -143 0
-189 -97 -101 -142 -143 0
-192 -97 -102 -142 -143 0
-194 -97 -103 -142 -143 0
-180 -98 -99 -142 -144 0
-185 -98 -100 -142 -144 0
-189 -98 -101 -142 -144 0
-192 -98 -102 -142 -144 0
-194 -98 -103 -142 -144 0
-185 -99 -100 -142 -145 0
-189 -99 -101 -142 -145 0
-192 -99 -102 -142 -145 0
-194 -99 -103 -142 -145 0
-189 -100 -101 -142 -146 0
-192 -100 -102 -142 -146 0
-194 -100 -103 -142 -146 0
-192 -101 -102 -142 -147 0
-194 -101 -103 -142 -147 0
-194 -102 -103 -142 -148 0
-180 -98 -99 -143 -144 0
-185 -98 -100 -143 -144 0
-189 -98 -101 -143 -144 0
-192 -98 -102 -143 -144 0
-194 -98 -103 -143 -144 0
-185 -99 -100 -143 -145 0
-189 -99 -101 -143 -145 0
-192 -99 -102 -143 -145 0
-194 -99 -103 -143 -145 0
-189 -100 -101 -143 -146 0
-192 -100 -102 -143 -146 0
-194 -100 -103 -143 -146 0
-192 -101 -102 -143 -147 0
-194 -101 -103 -143 -147 0
-194 -102 -103 -143 -148 0
-185 -99 -100 -144 -145 0
-189 -99 -101 -144 -145 0
-192 -99 -102 -144 -145 0
-194 -99 -103 -144 -145 0
-189 -100 -101 -144 -146 0
-192 -100 -102 -144 -146 0
-194 -100 -103 -144 -146 0
-192 -101 -102 -144 -147 0
-194 -101 -103 -144 -147 0
-194 -102 -103 -144 -148 0
-189 -100 -101 -145 -146 0
-192 -100 -102 -145 -146 0
-194 -100 -103 -145 -146 0
-192 -101 -102 -145 -147 0
-194 -101 -103 -145 -147 0
-194 -102 -103 -145 -148 0
-192 -101 -102 -146 -147 0
-194 -101 -103 -146 -147 0
-194 -102 -103 -146 -148 0
-194 -102 -103 -147 -148 0
-180 -98 -99 -152 -153 0
-185 -98 -100 -152 -153 0
-189 -98 -101 -152 -153 0
-192 -98 -102 -152 -153 0
-194 -98 -103 -152 -153 0
-185 -99 -100 -152 -154 0
-189 -99 -101 -152 -154 0
-192 -99 -102 -152 -154 0
-194 -99 -103 -152 -154 0
-189 -100 -101 -152 -155 0
-192 -100 -102 -152 -155 0
-194 -100 -103 -152 -155 0
-192 -101 -102 -152 -156 0
-194 -101 -103 -152 -156 0
-194 -102 -103 -152 -157 0
-185 -99 -100 -153 -154 0
-189 -99 -101 -153 -154 0
-192 -99 -102 -153 -154 0
-194 -99 -103 -153 -154 0
-189 -100 -101 -153 -155 0
-192 -100 -102 -153 -155 0
-194 -100 -103 -153 -155 0
-192 -101 -102 -153 -156 0
-194 -101 -103 -153 -156 0
-194 -102 -103 -153 -157 0
-189 -100 -101 -154 -155 0
-192 -100 -102 -154 -155 0
-194 -100 -103 -154 -155 0
-192 -101 -102 -154 -156 0
-194 -101 -103 -154 -156 0
-194 -102 -103 -154 -157 0
-192 -101 -102 -155 -156 0
-194 -101 -103 -155 -156 0
-194 -102 -103 -155 -157 0
-194 -102 -103 -156 -157 0
-185 -99 -100 -161 -162 0
-189 -99 -101 -161 -162 0
-192 -99 -102 -161 -162 0
-194 -99 -103 -161 -162 0
-189 -100 -101 -161 -163 0
-192 -100 -102 -161 -163 0
-194 -100 -103 -161 -163 0
-192 -101 -102 -161 -164 0
-194 -101 -103 -161 -164 0
-194 -102 -103 -161 -165 0
-189 -100 -101 -162 -163 0
-192 -100 -102 -162 -163 0
-194 -100 -103 -162 -163 0
-192 -101 -102 -162 -164 0
-194 -101 -103 -162 -164 0
-194 -102 -103 -162 -165 0
-192 -101 -102 -163 -164 0
-194 -101 -103 -163 -164 0
-194 -102 -103 -163 -165 0
-194 -102 -103 -164 -165 0
-189 -100 -101 -169 -170 0
-192 -100 -102 -169 -170 0
-194 -100 -103 -169 -170 0
-192 -101 -102 -169 -171 0
-194 -101 -103 -169 -171 0
-194 -102 -103 -169 -172 0
-192 -101 -102 -170 -171 0
-194 -101 -103 -170 -171 0
-194 -102 -103 -170 -172 0
-194 -102 -103 -171 -172 0
-192 -101 -102 -176 -177 0
-194 -101 -103 -176 -177 0
-194 -102 -103 -176 -178 0
-194 -102 -103 -177 -178 0
-194 -102 -103 -182 -183 0
-159 -108 -109 -119 -120 0
-167 -108 -110 -119 -120 0
-174 -108 -111 -119 -120 0
-180 -108 -112 -119 -120 0
-185 -108 -113 -119 -120 0
-189 -108 -114 -119 -120 0
-192 -108 -115 -119 -120 0
-194 -108 -116 -119 -120 0
-167 -109 -110 -119 -121 0
-174 -109 -111 -119 -121 0
-180 -109 -112 -119 -121 0
-185 -109 -113 -119 -121 0
-189 -109 -114 -119 -121 0
-192 -109 -115 -119 -121 0
-194 -109 -116 -119 -121 0
-174 -110 -111 -119 -122 0
-180 -110 -112 -119 -122 0
-185 -110 -113 -119 -122 0
-189 -110 -114 -119 -122 0
-192 -110 -115 -119 -122 0
-194 -110 -116 -119 -122 0
-180 -111 -112 -119 -123 0
-185 -111 -113 -119 -123 0
-189 -111 -114 -119 -123 0
-192 -111 -115 -119 -123 0
-194 -111 -116 -119 -123 0
-185 -112 -113 -119 -124 0
-189 -112 -114 -119 -124 0
-192 -112 -115 -119 -124 0
-194 -112 -116 -119 -124 0
-189 -113 -114 -119 -125 0
-192 -113 -115 -119 -125 0
-194 -113 -116 -119 -125 0
-192 -114 -115 -119 -126 0
-194 -114 -116 -119 -126 0
-194 -115 -116 -119 -127 0
-167 -109 -110 -120 -121 0
-174 -109 -111 -120 -121 0
-180 -109 -112 -120 -121 0
-185 -109 -113 -120 -121 0
-189 -109 -114 -120 -121 0
-192 -109 -115 -120 -121 0
-194 -109 -116 -120 -121 0
-174 -110 -111 -120 -122 0
-180 -110 -112 -120 -122 0
-185 -110 -113 -120 -122 0
-189 -110 -114 -120 -122 0
-192 -110 -115 -120 -122 0
-194 -110 -116 -120 -122 0
-180 -111 -112 -120 -123 0
-185 -111 -113 -120 -123 0
-189 -111 -114 -120 -123 0
-192 -111 -115 -120 -123 0
-194 -111 -116 -120 -123 0
-185 -112 -113 -120 -124 0
-189 -112 -114 -120 -124 0
-192 -112 -115 -120 -124 0
-194 -112 -116 -120 -124 0
-189 -113 -114 -120 -125 0
-192 -113 -115 -120 -125 0
-194 -113 -116 -120 -125 0
-192 -114 -115 -120 -126 0
-194 -114 -116 -120 -126 0
-194 -115 -116 -120 -127 0
-174 -110 -111 -121 -122 0
-180 -110 -112 -121 -122 0
-185 -110 -113 -121 -122 0
-189 -110 -114 -121 -122 0
-192 -110 -115 -121 -122 0
-194 -110 -116 -121 -122 0
-180 -111 -112 -121 -123 0
-185 -111 -113 -121 -123 0
-189 -111 -114 -121 -123 0
-192 -111 -115 -121 -123 0
-194 -111 -116 -121 -123 0
-185 -112 -113 -121 -124 0
-189 -112 -114 -121 -124 0
-192 -112 -115 -121 -124 0
-194 -112 -116 -121 -124 0
-189 -113 -114 -121 -125 0
-192 -113 -115 -121 -125 0
-194 -113 -116 -121 -125 0
-192 -114 -115 -121 -126 0
-194 -114 -116 -121 -126 0
-194 -115 -116 -121 -127 0
-180 -111 -112 -122 -123 0
-185 -111 -113 -122 -123 0
-189 -111 -114 -122 -123 0
-192 -111 -115 -122 -123 0
-194 -111 -116 -122 -123 0
-185 -112 -113 -122 -124 0
-189 -112 -114 -122 -124 0
-192 -112 -115 -122 -124 0
-194 -112 -116 -122 -124 0
-189 -113 -114 -122 -125 0
-192 -113 -115 -122 -125 0
-194 -113 -116 -122 -125 0
-192 -114 -115 -122 -126 0
-194 -114 -116 -122 -126 0
-194 -115 -116 -122 -127 0
-185 -112 -113 -123 -124 0
-189 -112 -114 -123 -124 0
-192 -112 -115 -123 -124 0
-194 -112 -116 -123 -124 0
-189 -113 -114 -123 -125 0
-192 -113 -115 -123 -125 0
-194 -113 -116 -123 -125 0
-192 -114 -115 -123 -126 0
-194 -114 -116 -123 -126 0
-194 -115 -116 -123 -127 0
-189 -113 -114 -124 -125 0
-192 -113 -115 -124 -125 0
-194 -113 -116 -124 -125 0
-192 -114 -115 -124 -126 0
-194 -114 -116 -124 -126 0
-194 -115 -116 -124 -127 0
-192 -114 -115 -125 -126 0
-194 -114 -116 -125 -126 0
-194 -115 -116 -125 -127 0
-194 -115 -116 -126 -127 0
-167 -109 -110 -131 -132 0
-174 -109 -111 -131 -132 0
-180 -109 -112 -131 -132 0
-185 -109 -113 -131 -132 0
-189 -109 -114 -131 -132 0
-192 -109 -115 -131 -132 0
-194 -109 -116 -131 -132 0
-174 -110 -111 -131 -133 0
-180 -110 -112 -131 -133 0
-185 -110 -113 -131 -133 0
-189 -110 -114 -131 -133 0
-192 -110 -115 -131 -133 0
-194 -110 -116 -131 -133 0
-180 -111 -112 -131 -134 0
-185 -111 -113 -131 -134 0
-189 -111 -114 -131 -134 0
-192 -111 -115 -131 -134 0
-194 -111 -116 -131 -134 0
-185 -112 -113 -131 -135 0
-189 -112 -114 -131 -135 0
-192 -112 -115 -131 -135 0
-194 -112 -116 -131 -135 0
-189 -113 -114 -131 -136 0
-192 -113 -115 -131 -136 0
-194 -113 -116 -131 -136 0
-192 -114 -115 -131 -137 0
-194 -114 -116 -131 -137 0
-194 -115 -116 -131 -138 0
-174 -110 -111 -132 -133 0
-180 -110 -112 -132 -133 0
-185 -110 -113 -132 -133 0
-189 -110 -114 -132 -133 0
-192 -110 -115 -132 -133 0
-194 -110 -116 -132 -133 0
-180 -111 -112 -132 -134 0
-185 -111 -113 -132 -134 0
-189 -111 -114 -132 -134 0
-192 -111 -115 -132 -134 0
-194 -111 -116 -132 -134 0
-185 -112 -113 -132 -135 0
-189 -112 -114 -132 -135 0
-192 -112 -115 -132 -135 0
-194 -112 -116 -132 -135 0
-189 -113 -114 -132 -136 0
-192 -113 -115 -132 -136 0
-194 -113 -116 -132 -136 0
-192 -114 -115 -132 -137 0
-194 -114 -116 -132 -137 0
-194 -115 -116 -132 -138 0
-180 -111 -112 -133 -134 0
-185 -111 -113 -133 -134 0
-189 -111 -114 -133 -134 0
-192 -111 -115 -133 -134 0
-194 -111 -116 -133 -134 0
-185 -112 -113 -133 -135 0
-189 -112 -114 -133 -135 0
-192 -112 -115 -133 -135 0
-194 -112 -116 -133 -135 0
-189 -113 -114 -133 -136 0
-192 -113 -115 -133 -136 0
-194 -113 -116 -133 -136 0
-192 -114 -115 -133 -137 0
-194 -114 -116 -133 -137 0
-194 -115 -116 -133 -138 0
-185 -112 -113 -134 -135 0
-189 -112 -114 -134 -135 0
-192 -112 -115 -134 -135 0
-194 -112 -116 -134 -135 0
-189 -113 -114 -134 -136 0
-192 -113 -115 -134 -136 0
-194 -113 -116 -134 -136 0
-192 -114 -115 -134 -137 0
-194 -114 -116 -134 -137 0
-194 -115 -116 -134 -138 0
-189 -113 -114 -135 -136 0
-192 -113 -115 -135 -136 0
-194 -113 -116 -135 -136 0
-192 -114 -115 -135 -137 0
-194 -114 -116 -135 -137 0
-194 -115 -116 -135 -138 0
-192 -114 -115 -136 -137 0
-194 -114 -116 -136 -137 0
-194 -115 -116 -136 -138 0
-194 -115 -116 -137 -138 0
-174 -110 -111 -142 -143 0
-180 -110 -112 -142 -143 0
-185 -110 -113 -142 -143 0
-189 -110 -114 -142 -143 0
-192 -110 -115 -142 -143 0
-194 -110 -116 -142 -143 0
-180 -111 -112 -142 -144 0
-185 -111 -113 -142 -144 0
-189 -111 -114 -142 -144 0
-192 -111 -115 -142 -144 0
-194 -111 -116 -142 -144 0
-185 -112 -113 -142 -145 0
-189 -112 -114 -142 -145 0
-192 -112 -115 -142 -145 0
-194 -112 -116 -142 -145 0
-189 -113 -114 -142 -146 0
-192 -113 -115 -142 -146 0
-194 -113 -116 -142 -146 0
-192 -114 -115 -142 -147 0
-194 -114 -116 -142 -147 0
-194 -115 -116 -142 -148 0
-180 -111 -112 -143 -144 0
-185 -111 -113 -143 -144 0
-189 -111 -114 -143 -144 0
-192 -111 -115 -143 -144 0
-194 -111 -116 -143 -144 0
-185 -112 -113 -143 -145 0
-189 -112 -114 -143 -145 0
-192 -112 -115 -143 -145 0
-194 -112 -116 -143 -145 0
-189 -113 -114 -143 -146 0
-192 -113 -115 -143 -146 0
-194 -113 -116 -143 -146 0
-192 -114 -115 -143 -147 0
-194 -114 -116 -143 -147 0
-194 -115 -116 -143 -148 0
-185 -112 -113 -144 -145 0
-189 -112 -114 -144 -145 0
-192 -112 -115 -144 -145 0
-194 -112 -116 -144 -145 0
-189 -113 -114 -144 -146 0
-192 -113 -115 -144 -146 0
-194 -113 -116 -144 -146 0
-192 -114 -115 -144 -147 0
-194 -114 -116 -144 -147 0
-194 -115 -116 -144 -148 0
-189 -113 -114 -145 -146 0
-192 -113 -115 -145 -146 0
-194 -113 -116 -145 -146 0
-192 -114 -115 -145 -147 0
-194 -114 -116 -145 -147 0
-194 -115 -116 -145 -148 0
-192 -114 -115 -146 -147 0
-194 -114 -116 -146 -147 0
-194 -115 -116 -146 -148 0
-194 -115 -116 -147 -148 0
-180 -111 -112 -152 -153 0
-185 -111 -113 -152 -153 0
-189 -111 -114 -152 -153 0
-192 -111 -115 -152 -153 0
-194 -111 -116 -152 -153 0
-185 -112 -113 -152 -154 0
-189 -112 -114 -152 -154 0
-192 -112 -115 -152 -154 0
-194 -112 -116 -152 -154 0
-189 -113 -114 -152 -155 0
-192 -113 -115 -152 -155 0
-194 -113 -116 -152 -155 0
-192 -114 -115 -152 -156 0
-194 -114 -116 -152 -156 0
-194 -115 -116 -152 -157 0
-185 -112 -113 -153 -154 0
-189 -112 -114 -153 -154 0
-192 -112 -115 -153 -154 0
-194 -112 -116 -153 -154 0
-189 -113 -114 -153 -155 0
-192 -113 -115 -153 -155 0
-194 -113 -116 -153 -155 0
-192 -114 -115 -153 -156 0
-194 -114 -116 -153 -156 0
-194 -115 -116 -153 -157 0
-189 -113 -114 -154 -155 0
-192 -113 -115 -154 -155 0
-194 -113 -116 -154 -155 0
-192 -114 -115 -154 -156 0
-194 -114 -116 -154 -156 0
-194 -115 -116 -154 -157 0
-192 -114 -115 -155 -156 0
-194 -114 -116 -155 -156 0
-194 -115 -116 -155 -157 0
-194 -115 -116 -156 -157 0
-185 -112 -113 -161 -162 0
-189 -112 -114 -161 -162 0
-192 -112 -115 -161 -162 0
-194 -112 -116 -161 -162 0
-189 -113 -114 -161 -163 0
-192 -113 -115 -161 -163 0
-194 -113 -116 -161 -163 0
-192 -114 -115 -161 -164 0
-194 -114 -116 -161 -164 0
-194 -115 -116 -161 -165 0
-189 -113 -114 -162 -163 0
-192 -113 -115 -162 -163 0
-194 -113 -116 -162 -163 0
-192 -114 -115 -162 -164 0
-194 -114 -116 -162 -164 0
-194 -115 -116 -162 -165 0
-192 -114 -115 -163 -164 0
-194 -114 -116 -163 -164 0
-194 -115 -116 -163 -165 0
-194 -115 -116 -164 -165 0
-189 -113 -114 -169 -170 0
-192 -113 -115 -169 -170 0
-194 -113 -116 -169 -170 0
-192 -114 -115 -169 -171 0
-194 -114 -116 -169 -171 0
-194 -115 -116 -169 -172 0
-192 -114 -115 -170 -171 0
-194 -114 -116 -170 -171 0
-194 -115 -116 -170 -172 0
-194 -115 -116 -171 -172 0
-192 -114 -115 -176 -177 0
-194 -114 -116 -176 -177 0
-194 -115 -116 -176 -178 0
-194 -115 -116 -177 -178 0
-194 -115 -116 -182 -183 0
-167 -121 -122 -131 -132 0
-174 -121 -123 -131 -132 0
-180 -121 -124 -131 -132 0
-185 -121 -125 -131 -132 0
-189 -121 -126 -131 -132 0
-192 -121 -127 -131 -132 0
-194 -121 -128 -131 -132 0
-174 -122 -123 -131 -133 0
-180 -122 -124 -131 -133 0
-185 -122 -125 -131 -133 0
-189 -122 -126 -131 -133 0
-192 -122 -127 -131 -133 0
-194 -122 -128 -131 -133 0
-180 -123 -124 -131 -134 0
-185 -123 -125 -131 -134 0
-189 -123 -126 -131 -134 0
-192 -123 -127 -131 -134 0
-194 -123 -128 -131 -134 0
-185 -124 -125 -131 -135 0
-189 -124 -126 -131 -135 0
-192 -124 -127 -131 -135 0
-194 -124 -128 -131 -135 0
-189 -125 -126 -131 -136 0
-192 -125 -127 -131 -136 0
-194 -125 -128 -131 -136 0
-192 -126 -127 -131 -137 0
-194 -126 -128 -131 -137 0
-194 -127 -128 -131 -138 0
-174 -122 -123 -132 -133 0
-180 -122 -124 -132 -133 0
-185 -122 -125 -132 -133 0
-189 -122 -126 -132 -133 0
-192 -122 -127 -132 -133 0
-194 -122 -128 -132 -133 0
-180 -123 -124 -132 -134 0
-185 -123 -125 -132 -134 0
-189 -123 -126 -132 -134 0
-192 -123 -127 -132 -134 0
-194 -123 -128 -132 -134 0
-185 -124 -125 -132 -135 0
-189 -124 -126 -132 -135 0
-192 -124 -127 -132 -135 0
-194 -124 -128 -132 -135 0
-189 -125 -126 -132 -136 0
-192 -125 -127 -132 -136 0
-194 -125 -128 -132 -136 0
-192 -126 -127 -132 -137 0
-194 -126 -128 -132 -137 0
-194 -127 -128 -132 -138 0
-180 -123 -124 -133 -134 0
-185 -123 -125 -133 -134 0
-189 -123 -126 -133 -134 0
-192 -123 -127 -133 -134 0
-194 -123 -128 -133 -134 0
-185 -124 -125 -133 -135 0
-189 -124 -126 -133 -135 0
-192 -124 -127 -133 -135 0
-194 -124 -128 -133 -135 0
-189 -125 -126 -133 -136 0
-192 -125 -127 -133 -136 0
-194 -125 -128 -133 -136 0
-192 -126 -127 -133 -137 0
-194 -126 -128 -133 -137 0
-194 -127 -128 -133 -138 0
-185 -124 -125 -134 -135 0
-189 -124 -126 -134 -135 0
-192 -124 -127 -134 -135 0
-194 -124 -128 -134 -135 0
-189 -125 -126 -134 -136 0
-192 -125 -127 -134 -136 0
-194 -125 -128 -134 -136 0
-192 -126 -127 -134 -137 0
-194 -126 -128 -134 -137 0
-194 -127 -128 -134 -138 0
-189 -125 -126 -135 -136 0
-192 -125 -127 -135 -136 0
-194 -125 -128 -135 -136 0
-192 -126 -127 -135 -137 0
-194 -126 -128 -135 -137 0
-194 -127 -128 -135 -138 0
-192 -126 -127 -136 -137 0
-194 -126 -128 -136 -137 0
-194 -127 -128 -136 -138 0
-194 -127 -128 -137 -138 0
-174 -122 -123 -142 -143 0
-180 -122 -124 -142 -143 0
-185 -122 -125 -142 -143 0
-189 -122 -126 -142 -143 0
-192 -122 -127 -142 -143 0
-194 -122 -128 -142 -143 0
-180 -123 -124 -142 -144 0
-185 -123 -125 -142 -144 0
-189 -123 -126 -142 -144 0
-192 -123 -127 -142 -144 0
-194 -123 -128 -142 -144 0
-185 -124 -125 -142 -145 0
-189 -124 -126 -142 -145 0
-192 -124 -127 -142 -145 0
-194 -124 -128 -142 -145 0
-189 -125 -126 -142 -146 0
-192 -125 -127 -142 -146 0
-194 -125 -128 -142 -146 0
-192 -126 -127 -142 -147 0
-194 -126 -128 -142 -147 0
-194 -127 -128 -142 -148 0
-180 -123 -124 -143 -144 0
-185 -123 -125 -143 -144 0
-189 -123 -126 -143 -144 0
-192 -123 -127 -143 -144 0
-194 -123 -128 -143 -144 0
-185 -124 -125 -143 -145 0
-189 -124 -126 -143 -145 0
-192 -124 -127 -143 -145 0
-194 -124 -128 -143 -145 0
-189 -125 -126 -143 -146 0
-192 -125 -127 -143 -146 0
-194 -125 -128 -143 -146 0
-192 -126 -127 -143 -147 0
-194 -126 -128 -143 -147 0
-194 -127 -128 -143 -148 0
-185 -124 -125 -144 -145 0
-189 -124 -126 -144 -145 0
-192 -124 -127 -144 -145 0
-194 -124 -128 -144 -145 0
-189 -125 -126 -144 -146 0
-192 -125 -127 -144 -146 0
-194 -125 -128 -144 -146 0
-192 -126 -127 -144 -147 0
-194 -126 -128 -144 -147 0
-194 -127 -128 -144 -148 0
-189 -125 -126 -145 -146 0
-192 -125 -127 -145 -146 0
-194 -125 -128 -145 -146 0
-192 -126 -127 -145 -147 0
-194 -126 -128 -145 -147 0
-194 -127 -128 -145 -148 0
-192 -126 -127 -146 -147 0
-194 -126 -128 -146 -147 0
-194 -127 -128 -146 -148 0
-194 -127 -128 -147 -148 0
-180 -123 -124 -152 -153 0
-185 -123 -125 -152 -153 0
-189 -123 -126 -152 -153 0
-192 -123 -127 -152 -153 0
-194 -123 -128 -152 -153 0
-185 -124 -125 -152 -154 0
-189 -124 -126 -152 -154 0
-192 -124 -127 -152 -154 0
-194 -124 -128 -152 -154 0
-189 -125 -126 -152 -155 0
-192 -125 -127 -152 -155 0
-194 -125 -128 -152 -155 0
-192 -126 -127 -152 -156 0
-194 -126 -128 -152 -156 0
-194 -127 -128 -152 -157 0
-185 -124 -125 -153 -154 0
-189 -124 -126 -153 -154 0
-192 -124 -127 -153 -154 0
-194 -124 -128 -153 -154 0
-189 -125 -126 -153 -155 0
-192 -125 -127 -153 -155 0
-194 -125 -128 -153 -155 0
-192 -126 -127 -153 -156 0
-194 -126 -128 -153 -156 0
-194 -127 -128 -153 -157 0
-189 -125 -126 -154 -155 0
-192 -125 -127 -154 -155 0
-194 -125 -128 -154 -155 0
-192 -126 -127 -154 -156 0
-194 -126 -128 -154 -156 0
-194 -127 -128 -154 -157 0
-192 -126 -127 -155 -156 0
-194 -126 -128 -155 -156 0
-194 -127 -128 -155 -157 0
-194 -127 -128 -156 -157 0
-185 -124 -125 -161 -162 0
-189 -124 -126 -161 -162 0
-192 -124 -127 -161 -162 0
-194 -124 -128 -161 -162 0
-189 -125 -126 -161 -163 0
-192 -125 -127 -161 -163 0
-194 -125 -128 -161 -163 0
-192 -126 -127 -161 -164 0
-194 -126 -128 -161 -164 0
-194 -127 -128 -161 -165 0
-189 -125 -126 -162 -163 0
-192 -125 -127 -162 -163 0
-194 -125 -128 -162 -163 0
-192 -126 -127 -162 -164 0
-194 -126 -128 -162 -164 0
-194 -127 -128 -162 -165 0
-192 -126 -127 -163 -164 0
-194 -126 -128 -163 -164 0
-194 -127 -128 -163 -165 0
-194 -127 -128 -164 -165 0
-189 -125 -126 -169 -170 0
-192 -125 -127 -169 -170 0
-194 -125 -128 -169 -170 0
-192 -126 -127 -169 -171 0
-194 -126 -128 -169 -171 0
-194 -127 -128 -169 -172 0
-192 -126 -127 -170 -171 0
-194 -126 -128 -170 -171 0
-194 -127 -128 -170 -172 0
-194 -127 -128 -171 -172 0
-192 -126 -127 -176 -177 0
-194 -126 -128 -176 -177 0
-194 -127 -128 -176 -178 0
-194 -127 -128 -177 -178 0
-194 -127 -128 -182 -183 0
-174 -133 -134 -142 -143 0
-180 -133 -135 -142 -143 0
-185 -133 -136 -142 -143 0
-189 -133 -137 -142 -143 0
-192 -133 -138 -142 -143 0
-194 -133 -139 -142 -143 0
-180 -134 -135 -142 -144 0
-185 -134 -136 -142 -144 0
-189 -134 -137 -142 -144 0
-192 -134 -138 -142 -144 0
-194 -134 -139 -142 -144 0
-185 -135 -136 -142 -145 0
-189 -135 -137 -142 -145 0
-192 -135 -138 -142 -145 0
-194 -135 -139 -142 -145 0
-189 -136 -137 -142 -146 0
-192 -136 -138 -142 -146 0
-194 -136 -139 -142 -146 0
-192 -137 -138 -142 -147 0
-194 -137 -139 -142 -147 0
-194 -138 -139 -142 -148 0
-180 -134 -135 -143 -144 0
-185 -134 -136 -143 -144 0
-189 -134 -137 -143 -144 0
-192 -134 -138 -143 -144 0
-194 -134 -139 -143 -144 0
-185 -135 -136 -143 -145 0
-189 -135 -137 -143 -145 0
-192 -135 -138 -143 -145 0
-194 -135 -139 -143 -145 0
-189 -136 -137 -143 -146 0
-192 -136 -138 -143 -146 0
-194 -136 -139 -143 -146 0
-192 -137 -138 -143 -147 0
-194 -137 -139 -143 -147 0
-194 -138 -139 -143 -148 0
-185 -135 -136 -144 -145 0
-189 -135 -137 -144 -145 0
-192 -135 -138 -144 -145 0
-194 -135 -139 -144 -145 0
-189 -136 -137 -144 -146 0
-192 -136 -138 -144 -146 0
-194 -136 -139 -144 -146 0
-192 -137 -138 -144 -147 0
-194 -137 -139 -144 -147 0
-194 -138 -139 -144 -148 0
-189 -136 -137 -145 -146 0
-192 -136 -138 -145 -146 0
-194 -136 -139 -145 -146 0
-192 -137 -138 -145 -147 0
-194 -137 -139 -145 -147 0
-194 -138 -139 -145 -148 0
-192 -137 -138 -146 -147 0
-194 -137 -139 -146 -147 0
-194 -138 -139 -146 -148 0
-194 -138 -139 -147 -148 0
-180 -134 -135 -152 -153 0
-185 -134 -136 -152 -153 0
-189 -134 -137 -152 -153 0
-192 -134 -138 -152 -153 0
-194 -134 -139 -152 -153 0
-185 -135 -136 -152 -154 0
-189 -135 -137 -152 -154 0
-192 -135 -138 -152 -154 0
-194 -135 -139 -152 -154 0
-189 -136 -137 -152 -155 0
-192 -136 -138 -152 -155 0
-194 -136 -139 -152 -155 0
-192 -137 -138 -152 -156 0
-194 -137 -139 -152 -156 0
-194 -138 -139 -152 -157 0
-185 -135 -136 -153 -154 0
-189 -135 -137 -153 -154 0
-192 -135 -138 -153 -154 0
-194 -135 -139 -153 -154 0
-189 -136 -137 -153 -155 0
-192 -136 -138 -153 -155 0
-194 -136 -139 -153 -155 0
-192 -137 -138 -153 -156 0
-194 -137 -139 -153 -156 0
-194 -138 -139 -153 -157 0
-189 -136 -137 -154 -155 0
-192 -136 -138 -154 -155 0
-194 -136 -139 -154 -155 0
-192 -137 -138 -154 -156 0
-194 -137 -139 -154 -156 0
-194 -138 -139 -154 -157 0
-192 -137 -138 -155 -156 0
-194 -137 -139 -155 -156 0
-194 -138 -139 -155 -157 0
-194 -138 -139 -156 -157 0
-185 -135 -136 -161 -162 0
-189 -135 -137 -161 -162 0
-192 -135 -138 -161 -162 0
-194 -135 -139 -161 -162 0
-189 -136 -137 -161 -163 0
-192 -136 -138 -161 -163 0
-194 -136 -139 -161 -163 0
-192 -137 -138 -161 -164 0
-194 -137 -139 -161 -164 0
-194 -138 -139 -161 -165 0
-189 -136 -137 -162 -163 0
-192 -136 -138 -162 -163 0
-194 -136 -139 -162 -163 0
-192 -137 -138 -162 -164 0
-194 -137 -139 -162 -164 0
-194 -138 -139 -162 -165 0
-192 -137 -138 -163 -164 0
-194 -137 -139 -163 -164 0
-194 -138 -139 -163 -165 0
-194 -138 -139 -164 -165 0
-189 -136 -137 -169 -170 0
-192 -136 -138 -169 -170 0
-194 -136 -139 -169 -170 0
-192 -137 -138 -169 -171 0
-194 -137 -139 -169 -171 0
-194 -138 -139 -169 -172 0
-192 -137 -138 -170 -171 0
-194 -137 -139 -170 -171 0
-194 -138 -139 -170 -172 0
-194 -138 -139 -171 -172 0
-192 -137 -138 -176 -177 0
-194 -137 -139 -176 -177 0
-194 -138 -139 -176 -178 0
-194 -138 -139 -177 -178 0
-194 -138 -139 -182 -183 0
-180 -144 -145 -152 -153 0
-185 -144 -146 -152 -153 0
-189 -144 -147 -152 -153 0
-192 -144 -148 -152 -153 0
-194 -144 -149 -152 -153 0
-185 -145 -146 -152 -154 0
-189 -145 -147 -152 -154 0
-192 -145 -148 -152 -154 0
-194 -145 -149 -152 -154 0
-189 -146 -147 -152 -155 0
-192 -146 -148 -152 -155 0
-194 -146 -149 -152 -155 0
-192 -147 -148 -152 -156 0
-194 -147 -149 -152 -156 0
-194 -148 -149 -152 -157 0
-185 -145 -146 -153 -154 0
-189 -145 -147 -153 -154 0
-192 -145 -148 -153 -154 0
-194 -145 -149 -153 -154 0
-189 -146 -147 -153 -155 0
-192 -146 -148 -153 -155 0
-194 -146 -149 -153 -155 0
-192 -147 -148 -153 -156 0
-194 -147 -149 -153 -156 0
-194 -148 -149 -153 -157 0
-189 -146 -147 -154 -155 0
-192 -146 -148 -154 -155 0
-194 -146 -149 -154 -155 0
-192 -147 -148 -154 -156 0
-194 -147 -149 -154 -156 0
-194 -148 -149 -154 -157 0
-192 -147 -148 -155 -156 0
-194 -147 -149 -155 -156 0
-194 -148 -149 -155 -157 0
-194 -148 -149 -156 -157 0
-185 -145 -146 -161 -162 0
-189 -145 -147 -161 -162 0
-192 -145 -148 -161 -162 0
-194 -145 -149 -161 -162 0
-189 -146 -147 -161 -163 0
-192 -146 -148 -161 -163 0
-194 -146 -149 -161 -163 0
-192 -147 -148 -161 -164 0
-194 -147 -149 -161 -164 0
-194 -148 -149 -161 -165 0
-189 -146 -147 -162 -163 0
-192 -146 -148 -162 -163 0
-194 -146 -149 -162 -163 0
-192 -147 -148 -162 -164 0
-194 -147 -149 -162 -164 0
-194 -148 -149 -162 -165 0
-192 -147 -148 -163 -164 0
-194 -147 -149 -163 -164 0
-194 -148 -149 -163 -165 0
-194 -148 -149 -164 -165 0
-189 -146 -147 -169 -170 0
-192 -146 -148 -169 -170 0
-194 -146 -149 -169 -170 0
-192 -147 -148 -169 -171 0
-194 -147 -149 -169 -171 0
-194 -148 -149 -169 -172 0
-192 -147 -148 -170 -171 0
-194 -147 -149 -170 -171 0
-194 -148 -149 -170 -172 0
-194 -148 -149 -171 -172 0
-192 -147 -148 -176 -177 0
-194 -147 -149 -176 -177 0
-194 -148 -149 -176 -178 0
-194 -148 -149 -177 -178 0
-194 -148 -149 -182 -183 0
-185 -154 -155 -161 -162 0
-189 -154 -156 -161 -162 0
-192 -154 -157 -161 -162 0
-194 -154 -158 -161 -162 0
-189 -155 -156 -161 -163 0
-192 -155 -157 -161 -163 0
-194 -155 -158 -161 -163 0
-192 -156 -157 -161 -164 0
-194 -156 -158 -161 -164 0
-194 -157 -158 -161 -165 0
-189 -155 -156 -162 -163 0
-192 -155 -157 -162 -163 0
-194 -155 -158 -162 -163 0
-192 -156 -157 -162 -164 0
-194 -156 -158 -162 -164 0
-194 -157 -158 -162 -165 0
-192 -156 -157 -163 -164 0
-194 -156 -158 -163 -164 0
-194 -157 -158 -163 -165 0
-194 -157 -158 -164 -165 0
-189 -155 -156 -169 -170 0
-192 -155 -157 -169 -170 0
-194 -155 -158 -169 -170 0
-192 -156 -157 -169 -171 0
-194 -156 -158 -169 -171 0
-194 -157 -158 -169 -172 0
-192 -156 -157 -170 -171 0
-194 -156 -158 -170 -171 0
-194 -157 -158 -170 -172 0
-194 -157 -158 -171 -172 0
-192 -156 -157 -176 -177 0
-194 -156 -158 -176 -177 0
-194 -157 -158 -176 -178 0
-194 -157 -158 -177 -178 0
-194 -157 -158 -182 -183 0
-189 -163 -164 -169 -170 0
-192 -163 -165 -169 -170 0
-194 -163 -166 -169 -170 0
-192 -164 -165 -169 -171 0
-194 -164 -166 -169 -171 0
-194 -165 -166 -169 -172 0
-192 -164 -165 -170 -171 0
-194 -164 -166 -170 -171 0
-194 -165 -166 -170 -172 0
-194 -165 -166 -171 -172 0
-192 -164 -165 -176 -177 0
-194 -164 -166 -176 -177 0
-194 -165 -166 -176 -178 0
-194 -165 -166 -177 -178 0
-194 -165 -166 -182 -183 0
-192 -171 -172 -176 -177 0
-194 -171 -173 -176 -177 0
-194 -172 -173 -176 -178 0
-194 -172 -173 -177 -178 0
-194 -172 -173 -182 -183 0
-194 -178 -179 -182 -183 0
-151 -94 -95 -106 -107 0
-160 -94 -96 -106 -107 0
-168 -94 -97 -106 -107 0
-175 -94 -98 -106 -107 0
-181 -94 -99 -106 -107 0
-186 -94 -100 -106 -107 0
-190 -94 -101 -106 -107 0
-193 -94 -102 -106 -107 0
-195 -94 -103 -106 -107 0
-196 -94 -104 -106 -107 0
-160 -95 -96 -106 -108 0
-168 -95 -97 -106 -108 0
-175 -95 -98 -106 -108 0
-181 -95 -99 -106 -108 0
-186 -95 -100 -106 -108 0
-190 -95 -101 -106 -108 0
-193 -95 -102 -106 -108 0
-195 -95 -103 -106 -108 0
-196 -95 -104 -106 -108 0
-168 -96 -97 -106 -109 0
-175 -96 -98 -106 -109 0
-181 -96 -99 -106 -109 0
-186 -96 -100 -106 -109 0
-190 -96 -101 -106 -109 0
-193 -96 -102 -106 -109 0
-195 -96 -103 -106 -109 0
-196 -96 -104 -106 -109 0
-175 -97 -98 -106 -110 0
-181 -97 -99 -106 -110 0
-186 -97 -100 -106 -110 0
-190 -97 -101 -106 -110 0
-193 -97 -102 -106 -110 0
-195 -97 -103 -106 -110 0
-196 -97 -104 -106 -110 0
-181 -98 -99 -106 -111 0
-186 -98 -100 -106 -111 0
-190 -98 -101 -106 -111 0
-193 -98 -102 -106 -111 0
-195 -98 -103 -106 -111 0
-196 -98 -104 -106 -111 0
-186 -99 -100 -106 -112 0
-190 -99 -101 -106 -112 0
-193 -99 -102 -106 -112 0
-195 -99 -103 -106 -112 0
-196 -99 -104 -106 -112 0
-190 -100 -101 -106 -113 0
-193 -100 -102 -106 -113 0
-195 -100 -103 -106 -113 0
-196 -100 -104 -106 -113 0
-193 -101 -102 -106 -114 0
-195 -101 -103 -106 -114 0
-196 -101 -104 -106 -114 0
-195 -102 -103 -106 -115 0
-196 -102 -104 -106 -115 0
-196 -103 -104 -106 -116 0
-160 -95 -96 -107 -108 0
-168 -95 -97 -107 -108 0
-175 -95 -98 -107 -108 0
-181 -95 -99 -107 -108 0
-186 -95 -100 -107 -108 0
-190 -95 -101 -107 -108 0
-193 -95 -102 -107 -108 0
-195 -95 -103 -107 -108 0
-196 -95 -104 -107 -108 0
-168 -96 -97 -107 -109 0
-175 -96 -98 -107 -109 0
-181 -96 -99 -107 -109 0
-186 -96 -100 -107 -109 0
-190 -96 -101 -107 -109 0
-193 -96 -102 -107 -109 0
-195 -96 -103 -107 -109 0
-196 -96 -104 -107 -109 0
-175 -97 -98 -107 -110 0
-181 -97 -99 -107 -110 0
-186 -97 -100 -107 -110 0
-190 -97 -101 -107 -110 0
-193 -97 -102 -107 -110 0
-195 -97 -103 -107 -110 0
-196 -97 -104 -107 -110 0
-181 -98 -99 -107 -111 0
-186 -98 -100 -107 -111 0
-190 -98 -101 -107 -111 0
-193 -98 -102 -107 -111 0
-195 -98 -103 -107 -111 0
-196 -98 -104 -107 -111 0
-186 -99 -100 -107 -112 0
-190 -99 -101 -107 -112 0
-193 -99 -102 -107 -112 0
-195 -99 -103 -107 -112 0
-196 -99 -104 -107 -112 0
-190 -100 -101 -107 -113 0
-193 -100 -102 -107 -113 0
-195 -100 -103 -107 -113 0
-196 -100 -104 -107 -113 0
-193 -101 -102 -107 -114 0
-195 -101 -103 -107 -114 0
-196 -101 -104 -107 -114 0
-195 -102 -103 -107 -115 0
-196 -102 -104 -107 -115 0
-196 -103 -104 -107 -116 0
-168 -96 -97 -108 -109 0
-175 -96 -98 -108 -109 0
-181 -96 -99 -108 -109 0
-186 -96 -100 -108 -109 0
-190 -96 -101 -108 -109 0
-193 -96 -102 -108 -109 0
-195 -96 -103 -108 -109 0
-196 -96 -104 -108 -109 0
-175 -97 -98 -108 -110 0
-181 -97 -99 -108 -110 0
-186 -97 -100 -108 -110 0
-190 -97 -101 -108 -110 0
-193 -97 -102 -108 -110 0
-195 -97 -103 -108 -110 0
-196 -97 -104 -108 -110 0
-181 -98 -99 -108 -111 0
-186 -98 -100 -108 -111 0
-190 -98 -101 -108 -111 0
-193 -98 -102 -108 -111 0
-195 -98 -103 -108 -111 0
-196 -98 -104 -108 -111 0
-186 -99 -100 -108 -112 0
-190 -99 -101 -108 -112 0
-193 -99 -102 -108 -112 0
-195 -99 -103 -108 -112 0
-196 -99 -104 -108 -112 0
-190 -100 -101 -108 -113 0
-193 -100 -102 -108 -113 0
-195 -100 -103 -108 -113 0
-196 -100 -104 -108 -113 0
-193 -101 -102 -108 -114 0
-195 -101 -103 -108 -114 0
-196 -101 -104 -108 -114 0
-195 -102 -103 -108 -115 0
-196 -102 -104 -108 -115 0
-196 -103 -104 -108 -116 0
-175 -97 -98 -109 -110 0
-181 -97 -99 -109 -110 0
-186 -97 -100 -109 -110 0
-190 -97 -101 -109 -110 0
-193 -97 -102 -109 -110 0
-195 -97 -103 -109 -110 0
-196 -97 -104 -109 -110 0
-181 -98 -99 -109 -111 0
-186 -98 -100 -109 -111 0
-190 -98 -101 -109 -111 0
-193 -98 -102 -109 -111 0
-195 -98 -103 -109 -111 0
-196 -98 -104 -109 -111 0
-186 -99 -100 -109 -112 0
-190 -99 -101 -109 -112 0
-193 -99 -102 -109 -112 0
-195 -99 -103 -109 -112 0
-196 -99 -104 -109 -112 0
-190 -100 -101 -109 -113 0
-193 -100 -102 -109 -113 0
-195 -100 -103 -109 -113 0
-196 -100 -104 -109 -113 0
-193 -101 -102 -109 -114 0
-195 -101 -103 -109 -114 0
-196 -101 -104 -109 -114 0
-195 -102 -103 -109 -115 0
-196 -102 -104 -109 -115 0
-196 -103 -104 -109 -116 0
-181 -98 -99 -110 -111 0
-186 -98 -100 -110 -111 0
-190 -98 -101 -110 -111 0
-193 -98 -102 -110 -111 0
-195 -98 -103 -110 -111 0
-196 -98 -104 -110 -111 0
-186 -99 -100 -110 -112 0
-190 -99 -101 -110 -112 0
-193 -99 -102 -110 -112 0
-195 -99 -103 -110 -112 0
-196 -99 -104 -110 -112 0
-190 -100 -101 -110 -113 0
-193 -100 -102 -110 -113 0
-195 -100 -103 -110 -113 0
-196 -100 -104 -110 -113 0
-193 -101 -102 -110 -114 0
-195 -101 -103 -110 -114 0
-196 -101 -104 -110 -114 0
-195 -102 -103 -110 -115 0
-196 -102 -104 -110 -115 0
-196 -103 -104 -110 -116 0
-186 -99 -100 -111 -112 0
-190 -99 -101 -111 -112 0
-193 -99 -102 -111 -112 0
-195 -99 -103 -111 -112 0
-196 -99 -104 -111 -112 0
-190 -100 -101 -111 -113 0
-193 -100 -102 -111 -113 0
-195 -100 -103 -111 -113 0
-196 -100 -104 -111 -113 0
-193 -101 -102 -111 -114 0
-195 -101 -103 -111 -114 0
-196 -101 -104 -111 -114 0
-195 -102 -103 -111 -115 0
-196 -102 -104 -111 -115 0
-196 -103 -104 -111 -116 0
-190 -100 -101 -112 -113 0
-193 -100 -102 -112 -113 0
-195 -100 -103 -112 -113 0
-196 -100 -104 -112 -113 0
-193 -101 -102 -112 -114 0
-195 -101 -103 -112 -114 0
-196 -101 -104 -112 -114 0
-195 -102 -103 -112 -115 0
-196 -102 -104 -112 -115 0
-196 -103 -104 -112 -116 0
-193 -101 -102 -113 -114 0
-195 -101 -103 -113 -114 0
-196 -101 -104 -113 -114 0
-195 -102 -103 -113 -115 0
-196 -102 -104 -113 -115 0
-196 -103 -104 -113 -116 0
-195 -102 -103 -114 -115 0
-196 -102 -104 -114 -115 0
-196 -103 -104 -114 -116 0
-196 -103 -104 -115 -116 0
-160 -95 -96 -119 -120 0
-168 -95 -97 -119 -120 0
-175 -95 -98 -119 -120 0
-181 -95 -99 -119 -120 0
-186 -95 -100 -119 -120 0
-190 -95 -101 -119 -120 0
-193 -95 -102 -119 -120 0
-195 -95 -103 -119 -120 0
-196 -95 -104 -119 -120 0
-168 -96 -97 -119 -121 0
-175 -96 -98 -119 -121 0
-181 -96 -99 -119 -121 0
-186 -96 -100 -119 -121 0
-190 -96 -101 -119 -121 0
-193 -96 -102 -119 -121 0
-195 -96 -103 -119 -121 0
-196 -96 -104 -119 -121 0
-175 -97 -98 -119 -122 0
-181 -97 -99 -119 -122 0
-186 -97 -100 -119 -122 0
-190 -97 -101 -119 -122 0
-193 -97 -102 -119 -122 0
-195 -97 -103 -119 -122 0
-196 -97 -104 -119 -122 0
-181 -98 -99 -119 -123 0
-186 -98 -100 -119 -123 0
-190 -98 -101 -119 -123 0
-193 -98 -102 -119 -123 0
-195 -98 -103 -119 -123 0
-196 -98 -104 -119 -123 0
-186 -99 -100 -119 -124 0
-190 -99 -101 -119 -124 0
-193 -99 -102 -119 -124 0
-195 -99 -103 -119 -124 0
-196 -99 -104 -119 -124 0
-190 -100 -101 -119 -125 0
-193 -100 -102 -119 -125 0
-195 -100 -103 -119 -125 0
-196 -100 -104 -119 -125 0
-193 -101 -102 -119 -126 0
-195 -101 -103 -119 -126 0
-196 -101 -104 -119 -126 0
-195 -102 -103 -119 -127 0
-196 -102 -104 -119 -127 0
-196 -103 -104 -119 -128 0
-168 -96 -97 -120 -121 0
-175 -96 -98 -120 -121 0
-181 -96 -99 -120 -121 0
-186 -96 -100 -120 -121 0
-190 -96 -101 -120 -121 0
-193 -96 -102 -120 -121 0
-195 -96 -103 -120 -121 0
-196 -96 -104 -120 -121 0
-175 -97 -98 -120 -122 0
-181 -97 -99 -120 -122 0
-186 -97 -100 -120 -122 0
-190 -97 -101 -120 -122 0
-193 -97 -102 -120 -122 0
-195 -97 -103 -120 -122 0
-196 -97 -104 -120 -122 0
-181 -98 -99 -120 -123 0
-186 -98 -100 -120 -123 0
-190 -98 -101 -120 -123 0
-193 -98 -102 -120 -123 0
-195 -98 -103 -120 -123 0
-196 -98 -104 -120 -123 0
-186 -99 -100 -120 -124 0
-190 -99 -101 -120 -124 0
-193 -99 -102 -120 -124 0
-195 -99 -103 -120 -124 0
-196 -99 -104 -120 -124 0
-190 -100 -101 -120 -125 0
-193 -100 -102 -120 -125 0
-195 -100 -103 -120 -125 0
-196 -100 -104 -120 -125 0
-193 -101 -102 -120 -126 0
-195 -101 -103 -120 -126 0
-196 -101 -104 -120 -126 0
-195 -102 -103 -120 -127 0
-196 -102 -104 -120 -127 0
-196 -103 -104 -120 -128 0
-175 -97 -98 -121 -122 0
-181 -97 -99 -121 -122 0
-186 -97 -100 -121 -122 0
-190 -97 -101 -121 -122 0
-193 -97 -102 -121 -122 0
-195 -97 -103 -121 -122 0
-196 -97 -104 -121 -122 0
-181 -98 -99 -121 -123 0
-186 -98 -100 -121 -123 0
-190 -98 -101 -121 -123 0
-193 -98 -102 -121 -123 0
-195 -98 -103 -121 -123 0
-196 -98 -104 -121 -123 0
-186 -99 -100 -121 -124 0
-190 -99 -101 -121 -124 0
-193 -99 -102 -121 -124 0
-195 -99 -103 -121 -124 0
-196 -99 -104 -121 -124 0
-190 -100 -101 -121 -125 0
-193 -100 -102 -121 -125 0
-195 -100 -103 -121 -125 0
-196 -100 -104 -121 -125 0
-193 -101 -102 -121 -126 0
-195 -101 -103 -121 -126 0
-196 -101 -104 -121 -126 0
-195 -102 -103 -121 -127 0
-196 -102 -104 -121 -127 0
-196 -103 -104 -121 -128 0
-181 -98 -99 -122 -123 0
-186 -98 -100 -122 -123 0
-190 -98 -101 -122 -123 0
-193 -98 -102 -122 -123 0
-195 -98 -103 -122 -123 0
-196 -98 -104 -122 -123 0
-186 -99 -100 -122 -124 0
-190 -99 -101 -122 -124 0
-193 -99 -102 -122 -124 0
-195 -99 -103 -122 -124 0
-196 -99 -104 -122 -124 0
-190 -100 -101 -122 -125 0
-193 -100 -102 -122 -125 0
-195 -100 -103 -122 -125 0
-196 -100 -104 -122 -125 0
-193 -101 -102 -122 -126 0
-195 -101 -103 -122 -126 0
-196 -101 -104 -122 -126 0
-195 -102 -103 -122 -127 0
-196 -102 -104 -122 -127 0
-196 -103 -104 -122 -128 0
-186 -99 -100 -123 -124 0
-190 -99 -101 -123 -124 0
-193 -99 -102 -123 -124 0
-195 -99 -103 -123 -124 0
-196 -99 -104 -123 -124 0
-190 -100 -101 -123 -125 0
-193 -100 -102 -123 -125 0
-195 -100 -103 -123 -125 0
-196 -100 -104 -123 -125 0
-193 -101 -102 -123 -126 0
-195 -101 -103 -123 -126 0
-196 -101 -104 -123 -126 0
-195 -102 -103 -123 -127 0
-196 -102 -104 -123 -127 0
-196 -103 -104 -123 -128 0
-190 -100 -101 -124 -125 0
-193 -100 -102 -124 -125 0
-195 -100 -103 -124 -125 0
-196 -100 -104 -124 -125 0
-193 -101 -102 -124 -126 0
-195 -101 -103 -124 -126 0
-196 -101 -104 -124 -126 0
-195 -102 -103 -124 -127 0
-196 -102 -104 -124 -127 0
-196 -103 -104 -124 -128 0
-193 -101 -102 -125 -126 0
-195 -101 -103 -125 -126 0
-196 -101 -104 -125 -126 0
-195 -102 -103 -125 -127 0
-196 -102 -104 -125 -127 0
-196 -103 -104 -125 -128 0
-195 -102 -103 -126 -127 0
-196 -102 -104 -126 -127 0
-196 -103 -104 -126 -128 0
-196 -103 -104 -127 -128 0
-168 -96 -97 -131 -132 0
-175 -96 -98 -131 -132 0
-181 -96 -99 -131 -132 0
-186 -96 -100 -131 -132 0
-190 -96 -101 -131 -132 0
-193 -96 -102 -131 -132 0
-195 -96 -103 -131 -132 0
-196 -96 -104 -131 -132 0
-175 -97 -98 -131 -133 0
-181 -97 -99 -131 -133 0
-186 -97 -100 -131 -133 0
-190 -97 -101 -131 -133 0
-193 -97 -102 -131 -133 0
-195 -97 -103 -131 -133 0
-196 -97 -104 -131 -133 0
-181 -98 -99 -131 -134 0
-186 -98 -100 -131 -134 0
-190 -98 -101 -131 -134 0
-193 -98 -102 -131 -134 0
-195 -98 -103 -131 -134 0
-196 -98 -104 -131 -134 0
-186 -99 -100 -131 -135 0
-190 -99 -101 -131 -135 0
-193 -99 -102 -131 -135 0
-195 -99 -103 -131 -135 0
-196 -99 -104 -131 -135 0
-190 -100 -101 -131 -136 0
-193 -100 -102 -131 -136 0
-195 -100 -103 -131 -136 0
-196 -100 -104 -131 -136 0
-193 -101 -102 -131 -137 0
-195 -101 -103 -131 -137 0
-196 -101 -104 -131 -137 0
-195 -102 -103 -131 -138 0
-196 -102 -104 -131 -138 0
-196 -103 -104 -131 -139 0
-175 -97 -98 -132 -133 0
-181 -97 -99 -132 -133 0
-186 -97 -100 -132 -133 0
-190 -97 -101 -132 -133 0
-193 -97 -102 -132 -133 0
-195 -97 -103 -132 -133 0
-196 -97 -104 -132 -133 0
-181 -98 -99 -132 -134 0
-186 -98 -100 -132 -134 0
-190 -98 -101 -132 -134 0
-193 -98 -102 -132 -134 0
-195 -98 -103 -132 -134 0
-196 -98 -104 -132 -134 0
-186 -99 -100 -132 -135 0
-190 -99 -101 -132 -135 0
-193 -99 -102 -132 -135 0
-195 -99 -103 -132 -135 0
-196 -99 -104 -132 -135 0
-190 -100 -101 -132 -136 0
-193 -100 -102 -132 -136 0
-195 -100 -103 -132 -136 0
-196 -100 -104 -132 -136 0
-193 -101 -102 -132 -137 0
-195 -101 -103 -132 -137 0
-196 -101 -104 -132 -137 0
-195 -102 -103 -132 -138 0
-196 -102 -104 -132 -138 0
-196 -103 -104 -132 -139 0
-181 -98 -99 -133 -134 0
-186 -98 -100 -133 -134 0
-190 -98 -101 -133 -134 0
-193 -98 -102 -133 -134 0
-195 -98 -103 -133 -134 0
-196 -98 -104 -133 -134 0
-186 -99 -100 -133 -135 0
-190 -99 -101 -133 -135 0
-193 -99 -102 -133 -135 0
-195 -99 -103 -133 -135 0
-196 -99 -104 -133 -135 0
-190 -100 -101 -133 -136 0
-193 -100 -102 -133 -136 0
-195 -100 -103 -133 -136 0
-196 -100 -104 -133 -136 0
-193 -101 -102 -133 -137 0
-195 -101 -103 -133 -137 0
-196 -101 -104 -133 -137 0
-195 -102 -103 -133 -138 0
-196 -102 -104 -133 -138 0
-196 -103 -104 -133 -139 0
-186 -99 -100 -134 -135 0
-190 -99 -101 -134 -135 0
-193 -99 -102 -134 -135 0
-195 -99 -103 -134 -135 0
-196 -99 -104 -134 -135 0
-190 -100 -101 -134 -136 0
-193 -100 -102 -134 -136 0
-195 -100 -103 -134 -136 0
-196 -100 -104 -134 -136 0
-193 -101 -102 -134 -137 0
-195 -101 -103 -134 -137 0
-196 -101 -104 -134 -137 0
-195 -102 -103 -134 -138 0
-196 -102 -104 -134 -138 0
-196 -103 -104 -134 -139 0
-190 -100 -101 -135 -136 0
-193 -100 -102 -135 -136 0
-195 -100 -103 -135 -136 0
-196 -100 -104 -135 -136 0
-193 -101 -102 -135 -137 0
-195 -101 -103 -135 -137 0
-196 -101 -104 -135 -137 0
-195 -102 -103 -135 -138 0
-196 -102 -104 -135 -138 0
-196 -103 -104 -135 -139 0
-193 -101 -102 -136 -137 0
-195 -101 -103 -136 -137 0
-196 -101 -104 -136 -137 0
-195 -102 -103 -136 -138 0
-196 -102 -104 -136 -138 0
-196 -103 -104 -136 -139 0
-195 -102 -103 -137 -138 0
-196 -102 -104 -137 -138 0
-196 -103 -104 -137 -139 0
-196 -103 -104 -138 -139 0
-175 -97 -98 -142 -143 0
-181 -97 -99 -142 -143 0
-186 -97 -100 -142 -143 0
-190 -97 -101 -142 -143 0
-193 -97 -102 -142 -143 0
-195 -97 -103 -142 -143 0
-196 -97 -104 -142 -143 0
-181 -98 -99 -142 -144 0
-186 -98 -100 -142 -144 0
-190 -98 -101 -142 -144 0
-193 -98 -102 -142 -144 0
-195 -98 -103 -142 -144 0
-196 -98 -104 -142 -144 0
-186 -99 -100 -142 -145 0
-190 -99 -101 -142 -145 0
-193 -99 -102 -142 -145 0
-195 -99 -103 -142 -145 0
-196 -99 -104 -142 -145 0
-190 -100 -101 -142 -146 0
-193 -100 -102 -142 -146 0
-195 -100 -103 -142 -146 0
-196 -100 -104 -142 -146 0
-193 -101 -102 -142 -147 0
-195 -101 -103 -142 -147 0
-196 -101 -104 -142 -147 0
-195 -102 -103 -142 -148 0
-196 -102 -104 -142 -148 0
-196 -103 -104 -142 -149 0
-181 -98 -99 -143 -144 0
-186 -98 -100 -143 -144 0
-190 -98 -101 -143 -144 0
-193 -98 -102 -143 -144 0
-195 -98 -103 -143 -144 0
-196 -98 -104 -143 -144 0
-186 -99 -100 -143 -145 0
-190 -99 -101 -143 -145 0
-193 -99 -102 -143 -145 0
-195 -99 -103 -143 -145 0
-196 -99 -104 -143 -145 0
-190 -100 -101 -143 -146 0
-193 -100 -102 -143 -146 0
-195 -100 -103 -143 -146 0
-196 -100 -104 -143 -146 0
-193 -101 -102 -143 -147 0
-195 -101 -103 -143 -147 0
-196 -101 -104 -143 -147 0
-195 -102 -103 -143 -148 0
-196 -102 -104 -143 -148 0
-196 -103 -104 -143 -149 0
-186 -99 -100 -144 -145 0
-190 -99 -101 -144 -145 0
-193 -99 -102 -144 -145 0
-195 -99 -103 -144 -145 0
-196 -99 -104 -144 -145 0
-190 -100 -101 -144 -146 0
-193 -100 -102 -144 -146 0
-195 -100 -103 -144 -146 0
-196 -100 -104 -144 -146 0
-193 -101 -102 -144 -147 0
-195 -101 -103 -144 -147 0
-196 -101 -104 -144 -147 0
-195 -102 -103 -144 -148 0
-196 -102 -104 -144 -148 0
-196 -103 -104 -144 -149 0
-190 -100 -101 -145 -146 0
-193 -100 -102 -145 -146 0
-195 -100 -103 -145 -146 0
-196 -100 -104 -145 -146 0
-193 -101 -102 -145 -147 0
-195 -101 -103 -145 -147 0
-196 -101 -104 -145 -147 0
-195 -102 -103 -145 -148 0
-196 -102 -104 -145 -148 0
-196 -103 -104 -145 -149 0
-193 -101 -102 -146 -147 0
-195 -101 -103 -146 -147 0
-196 -101 -104 -146 -147 0
-195 -102 -103 -146 -148 0
-196 -102 -104 -146 -148 0
-196 -103 -104 -146 -149 0
-195 -102 -103 -147 -148 0
-196 -102 -104 -147 -148 0
-196 -103 -104 -147 -149 0
-196 -103 -104 -148 -149 0
-181 -98 -99 -152 -153 0
-186 -98 -100 -152 -153 0
-190 -98 -101 -152 -153 0
-193 -98 -102 -152 -153 0
-195 -98 -103 -152 -153 0
-196 -98 -104 -152 -153 0
-186 -99 -100 -152 -154 0
-190 -99 -101 -152 -154 0
-193 -99 -102 -152 -154 0
-195 -99 -103 -152 -154 0
-196 -99 -104 -152 -154 0
-190 -100 -101 -152 -155 0
-193 -100 -102 -152 -155 0
-195 -100 -103 -152 -155 0
-196 -100 -104 -152 -155 0
-193 -101 -102 -152 -156 0
-195 -101 -103 -152 -156 0
-196 -101 -104 -152 -156 0
-195 -102 -103 -152 -157 0
-196 -102 -104 -152 -157 0
-196 -103 -104 -152 -158 0
-186 -99 -100 -153 -154 0
-190 -99 -101 -153 -154 0
-193 -99 -102 -153 -154 0
-195 -99 -103 -153 -154 0
-196 -99 -104 -153 -154 0
-190 -100 -101 -153 -155 0
-193 -100 -102 -153 -155 0
-195 -100 -103 -153 -155 0
-196 -100 -104 -153 -155 0
-193 -101 -102 -153 -156 0
-195 -101 -103 -153 -156 0
-196 -101 -104 -153 -156 0
-195 -102 -103 -153 -157 0
-196 -102 -104 -153 -157 0
-196 -103 -104 -153 -158 0
-190 -100 -101 -154 -155 0
-193 -100 -102 -154 -155 0
-195 -100 -103 -154 -155 0
-196 -100 -104 -154 -155 0
-193 -101 -102 -154 -156 0
-195 -101 -103 -154 -156 0
-196 -101 -104 -154 -156 0
-195 -102 -103 -154 -157 0
-196 -102 -104 -154 -157 0
-196 -103 -104 -154 -158 0
-193 -101 -102 -155 -156 0
-195 -101 -103 -155 -156 0
-196 -101 -104 -155 -156 0
-195 -102 -103 -155 -157 0
-196 -102 -104 -155 -157 0
-196 -103 -104 -155 -158 0
-195 -102 -103 -156 -157 0
-196 -102 -104 -156 -157 0
-196 -103 -104 -156 -158 0
-196 -103 -104 -157 -158 0
-186 -99 -100 -161 -162 0
-190 -99 -101 -161 -162 0
-193 -99 -102 -161 -162 0
-195 -99 -103 -161 -162 0
-196 -99 -104 -161 -162 0
-190 -100 -101 -161 -163 0
-193 -100 -102 -161 -163 0
-195 -100 -103 -161 -163 0
-196 -100 -104 -161 -163 0
-193 -101 -102 -161 -164 0
-195 -101 -103 -161 -164 0
-196 -101 -104 -161 -164 0
-195 -102 -103 -161 -165 0
-196 -102 -104 -161 -165 0
-196 -103 -104 -161 -166 0
-190 -100 -101 -162 -163 0
-193 -100 -102 -162 -163 0
-195 -100 -103 -162 -163 0
-196 -100 -104 -162 -163 0
-193 -101 -102 -162 -164 0
-195 -101 -103 -162 -164 0
-196 -101 -104 -162 -164 0
-195 -102 -103 -162 -165 0
-196 -102 -104 -162 -165 0
-196 -103 -104 -162 -166 0
-193 -101 -102 -163 -164 0
-195 -101 -103 -163 -164 0
-196 -101 -104 -163 -164 0
-195 -102 -103 -163 -165 0
-196 -102 -104 -163 -165 0
-196 -103 -104 -163 -166 0
-195 -102 -103 -164 -165 0
-196 -102 -104 -164 -165 0
-196 -103 -104 -164 -166 0
-196 -103 -104 -165 -166 0
-190 -100 -101 -169 -170 0
-193 -100 -102 -169 -170 0
-195 -100 -103 -169 -170 0
-196 -100 -104 -169 -170 0
-193 -101 -102 -169 -171 0
-195 -101 -103 -169 -171 0
-196 -101 -104 -169 -171 0
-195 -102 -103 -169 -172 0
-196 -102 -104 -169 -172 0
-196 -103 -104 -169 -173 0
-193 -101 -102 -170 -171 0
-195 -101 -103 -170 -171 0
-196 -101 -104 -170 -171 0
-195 -102 -103 -170 -172 0
-196 -102 -104 -170 -172 0
-196 -103 -104 -170 -173 0
-195 -102 -103 -171 -172 0
-196 -102 -104 -171 -172 0
-196 -103 -104 -171 -173 0
-196 -103 -104 -172 -173 0
-193 -101 -102 -176 -177 0
-195 -101 -103 -176 -177 0
-196 -101 -104 -176 -177 0
-195 -102 -103 -176 -178 0
-196 -102 -104 -176 -178 0
-196 -103 -104 -176 -179 0
-195 -102 -103 -177 -178 0
-196 -102 -104 -177 -178 0
-196 -103 -104 -177 -179 0
-196 -103 -104 -178 -179 0
-195 -102 -103 -182 -183 0
-196 -102 -104 -182 -183 0
-196 -103 -104 -182 -184 0
-196 -103 -104 -183 -184 0
-196 -103 -104 -187 -188 0
-160 -108 -109 -119 -120 0
-168 -108 -110 -119 -120 0
-175 -108 -111 -119 -120 0
-181 -108 -112 -119 -120 0
-186 -108 -113 -119 -120 0
-190 -108 -114 -119 -120 0
-193 -108 -115 -119 -120 0
-195 -108 -116 -119 -120 0
-196 -108 -117 -119 -120 0
-168 -109 -110 -119 -121 0
-175 -109 -111 -119 -121 0
-181 -109 -112 -119 -121 0
-186 -109 -113 -119 -121 0
-190 -109 -114 -119 -121 0
-193 -109 -115 -119 -121 0
-195 -109 -116 -119 -121 0
-196 -109 -117 -119 -121 0
-175 -110 -111 -119 -122 0
-181 -110 -112 -119 -122 0
-186 -110 -113 -119 -122 0
-190 -110 -114 -119 -122 0
-193 -110 -115 -119 -122 0
-195 -110 -116 -119 -122 0
-196 -110 -117 -119 -122 0
-181 -111 -112 -119 -123 0
-186 -111 -113 -119 -123 0
-190 -111 -114 -119 -123 0
-193 -111 -115 -119 -123 0
-195 -111 -116 -119 -123 0
-196 -111 -117 -119 -123 0
-186 -112 -113 -119 -124 0
-190 -112 -114 -119 -124 0
-193 -112 -115 -119 -124 0
-195 -112 -116 -119 -124 0
-196 -112 -117 -119 -124 0
-190 -113 -114 -119 -125 0
-193 -113 -115 -119 -125 0
-195 -113 -116 -119 -125 0
-196 -113 -117 -119 -125 0
-193 -114 -115 -119 -126 0
-195 -114 -116 -119 -126 0
-196 -114 -117 -119 -126 0
-195 -115 -116 -119 -127 0
-196 -115 -117 -119 -127 0
-196 -116 -117 -119 -128 0
-168 -109 -110 -120 -121 0
-175 -109 -111 -120 -121 0
-181 -109 -112 -120 -121 0
-186 -109 -113 -120 -121 0
-190 -109 -114 -120 -121 0
-193 -109 -115 -120 -121 0
-195 -109 -116 -120 -121 0
-196 -109 -117 -120 -121 0
-175 -110 -111 -120 -122 0
-181 -110 -112 -120 -122 0
-186 -110 -113 -120 -122 0
-190 -110 -114 -120 -122 0
-193 -110 -115 -120 -122 0
-195 -110 -116 -120 -122 0
-196 -110 -117 -120 -122 0
-181 -111 -112 -120 -123 0
-186 -111 -113 -120 -123 0
-190 -111 -114 -120 -123 0
-193 -111 -115 -120 -123 0
-195 -111 -116 -120 -123 0
-196 -111 -117 -120 -123 0
-186 -112 -113 -120 -124 0
-190 -112 -114 -120 -124 0
-193 -112 -115 -120 -124 0
-195 -112 -116 -120 -124 0
-196 -112 -117 -120 -124 0
-190 -113 -114 -120 -125 0
-193 -113 -115 -120 -125 0
-195 -113 -116 -120 -125 0
-196 -113 -117 -120 -125 0
-193 -114 -115 -120 -126 0
-195 -114 -116 -120 -126 0
-196 -114 -117 -120 -126 0
-195 -115 -116 -120 -127 0
-196 -115 -117 -120 -127 0
-196 -116 -117 -120 -128 0
-175 -110 -111 -121 -122 0
-181 -110 -112 -121 -122 0
-186 -110 -113 -121 -122 0
-190 -110 -114 -121 -122 0
-193 -110 -115 -121 -122 0
-195 -110 -116 -121 -122 0
-196 -110 -117 -121 -122 0
-181 -111 -112 -121 -123 0
-186 -111 -113 -121 -123 0
-190 -111 -114 -121 -123 0
-193 -111 -115 -121 -123 0
-195 -111 -116 -121 -123 0
-196 -111 -117 -121 -123 0
-186 -112 -113 -121 -124 0
-190 -112 -114 -121 -124 0
-193 -112 -115 -121 -124 0
-195 -112 -116 -121 -124 0
-196 -112 -117 -121 -124 0
-190 -113 -114 -121 -125 0
-193 -113 -115 -121 -125 0
-195 -113 -116 -121 -125 0
-196 -113 -117 -121 -125 0
-193 -114 -115 -121 -126 0
-195 -114 -116 -121 -126 0
-196 -114 -117 -121 -126 0
-195 -115 -116 -121 -127 0
-196 -115 -117 -121 -127 0
-196 -116 -117 -121 -128 0
-181 -111 -112 -122 -123 0
-186 -111 -113 -122 -123 0
-190 -111 -114 -122 -123 0
-193 -111 -115 -122 -123 0
-195 -111 -116 -122 -123 0
-196 -111 -117 -122 -123 0
-186 -112 -113 -122 -124 0
-190 -112 -114 -122 -124 0
-193 -112 -115 -122 -124 0
-195 -112 -116 -122 -124 0
-196 -112 -117 -122 -124 0
-190 -113 -114 -122 -125 0
-193 -113 -115 -122 -125 0
-195 -113 -116 -122 -125 0
-196 -113 -117 -122 -125 0
-193 -114 -115 -122 -126 0
-195 -114 -116 -122 -126 0
-196 -114 -117 -122 -126 0
-195 -115 -116 -122 -127 0
-196 -115 -117 -122 -127 0
-196 -116 -117 -122 -128 0
-186 -112 -113 -123 -124 0
-190 -112 -114 -123 -124 0
-193 -112 -115 -123 -124 0
-195 -112 -116 -123 -124 0
-196 -112 -117 -123 -124 0
-190 -113 -114 -123 -125 0
-193 -113 -115 -123 -125 0
-195 -113 -116 -123 -125 0
-196 -113 -117 -123 -125 0
-193 -114 -115 -123 -126 0
-195 -114 -116 -123 -126 0
-196 -114 -117 -123 -126 0
-195 -115 -116 -123 -127 0
-196 -115 -117 -123 -127 0
-196 -116 -117 -123 -128 0
-190 -113 -114 -124 -125 0
-193 -113 -115 -124 -125 0
-195 -113 -116 -124 -125 0
-196 -113 -117 -124 -125 0
-193 -114 -115 -124 -126 0
-195 -114 -116 -124 -126 0
-196 -114 -117 -124 -126 0
-195 -115 -116 -124 -127 0
-196 -115 -117 -124 -127 0
-196 -116 -117 -124 -128 0
-193 -114 -115 -125 -126 0
-195 -114 -116 -125 -126 0
-196 -114 -117 -125 -126 0
-195 -115 -116 -125 -127 0
-196 -115 -117 -125 -127 0
-196 -116 -117 -125 -128 0
-195 -115 -116 -126 -127 0
-196 -115 -117 -126 -127 0
-196 -116 -117 -126 -128 0
-196 -116 -117 -127 -128 0
-168 -109 -110 -131 -132 0
-175 -109 -111 -131 -132 0
-181 -109 -112 -131 -132 0
-186 -109 -113 -131 -132 0
-190 -109 -114 -131 -132 0
-193 -109 -115 -131 -132 0
-195 -109 -116 -131 -132 0
-196 -109 -117 -131 -132 0
-175 -110 -111 -131 -133 0
-181 -110 -112 -131 -133 0
-186 -110 -113 -131 -133 0
-190 -110 -114 -131 -133 0
-193 -110 -115 -131 -133 0
-195 -110 -116 -131 -133 0
-196 -110 -117 -131 -133 0
-181 -111 -112 -131 -134 0
-186 -111 -113 -131 -134 0
-190 -111 -114 -131 -134 0
-193 -111 -115 -131 -134 0
-195 -111 -116 -131 -134 0
-196 -111 -117 -131 -134 0
-186 -112 -113 -131 -135 0
-190 -112 -114 -131 -135 0
-193 -112 -115 -131 -135 0
-195 -112 -116 -131 -135 0
-196 -112 -117 -131 -135 0
-190 -113 -114 -131 -136 0
-193 -113 -115 -131 -136 0
-195 -113 -116 -131 -136 0
-196 -113 -117 -131 -136 0
-193 -114 -115 -131 -137 0
-195 -114 -116 -131 -137 0
-196 -114 -117 -131 -137 0
-195 -115 -116 -131 -138 0
-196 -115 -117 -131 -138 0
-196 -116 -117 -131 -139 0
-175 -110 -111 -132 -133 0
-181 -110 -112 -132 -133 0
-186 -110 -113 -132 -133 0
-190 -110 -114 -132 -133 0
-193 -110 -115 -132 -133 0
-195 -110 -116 -132 -133 0
-196 -110 -117 -132 -133 0
-181 -111 -112 -132 -134 0
-186 -111 -113 -132 -134 0
-190 -111 -114 -132 -134 0
-193 -111 -115 -132 -134 0
-195 -111 -116 -132 -134 0
-196 -111 -117 -132 -134 0
-186 -112 -113 -132 -135 0
-190 -112 -114 -132 -135 0
-193 -112 -115 -132 -135 0
-195 -112 -116 -132 -135 0
-196 -112 -117 -132 -135 0
-190 -113 -114 -132 -136 0
-193 -113 -115 -132 -136 0
-195 -113 -116 -132 -136 0
-196 -113 -117 -132 -136 0
-193 -114 -115 -132 -137 0
-195 -114 -116 -132 -137 0
-196 -114 -117 -132 -137 0
-195 -115 -116 -132 -138 0
-196 -115 -117 -132 -138 0
-196 -116 -117 -132 -139 0
-181 -111 -112 -133 -134 0
-186 -111 -113 -133 -134 0
-190 -111 -114 -133 -134 0
-193 -111 -115 -133 -134 0
-195 -111 -116 -133 -134 0
-196 -111 -117 -133 -134 0
-186 -112 -113 -133 -135 0
-190 -112 -114 -133 -135 0
-193 -112 -115 -133 -135 0
-195 -112 -116 -133 -135 0
-196 -112 -117 -133 -135 0
-190 -113 -114 -133 -136 0
-193 -113 -115 -133 -136 0
-195 -113 -116 -133 -136 0
-196 -113 -117 -133 -136 0
-193 -114 -115 -133 -137 0
-195 -114 -116 -133 -137 0
-196 -114 -117 -133 -137 0
-195 -115 -116 -133 -138 0
-196 -115 -117 -133 -138 0
-196 -116 -117 -133 -139 0
-186 -112 -113 -134 -135 0
-190 -112 -114 -134 -135 0
-193 -112 -115 -134 -135 0
-195 -112 -116 -134 -135 0
-196 -112 -117 -134 -135 0
-190 -113 -114 -134 -136 0
-193 -113 -115 -134 -136 0
-195 -113 -116 -134 -136 0
-196 -113 -117 -134 -136 0
-193 -114 -115 -134 -137 0
-195 -114 -116 -134 -137 0
-196 -114 -117 -134 -137 0
-195 -115 -116 -134 -138 0
-196 -115 -117 -134 -138 0
-196 -116 -117 -134 -139 0
-190 -113 -114 -135 -136 0
-193 -113 -115 -135 -136 0
-195 -113 -116 -135 -136 0
-196 -113 -117 -135 -136 0
-193 -114 -115 -135 -137 0
-195 -114 -116 -135 -137 0
-196 -114 -117 -135 -137 0
-195 -115 -116 -135 -138 0
-196 -115 -117 -135 -138 0
-196 -116 -117 -135 -139 0
-193 -114 -115 -136 -137 0
-195 -114 -116 -136 -137 0
-196 -114 -117 -136 -137 0
-195 -115 -116 -136 -138 0
-196 -115 -117 -136 -138 0
-196 -116 -117 -136 -139 0
-195 -115 -116 -137 -138 0
-196 -115 -117 -137 -138 0
-196 -116 -117 -137 -139 0
-196 -116 -117 -138 -139 0
-175 -110 -111 -142 -143 0
-181 -110 -112 -142 -143 0
-186 -110 -113 -142 -143 0
-190 -110 -114 -142 -143 0
-193 -110 -115 -142 -143 0
-195 -110 -116 -142 -143 0
-196 -110 -117 -142 -143 0
-181 -111 -112 -142 -144 0
-186 -111 -113 -142 -144 0
-190 -111 -114 -142 -144 0
-193 -111 -115 -142 -144 0
-195 -111 -116 -142 -144 0
-196 -111 -117 -142 -144 0
-186 -112 -113 -142 -145 0
-190 -112 -114 -142 -145 0
-193 -112 -115 -142 -145 0
-195 -112 -116 -142 -145 0
-196 -112 -117 -142 -145 0
-190 -113 -114 -142 -146 0
-193 -113 -115 -142 -146 0
-195 -113 -116 -142 -146 0
-196 -113 -117 -142 -146 0
-193 -114 -115 -142 -147 0
-195 -114 -116 -142 -147 0
-196 -114 -117 -142 -147 0
-195 -115 -116 -142 -148 0
-196 -115 -117 -142 -148 0
-196 -116 -117 -142 -149 0
-181 -111 -112 -143 -144 0
-186 -111 -113 -143 -144 0
-190 -111 -114 -143 -144 0
-193 -111 -115 -143 -144 0
-195 -111 -116 -143 -144 0
-196 -111 -117 -143 -144 0
-186 -112 -113 -143 -145 0
-190 -112 -114 -143 -145 0
-193 -112 -115 -143 -145 0
-195 -112 -116 -143 -145 0
-196 -112 -117 -143 -145 0
-190 -113 -114 -143 -146 0
-193 -113 -115 -143 -146 0
-195 -113 -116 -143 -146 0
-196 -113 -117 -143 -146 0
-193 -114 -115 -143 -147 0
-195 -114 -116 -143 -147 0
-196 -114 -117 -143 -147 0
-195 -115 -116 -143 -148 0
-196 -115 -117 -143 -148 0
-196 -116 -117 -143 -149 0
-186 -112 -113 -144 -145 0
-190 -112 -114 -144 -145 0
-193 -112 -115 -144 -145 0
-195 -112 -116 -144 -145 0
-196 -112 -117 -144 -145 0
-190 -113 -114 -144 -146 0
-193 -113 -115 -144 -146 0
-195 -113 -116 -144 -146 0
-196 -113 -117 -144 -146 0
-193 -114 -115 -144 -147 0
-195 -114 -116 -144 -147 0
-196 -114 -117 -144 -147 0
-195 -115 -116 -144 -148 0
-196 -115 -117 -144 -148 0
-196 -116 -117 -144 -149 0
-190 -113 -114 -145 -146 0
-193 -113 -115 -145 -146 0
-195 -113 -116 -145 -146 0
-196 -113 -117 -145 -146 0
-193 -114 -115 -145 -147 0
-195 -114 -116 -145 -147 0
-196 -114 -117 -145 -147 0
-195 -115 -116 -145 -148 0
-196 -115 -117 -145 -148 0
-196 -116 -117 -145 -149 0
-193 -114 -115 -146 -147 0
-195 -114 -116 -146 -147 0
-196 -114 -117 -146 -147 0
-195 -115 -116 -146 -148 0
-196 -115 -117 -146 -148 0
-196 -116 -117 -146 -149 0
-195 -115 -116 -147 -148 0
-196 -115 -117 -147 -148 0
-196 -116 -117 -147 -149 0
-196 -116 -117 -148 -149 0
-181 -111 -112 -152 -153 0
-186 -111 -113 -152 -153 0
-190 -111 -114 -152 -153 0
-193 -111 -115 -152 -153 0
-195 -111 -116 -152 -153 0
-196 -111 -117 -152 -153 0
-186 -112 -113 -152 -154 0
-190 -112 -114 -152 -154 0
-193 -112 -115 -152 -154 0
-195 -112 -116 -152 -154 0
-196 -112 -117 -152 -154 0
-190 -113 -114 -152 -155 0
-193 -113 -115 -152 -155 0
-195 -113 -116 -152 -155 0
-196 -113 -117 -152 -155 0
-193 -114 -115 -152 -156 0
-195 -114 -116 -152 -156 0
-196 -114 -117 -152 -156 0
-195 -115 -116 -152 -157 0
-196 -115 -117 -152 -157 0
-196 -116 -117 -152 -158 0
-186 -112 -113 -153 -154 0
-190 -112 -114 -153 -154 0
-193 -112 -115 -153 -154 0
-195 -112 -116 -153 -154 0
-196 -112 -117 -153 -154 0
-190 -113 -114 -153 -155 0
-193 -113 -115 -153 -155 0
-195 -113 -116 -153 -155 0
-196 -113 -117 -153 -155 0
-193 -114 -115 -153 -156 0
-195 -114 -116 -153 -156 0
-196 -114 -117 -153 -156 0
-195 -115 -116 -153 -157 0
-196 -115 -117 -153 -157 0
-196 -116 -117 -153 -158 0
-190 -113 -114 -154 -155 0
-193 -113 -115 -154 -155 0
-195 -113 -116 -154 -155 0
-196 -113 -117 -154 -155 0
-193 -114 -115 -154 -156 0
-195 -114 -116 -154 -156 0
-196 -114 -117 -154 -156 0
-195 -115 -116 -154 -157 0
-196 -115 -117 -154 -157 0
-196 -116 -117 -154 -158 0
-193 -114 -115 -155 -156 0
-195 -114 -116 -155 -156 0
-196 -114 -117 -155 -156 0
-195 -115 -116 -155 -157 0
-196 -115 -117 -155 -157 0
-196 -116 -117 -155 -158 0
-195 -115 -116 -156 -157 0
-196 -115 -117 -156 -157 0
-196 -116 -117 -156 -158 0
-196 -116 -117 -157 -158 0
-186 -112 -113 -161 -162 0
-190 -112 -114 -161 -162 0
-193 -112 -115 -161 -162 0
-195 -112 -116 -161 -162 0
-196 -112 -117 -161 -162 0
-190 -113 -114 -161 -163 0
-193 -113 -115 -161 -163 0
-195 -113 -116 -161 -163 0
-196 -113 -117 -161 -163 0
-193 -114 -115 -161 -164 0
-195 -114 -116 -161 -164 0
-196 -114 -117 -161 -164 0
-195 -115 -116 -161 -165 0
-196 -115 -117 -161 -165 0
-196 -116 -117 -161 -166 0
-190 -113 -114 -162 -163 0
-193 -113 -115 -162 -163 0
-195 -113 -116 -162 -163 0
-196 -113 -117 -162 -163 0
-193 -114 -115 -162 -164 0
-195 -114 -116 -162 -164 0
-196 -114 -117 -162 -164 0
-195 -115 -116 -162 -165 0
-196 -115 -117 -162 -165 0
-196 -116 -117 -162 -166 0
-193 -114 -115 -163 -164 0
-195 -114 -116 -163 -164 0
-196 -114 -117 -163 -164 0
-195 -115 -116 -163 -165 0
-196 -115 -117 -163 -165 0
-196 -116 -117 -163 -166 0
-195 -115 -116 -164 -165 0
-196 -115 -117 -164 -165 0
-196 -116 -117 -164 -166 0
-196 -116 -117 -165 -166 0
-190 -113 -114 -169 -170 0
-193 -113 -115 -169 -170 0
-195 -113 -116 -169 -170 0
-196 -113 -117 -169 -170 0
-193 -114 -115 -169 -171 0
-195 -114 -116 -169 -171 0
-196 -114 -117 -169 -171 0
-195 -115 -116 -169 -172 0
-196 -115 -117 -169 -172 0
-196 -116 -117 -169 -173 0
-193 -114 -115 -170 -171 0
-195 -114 -116 -170 -171 0
-196 -114 -117 -170 -171 0
-195 -115 -116 -170 -172 0
-196 -115 -117 -170 -172 0
-196 -116 -117 -170 -173 0
-195 -115 -116 -171 -172 0
-196 -115 -117 -171 -172 0
-196 -116 -117 -171 -173 0
-196 -116 -117 -172 -173 0
-193 -114 -115 -176 -177 0
-195 -114 -116 -176 -177 0
-196 -114 -117 -176 -177 0
-195 -115 -116 -176 -178 0
-196 -115 -117 -176 -178 0
-196 -116 -117 -176 -179 0
-195 -115 -116 -177 -178 0
-196 -115 -117 -177 -178 0
-196 -116 -117 -177 -179 0
-196 -116 -117 -178 -179 0
-195 -115 -116 -182 -183 0
-196 -115 -117 -182 -183 0
-196 -116 -117 -182 -184 0
-196 -116 -117 -183 -184 0
-196 -116 -117 -187 -188 0
-168 -121 -122 -131 -132 0
-175 -121 -123 -131 -132 0
-181 -121 -124 -131 -132 0
-186 -121 -125 -131 -132 0
-190 -121 -126 -131 -132 0
-193 -121 -127 -131 -132 0
-195 -121 -128 -131 -132 0
-196 -121 -129 -131 -132 0
-175 -122 -123 -131 -133 0
-181 -122 -124 -131 -133 0
-186 -122 -125 -131 -133 0
-190 -122 -126 -131 -133 0
-193 -122 -127 -131 -133 0
-195 -122 -128 -131 -133 0
-196 -122 -129 -131 -133 0
-181 -123 -124 -131 -134 0
-186 -123 -125 -131 -134 0
-190 -123 -126 -131 -134 0
-193 -123 -127 -131 -134 0
-195 -123 -128 -131 -134 0
-196 -123 -129 -131 -134 0
-186 -124 -125 -131 -135 0
-190 -124 -126 -131 -135 0
-193 -124 -127 -131 -135 0
-195 -124 -128 -131 -135 0
-196 -124 -129 -131 -135 0
-190 -125 -126 -131 -136 0
-193 -125 -127 -131 -136 0
-195 -125 -128 -131 -136 0
-196 -125 -129 -131 -136 0
-193 -126 -127 -131 -137 0
-195 -126 -128 -131 -137 0
-196 -126 -129 -131 -137 0
-195 -127 -128 -131 -138 0
-196 -127 -129 -131 -138 0
-196 -128 -129 -131 -139 0
-175 -122 -123 -132 -133 0
-181 -122 -124 -132 -133 0
-186 -122 -125 -132 -133 0
-190 -122 -126 -132 -133 0
-193 -122 -127 -132 -133 0
-195 -122 -128 -132 -133 0
-196 -122 -129 -132 -133 0
-181 -123 -124 -132 -134 0
-186 -123 -125 -132 -134 0
-190 -123 -126 -132 -134 0
-193 -123 -127 -132 -134 0
-195 -123 -128 -132 -134 0
-196 -123 -129 -132 -134 0
-186 -124 -125 -132 -135 0
-190 -124 -126 -132 -135 0
-193 -124 -127 -132 -135 0
-195 -124 -128 -132 -135 0
-196 -124 -129 -132 -135 0
-190 -125 -126 -132 -136 0
-193 -125 -127 -132 -136 0
-195 -125 -128 -132 -136 0
-196 -125 -129 -132 -136 0
-193 -126 -127 -132 -137 0
-195 -126 -128 -132 -137 0
-196 -126 -129 -132 -137 0
-195 -127 -128 -132 -138 0
-196 -127 -129 -132 -138 0
-196 -128 -129 -132 -139 0
-181 -123 -124 -133 -134 0
-186 -123 -125 -133 -134 0
-190 -123 -126 -133 -134 0
-193 -123 -127 -133 -134 0
-195 -123 -128 -133 -134 0
-196 -123 -129 -133 -134 0
-186 -124 -125 -133 -135 0
-190 -124 -126 -133 -135 0
-193 -124 -127 -133 -135 0
-195 -124 -128 -133 -135 0
-196 -124 -129 -133 -135 0
-190 -125 -126 -133 -136 0
-193 -125 -127 -133 -136 0
-195 -125 -128 -133 -136 0
-196 -125 -129 -133 -136 0
-193 -126 -127 -133 -137 0
-195 -126 -128 -133 -137 0
-196 -126 -129 -133 -137 0
-195 -127 -128 -133 -138 0
-196 -127 -129 -133 -138 0
-196 -128 -129 -133 -139 0
-186 -124 -125 -134 -135 0
-190 -124 -126 -134 -135 0
-193 -124 -127 -134 -135 0
-195 -124 -128 -134 -135 0
-196 -124 -129 -134 -135 0
-190 -125 -126 -134 -136 0
-193 -125 -127 -134 -136 0
-195 -125 -128 -134 -136 0
-196 -125 -129 -134 -136 0
-193 -126 -127 -134 -137 0
-195 -126 -128 -134 -137 0
-196 -126 -129 -134 -137 0
-195 -127 -128 -134 -138 0
-196 -127 -129 -134 -138 0
-196 -128 -129 -134 -139 0
-190 -125 -126 -135 -136 0
-193 -125 -127 -135 -136 0
-195 -125 -128 -135 -136 0
-196 -125 -129 -135 -136 0
-193 -126 -127 -135 -137 0
-195 -126 -128 -135 -137 0
-196 -126 -129 -135 -137 0
-195 -127 -128 -135 -138 0
-196 -127 -129 -135 -138 0
-196 -128 -129 -135 -139 0
-193 -126 -127 -136 -137 0
-195 -126 -128 -136 -137 0
-196 -126 -129 -136 -137 0
-195 -127 -128 -136 -138 0
-196 -127 -129 -136 -138 0
-196 -128 -129 -136 -139 0
-195 -127 -128 -137 -138 0
-196 -127 -129 -137 -138 0
-196 -128 -129 -137 -139 0
-196 -128 -129 -138 -139 0
-175 -122 -123 -142 -143 0
-181 -122 -124 -142 -143 0
-186 -122 -125 -142 -143 0
-190 -122 -126 -142 -143 0
-193 -122 -127 -142 -143 0
-195 -122 -128 -142 -143 0
-196 -122 -129 -142 -143 0
-181 -123 -124 -142 -144 0
-186 -123 -125 -142 -144 0
-190 -123 -126 -142 -144 0
-193 -123 -127 -142 -144 0
-195 -123 -128 -142 -144 0
-196 -123 -129 -142 -144 0
-186 -124 -125 -142 -145 0
-190 -124 -126 -142 -145 0
-193 -124 -127 -142 -145 0
-195 -124 -128 -142 -145 0
-196 -124 -129 -142 -145 0
-190 -125 -126 -142 -146 0
-193 -125 -127 -142 -146 0
-195 -125 -128 -142 -146 0
-196 -125 -129 -142 -146 0
-193 -126 -127 -142 -147 0
-195 -126 -128 -142 -147 0
-196 -126 -129 -142 -147 0
-195 -127 -128 -142 -148 0
-196 -127 -129 -142 -148 0
-196 -128 -129 -142 -149 0
-181 -123 -124 -143 -144 0
-186 -123 -125 -143 -144 0
-190 -123 -126 -143 -144 0
-193 -123 -127 -143 -144 0
-195 -123 -128 -143 -144 0
-196 -123 -129 -143 -144 0
-186 -124 -125 -143 -145 0
-190 -124 -126 -143 -145 0
-193 -124 -127 -143 -145 0
-195 -124 -128 -143 -145 0
-196 -124 -129 -143 -145 0
-190 -125 -126 -143 -146 0
-193 -125 -127 -143 -146 0
-195 -125 -128 -143 -146 0
-196 -125 -129 -143 -146 0
-193 -126 -127 -143 -147 0
-195 -126 -128 -143 -147 0
-196 -126 -129 -143 -147 0
-195 -127 -128 -143 -148 0
-196 -127 -129 -143 -148 0
-196 -128 -129 -143 -149 0
-186 -124 -125 -144 -145 0
-190 -124 -126 -144 -145 0
-193 -124 -127 -144 -145 0
-195 -124 -128 -144 -145 0
-196 -124 -129 -144 -145 0
-190 -125 -126 -144 -146 0
-193 -125 -127 -144 -146 0
-195 -125 -128 -144 -146 0
-196 -125 -129 -144 -146 0
-193 -126 -127 -144 -147 0
-195 -126 -128 -144 -147 0
-196 -126 -129 -144 -147 0
-195 -127 -128 -144 -148 0
-196 -127 -129 -144 -148 0
-196 -128 -129 -144 -149 0
-190 -125 -126 -145 -146 0
-193 -125 -127 -145 -146 0
-195 -125 -128 -145 -146 0
-196 -125 -129 -145 -146 0
-193 -126 -127 -145 -147 0
-195 -126 -128 -145 -147 0
-196 -126 -129 -145 -147 0
-195 -127 -128 -145 -148 0
-196 -127 -129 -145 -148 0
-196 -128 -129 -145 -149 0
-193 -126 -127 -146 -147 0
-195 -126 -128 -146 -147 0
-196 -126 -129 -146 -147 0
-195 -127 -128 -146 -148 0
-196 -127 -129 -146 -148 0
-196 -128 -129 -146 -149 0
-195 -127 -128 -147 -148 0
-196 -127 -129 -147 -148 0
-196 -128 -129 -147 -149 0
-196 -128 -129 -148 -149 0
-181 -123 -124 -152 -153 0
-186 -123 -125 -152 -153 0
-190 -123 -126 -152 -153 0
-193 -123 -127 -152 -153 0
-195 -123 -128 -152 -153 0
-196 -123 -129 -152 -153 0
-186 -124 -125 -152 -154 0
-190 -124 -126 -152 -154 0
-193 -124 -127 -152 -154 0
-195 -124 -128 -152 -154 0
-196 -124 -129 -152 -154 0
-190 -125 -126 -152 -155 0
-193 -125 -127 -152 -155 0
-195 -125 -128 -152 -155 0
-196 -125 -129 -152 -155 0
-193 -126 -127 -152 -156 0
-195 -126 -128 -152 -156 0
-196 -126 -129 -152 -156 0
-195 -127 -128 -152 -157 0
-196 -127 -129 -152 -157 0
-196 -128 -129 -152 -158 0
-186 -124 -125 -153 -154 0
-190 -124 -126 -153 -154 0
-193 -124 -127 -153 -154 0
-195 -124 -128 -153 -154 0
-196 -124 -129 -153 -154 0
-190 -125 -126 -153 -155 0
-193 -125 -127 -153 -155 0
-195 -125 -128 -153 -155 0
-196 -125 -129 -153 -155 0
-193 -126 -127 -153 -156 0
-195 -126 -128 -153 -156 0
-196 -126 -129 -153 -156 0
-195 -127 -128 -153 -157 0
-196 -127 -129 -153 -157 0
-196 -128 -129 -153 -158 0
-190 -125 -126 -154 -155 0
-193 -125 -127 -154 -155 0
-195 -125 -128 -154 -155 0
-196 -125 -129 -154 -155 0
-193 -126 -127 -154 -156 0
-195 -126 -128 -154 -156 0
-196 -126 -129 -154 -156 0
-195 -127 -128 -154 -157 0
-196 -127 -129 -154 -157 0
-196 -128 -129 -154 -158 0
-193 -126 -127 -155 -156 0
-195 -126 -128 -155 -156 0
-196 -126 -129 -155 -156 0
-195 -127 -128 -155 -157 0
-196 -127 -129 -155 -157 0
-196 -128 -129 -155 -158 0
-195 -127 -128 -156 -157 0
-196 -127 -129 -156 -157 0
-196 -128 -129 -156 -158 0
-196 -128 -129 -157 -158 0
-186 -124 -125 -161 -162 0
-190 -124 -126 -161 -162 0
-193 -124 -127 -161 -162 0
-195 -124 -128 -161 -162 0
-196 -124 -129 -161 -162 0
-190 -125 -126 -161 -163 0
-193 -125 -127 -161 -163 0
-195 -125 -128 -161 -163 0
-196 -125 -129 -161 -163 0
-193 -126 -127 -161 -164 0
-195 -126 -128 -161 -164 0
-196 -126 -129 -161 -164 0
-195 -127 -128 -161 -165 0
-196 -127 -129 -161 -165 0
-196 -128 -129 -161 -166 0
-190 -125 -126 -162 -163 0
-193 -125 -127 -162 -163 0
-195 -125 -128 -162 -163 0
-196 -125 -129 -162 -163 0
-193 -126 -127 -162 -164 0
-195 -126 -128 -162 -164 0
-196 -126 -129 -162 -164 0
-195 -127 -128 -162 -165 0
-196 -127 -129 -162 -165 0
-196 -128 -129 -162 -166 0
-193 -126 -127 -163 -164 0
-195 -126 -128 -163 -164 0
-196 -126 -129 -163 -164 0
-195 -127 -128 -163 -165 0
-196 -127 -129 -163 -165 0
-196 -128 -129 -163 -166 0
-195 -127 -128 -164 -165 0
-196 -127 -129 -164 -165 0
-196 -128 -129 -164 -166 0
-196 -128 -129 -165 -166 0
-190 -125 -126 -169 -170 0
-193 -125 -127 -169 -170 0
-195 -125 -128 -169 -170 0
-196 -125 -129 -169 -170 0
-193 -126 -127 -169 -171 0
-195 -126 -128 -169 -171 0
-196 -126 -129 -169 -171 0
-195 -127 -128 -169 -172 0
-196 -127 -129 -169 -172 0
-196 -128 -129 -169 -173 0
-193 -126 -127 -170 -171 0
-195 -126 -128 -170 -171 0
-196 -126 -129 -170 -171 0
-195 -127 -128 -170 -172 0
-196 -127 -129 -170 -172 0
-196 -128 -129 -170 -173 0
-195 -127 -128 -171 -172 0
-196 -127 -129 -171 -172 0
-196 -128 -129 -171 -173 0
-196 -128 -129 -172 -173 0
-193 -126 -127 -176 -177 0
-195 -126 -128 -176 -177 0
-196 -126 -129 -176 -177 0
-195 -127 -128 -176 -178 0
-196 -127 -129 -176 -178 0
-196 -128 -129 -176 -179 0
-195 -127 -128 -177 -178 0
-196 -127 -129 -177 -178 0
-196 -128 -129 -177 -179 0
-196 -128 -129 -178 -179 0
-195 -127 -128 -182 -183 0
-196 -127 -129 -182 -183 0
-196 -128 -129 -182 -184 0
-196 -128 -129 -183 -184 0
-196 -128 -129 -187 -188 0
-175 -133 -134 -142 -143 0
-181 -133 -135 -142 -143 0
-186 -133 -136 -142 -143 0
-190 -133 -137 -142 -143 0
-193 -133 -138 -142 -143 0
-195 -133 -139 -142 -143 0
-196 -133 -140 -142 -143 0
-181 -134 -135 -142 -144 0
-186 -134 -136 -142 -144 0
-190 -134 -137 -142 -144 0
-193 -134 -138 -142 -144 0
-195 -134 -139 -142 -144 0
-196 -134 -140 -142 -144 0
-186 -135 -136 -142 -145 0
-190 -135 -137 -142 -145 0
-193 -135 -138 -142 -145 0
-195 -135 -139 -142 -145 0
-196 -135 -140 -142 -145 0
-190 -136 -137 -142 -146 0
-193 -136 -138 -142 -146 0
-195 -136 -139 -142 -146 0
-196 -136 -140 -142 -146 0
-193 -137 -138 -142 -147 0
-195 -137 -139 -142 -147 0
-196 -137 -140 -142 -147 0
-195 -138 -139 -142 -148 0
-196 -138 -140 -142 -148 0
-196 -139 -140 -142 -149 0
-181 -134 -135 -143 -144 0
-186 -134 -136 -143 -144 0
-190 -134 -137 -143 -144 0
-193 -134 -138 -143 -144 0
-195 -134 -139 -143 -144 0
-196 -134 -140 -143 -144 0
-186 -135 -136 -143 -145 0
-190 -135 -137 -143 -145 0
-193 -135 -138 -143 -145 0
-195 -135 -139 -143 -145 0
-196 -135 -140 -143 -145 0
-190 -136 -137 -143 -146 0
-193 -136 -138 -143 -146 0
-195 -136 -139 -143 -146 0
-196 -136 -140 -143 -146 0
-193 -137 -138 -143 -147 0
-195 -137 -139 -143 -147 0
-196 -137 -140 -143 -147 0
-195 -138 -139 -143 -148 0
-196 -138 -140 -143 -148 0
-196 -139 -140 -143 -149 0
-186 -135 -136 -144 -145 0
-190 -135 -137 -144 -145 0
-193 -135 -138 -144 -145 0
-195 -135 -139 -144 -145 0
-196 -135 -140 -144 -145 0
-190 -136 -137 -144 -146 0
-193 -136 -138 -144 -146 0
-195 -136 -139 -144 -146 0
-196 -136 -140 -144 -146 0
-193 -137 -138 -144 -147 0
-195 -137 -139 -144 -147 0
-196 -137 -140 -144 -147 0
-195 -138 -139 -144 -148 0
-196 -138 -140 -144 -148 0
-196 -139 -140 -144 -149 0
-190 -136 -137 -145 -146 0
-193 -136 -138 -145 -146 0
-195 -136 -139 -145 -146 0
-196 -136 -140 -145 -146 0
-193 -137 -138 -145 -147 0
-195 -137 -139 -145 -147 0
-196 -137 -140 -145 -147 0
-195 -138 -139 -145 -148 0
-196 -138 -140 -145 -148 0
-196 -139 -140 -145 -149 0
-193 -137 -138 -146 -147 0
-195 -137 -139 -146 -147 0
-196 -137 -140 -146 -147 0
-195 -138 -139 -146 -148 0
-196 -138 -140 -146 -148 0
-196 -139 -140 -146 -149 0
-195 -138 -139 -147 -148 0
-196 -138 -140 -147 -148 0
-196 -139 -140 -147 -149 0
-196 -139 -140 -148 -149 0
-181 -134 -135 -152 -153 0
-186 -134 -136 -152 -153 0
-190 -134 -137 -152 -153 0
-193 -134 -138 -152 -153 0
-195 -134 -139 -152 -153 0
-196 -134 -140 -152 -153 0
-186 -135 -136 -152 -154 0
-190 -135 -137 -152 -154 0
-193 -135 -138 -152 -154 0
-195 -135 -139 -152 -154 0
-196 -135 -140 -152 -154 0
-190 -136 -137 -152 -155 0
-193 -136 -138 -152 -155 0
-195 -136 -139 -152 -155 0
-196 -136 -140 -152 -155 0
-193 -137 -138 -152 -156 0
-195 -137 -139 -152 -156 0
-196 -137 -140 -152 -156 0
-195 -138 -139 -152 -157 0
-196 -138 -140 -152 -157 0
-196 -139 -140 -152 -158 0
-186 -135 -136 -153 -154 0
-190 -135 -137 -153 -154 0
-193 -135 -138 -153 -154 0
-195 -135 -139 -153 -154 0
-196 -135 -140 -153 -154 0
-190 -136 -137 -153 -155 0
-193 -136 -138 -153 -155 0
-195 -136 -139 -153 -155 0
-196 -136 -140 -153 -155 0
-193 -137 -138 -153 -156 0
-195 -137 -139 -153 -156 0
-196 -137 -140 -153 -156 0
-195 -138 -139 -153 -157 0
-196 -138 -140 -153 -157 0
-196 -139 -140 -153 -158 0
-190 -136 -137 -154 -155 0
-193 -136 -138 -154 -155 0
-195 -136 -139 -154 -155 0
-196 -136 -140 -154 -155 0
-193 -137 -138 -154 -156 0
-195 -137 -139 -154 -156 0
-196 -137 -140 -154 -156 0
-195 -138 -139 -154 -157 0
-196 -138 -140 -154 -157 0
-196 -139 -140 -154 -158 0
-193 -137 -138 -155 -156 0
-195 -137 -139 -155 -156 0
-196 -137 -140 -155 -156 0
-195 -138 -139 -155 -157 0
-196 -138 -140 -155 -157 0
-196 -139 -140 -155 -158 0
-195 -138 -139 -156 -157 0
-196 -138 -140 -156 -157 0
-196 -139 -140 -156 -158 0
-196 -139 -140 -157 -158 0
-186 -135 -136 -161 -162 0
-190 -135 -137 -161 -162 0
-193 -135 -138 -161 -162 0
-195 -135 -139 -161 -162 0
-196 -135 -140 -161 -162 0
-190 -136 -137 -161 -163 0
-193 -136 -138 -161 -163 0
-195 -136 -139 -161 -163 0
-196 -136 -140 -161 -163 0
-193 -137 -138 -161 -164 0
-195 -137 -139 -161 -164 0
-196 -137 -140 -161 -164 0
-195 -138 -139 -161 -165 0
-196 -138 -140 -161 -165 0
-196 -139 -140 -161 -166 0
-190 -136 -137 -162 -163 0
-193 -136 -138 -162 -163 0
-195 -136 -139 -162 -163 0
-196 -136 -140 -162 -163 0
-193 -137 -138 -162 -164 0
-195 -137 -139 -162 -164 0
-196 -137 -140 -162 -164 0
-195 -138 -139 -162 -165 0
-196 -138 -140 -162 -165 0
-196 -139 -140 -162 -166 0
-193 -137 -138 -163 -164 0
-195 -137 -139 -163 -164 0
-196 -137 -140 -163 -164 0
-195 -138 -139 -163 -165 0
-196 -138 -140 -163 -165 0
-196 -139 -140 -163 -166 0
-195 -138 -139 -164 -165 0
-196 -138 -140 -164 -165 0
-196 -139 -140 -164 -166 0
-196 -139 -140 -165 -166 0
-190 -136 -137 -169 -170 0
-193 -136 -138 -169 -170 0
-195 -136 -139 -169 -170 0
-196 -136 -140 -169 -170 0
-193 -137 -138 -169 -171 0
-195 -137 -139 -169 -171 0
-196 -137 -140 -169 -171 0
-195 -138 -139 -169 -172 0
-196 -138 -140 -169 -172 0
-196 -139 -140 -169 -173 0
-193 -137 -138 -170 -171 0
-195 -137 -139 -170 -171 0
-196 -137 -140 -170 -171 0
-195 -138 -139 -170 -172 0
-196 -138 -140 -170 -172 0
-196 -139 -140 -170 -173 0
-195 -138 -139 -171 -172 0
-196 -138 -140 -171 -172 0
-196 -139 -140 -171 -173 0
-196 -139 -140 -172 -173 0
-193 -137 -138 -176 -177 0
-195 -137 -139 -176 -177 0
-196 -137 -140 -176 -177 0
-195 -138 -139 -176 -178 0
-196 -138 -140 -176 -178 0
-196 -139 -140 -176 -179 0
-195 -138 -139 -177 -178 0
-196 -138 -140 -177 -178 0
-196 -139 -140 -177 -179 0
-196 -139 -140 -178 -179 0
-195 -138 -139 -182 -183 0
-196 -138 -140 -182 -183 0
-196 -139 -140 -182 -184 0
-196 -139 -140 -183 -184 0
-196 -139 -140 -187 -188 0
-181 -144 -145 -152 -153 0
-186 -144 -146 -152 -153 0
-190 -144 -147 -152 -153 0
-193 -144 -148 -152 -153 0
-195 -144 -149 -152 -153 0
-196 -144 -150 -152 -153 0
-186 -145 -146 -152 -154 0
-190 -145 -147 -152 -154 0
-193 -145 -148 -152 -154 0
-195 -145 -149 -152 -154 0
-196 -145 -150 -152 -154 0
-190 -146 -147 -152 -155 0
-193 -146 -148 -152 -155 0
-195 -146 -149 -152 -155 0
-196 -146 -150 -152 -155 0
-193 -147 -148 -152 -156 0
-195 -147 -149 -152 -156 0
-196 -147 -150 -152 -156 0
-195 -148 -149 -152 -157 0
-196 -148 -150 -152 -157 0
-196 -149 -150 -152 -158 0
-186 -145 -146 -153 -154 0
-190 -145 -147 -153 -154 0
-193 -145 -148 -153 -154 0
-195 -145 -149 -153 -154 0
-196 -145 -150 -153 -154 0
-190 -146 -147 -153 -155 0
-193 -146 -148 -153 -155 0
-195 -146 -149 -153 -155 0
-196 -146 -150 -153 -155 0
-193 -147 -148 -153 -156 0
-195 -147 -149 -153 -156 0
-196 -147 -150 -153 -156 0
-195 -148 -149 -153 -157 0
-196 -148 -150 -153 -157 0
-196 -149 -150 -153 -158 0
-190 -146 -147 -154 -155 0
-193 -146 -148 -154 -155 0
-195 -146 -149 -154 -155 0
-196 -146 -150 -154 -155 0
-193 -147 -148 -154 -156 0
-195 -147 -149 -154 -156 0
-196 -147 -150 -154 -156 0
-195 -148 -149 -154 -157 0
-196 -148 -150 -154 -157 0
-196 -149 -150 -154 -158 0
-193 -147 -148 -155 -156 0
-195 -147 -149 -155 -156 0
-196 -147 -150 -155 -156 0
-195 -148 -149 -155 -157 0
-196 -148 -150 -155 -157 0
-196 -149 -150 -155 -158 0
-195 -148 -149 -156 -157 0
-196 -148 -150 -156 -157 0
-196 -149 -150 -156 -158 0
-196 -149 -150 -157 -158 0
-186 -145 -146 -161 -162 0
-190 -145 -147 -161 -162 0
-193 -145 -148 -161 -162 0
-195 -145 -149 -161 -162 0
-196 -145 -150 -161 -162 0
-190 -146 -147 -161 -163 0
-193 -146 -148 -161 -163 0
-195 -146 -149 -161 -163 0
-196 -146 -150 -161 -163 0
-193 -147 -148 -161 -164 0
-195 -147 -149 -161 -164 0
-196 -147 -150 -161 -164 0
-195 -148 -149 -161 -165 0
-196 -148 -150 -161 -165 0
-196 -149 -150 -161 -166 0
-190 -146 -147 -162 -163 0
-193 -146 -148 -162 -163 0
-195 -146 -149 -162 -163 0
-196 -146 -150 -162 -163 0
-193 -147 -148 -162 -164 0
-195 -147 -149 -162 -164 0
-196 -147 -150 -162 -164 0
-195 -148 -149 -162 -165 0
-196 -148 -150 -162 -165 0
-196 -149 -150 -162 -166 0
-193 -147 -148 -163 -164 0
-195 -147 -149 -163 -164 0
-196 -147 -150 -163 -164 0
-195 -148 -149 -163 -165 0
-196 -148 -150 -163 -165 0
-196 -149 -150 -163 -166 0
-195 -148 -149 -164 -165 0
-196 -148 -150 -164 -165 0
-196 -149 -150 -164 -166 0
-196 -149 -150 -165 -166 0
-190 -146 -147 -169 -170 0
-193 -146 -148 -169 -170 0
-195 -146 -149 -169 -170 0
-196 -146 -150 -169 -170 0
-193 -147 -148 -169 -171 0
-195 -147 -149 -169 -171 0
-196 -147 -150 -169 -171 0
-195 -148 -149 -169 -172 0
-196 -148 -150 -169 -172 0
-196 -149 -150 -169 -173 0
-193 -147 -148 -170 -171 0
-195 -147 -149 -170 -171 0
-196 -147 -150 -170 -171 0
-195 -148 -149 -170 -172 0
-196 -148 -150 -170 -172 0
-196 -149 -150 -170 -173 0
-195 -148 -149 -171 -172 0
-196 -148 -150 -171 -172 0
-196 -149 -150 -171 -173 0
-196 -149 -150 -172 -173 0
-193 -147 -148 -176 -177 0
-195 -147 -149 -176 -177 0
-196 -147 -150 -176 -177 0
-195 -148 -149 -176 -178 0
-196 -148 -150 -176 -178 0
-196 -149 -150 -176 -179 0
-195 -148 -149 -177 -178 0
-196 -148 -150 -177 -178 0
-196 -149 -150 -177 -179 0
-196 -149 -150 -178 -179 0
-195 -148 -149 -182 -183 0
-196 -148 -150 -182 -183 0
-196 -149 -150 -182 -184 0
-196 -149 -150 -183 -184 0
-196 -149 -150 -187 -188 0
-186 -154 -155 -161 -162 0
-190 -154 -156 -161 -162 0
-193 -154 -157 -161 -162 0
-195 -154 -158 -161 -162 0
-196 -154 -159 -161 -162 0
-190 -155 -156 -161 -163 0
-193 -155 -157 -161 -163 0
-195 -155 -158 -161 -163 0
-196 -155 -159 -161 -163 0
-193 -156 -157 -161 -164 0
-195 -156 -158 -161 -164 0
-196 -156 -159 -161 -164 0
-195 -157 -158 -161 -165 0
-196 -157 -159 -161 -165 0
-196 -158 -159 -161 -166 0
-190 -155 -156 -162 -163 0
-193 -155 -157 -162 -163 0
-195 -155 -158 -162 -163 0
-196 -155 -159 -162 -163 0
-193 -156 -157 -162 -164 0
-195 -156 -158 -162 -164 0
-196 -156 -159 -162 -164 0
-195 -157 -158 -162 -165 0
-196 -157 -159 -162 -165 0
-196 -158 -159 -162 -166 0
-193 -156 -157 -163 -164 0
-195 -156 -158 -163 -164 0
-196 -156 -159 -163 -164 0
-195 -157 -158 -163 -165 0
-196 -157 -159 -163 -165 0
-196 -158 -159 -163 -166 0
-195 -157 -158 -164 -165 0
-196 -157 -159 -164 -165 0
-196 -158 -159 -164 -166 0
-196 -158 -159 -165 -166 0
-190 -155 -156 -169 -170 0
-193 -155 -157 -169 -170 0
-195 -155 -158 -169 -170 0
-196 -155 -159 -169 -170 0
-193 -156 -157 -169 -171 0
-195 -156 -158 -169 -171 0
-196 -156 -159 -169 -171 0
-195 -157 -158 -169 -172 0
-196 -157 -159 -169 -172 0
-196 -158 -159 -169 -173 0
-193 -156 -157 -170 -171 0
-195 -156 -158 -170 -171 0
-196 -156 -159 -170 -171 0
-195 -157 -158 -170 -172 0
-196 -157 -159 -170 -172 0
-196 -158 -159 -170 -173 0
-195 -157 -158 -171 -172 0
-196 -157 -159 -171 -172 0
-196 -158 -159 -171 -173 0
-196 -158 -159 -172 -173 0
-193 -156 -157 -176 -177 0
-195 -156 -158 -176 -177 0
-196 -156 -159 -176 -177 0
-195 -157 -158 -176 -178 0
-196 -157 -159 -176 -178 0
-196 -158 -159 -176 -179 0
-195 -157 -158 -177 -178 0
-196 -157 -159 -177 -178 0
-196 -158 -159 -177 -179 0
-196 -158 -159 -178 -179 0
-195 -157 -158 -182 -183 0
-196 -157 -159 -182 -183 0
-196 -158 -159 -182 -184 0
-196 -158 -159 -183 -184 0
-196 -158 -159 -187 -188 0
-190 -163 -164 -169 -170 0
-193 -163 -165 -169 -170 0
-195 -163 -166 -169 -170 0
-196 -163 -167 -169 -170 0
-193 -164 -165 -169 -171 0
-195 -164 -166 -169 -171 0
-196 -164 -167 -169 -171 0
-195 -165 -166 -169 -172 0
-196 -165 -167 -169 -172 0
-196 -166 -167 -169 -173 0
-193 -164 -165 -170 -171 0
-195 -164 -166 -170 -171 0
-196 -164 -167 -170 -171 0
-195 -165 -166 -170 -172 0
-196 -165 -167 -170 -172 0
-196 -166 -167 -170 -173 0
-195 -165 -166 -171 -172 0
-196 -165 -167 -171 -172 0
-196 -166 -167 -171 -173 0
-196 -166 -167 -172 -173 0
-193 -164 -165 -176 -177 0
-195 -164 -166 -176 -177 0
-196 -164 -167 -176 -177 0
-195 -165 -166 -176 -178 0
-196 -165 -167 -176 -178 0
-196 -166 -167 -176 -179 0
-195 -165 -166 -177 -178 0
-196 -165 -167 -177 -178 0
-196 -166 -167 -177 -179 0
-196 -166 -167 -178 -179 0
-195 -165 -166 -182 -183 0
-196 -165 -167 -182 -183 0
-196 -166 -167 -182 -184 0
-196 -166 -167 -183 -184 0
-196 -166 -167 -187 -188 0
-193 -171 -172 -176 -177 0
-195 -171 -173 -176 -177 0
-196 -171 -174 -176 -177 0
-195 -172 -173 -176 -178 0
-196 -172 -174 -176 -178 0
-196 -173 -174 -176 -179 0
-195 -172 -173 -177 -178 0
-196 -172 -174 -177 -178 0
-196 -173 -174 -177 -179 0
-196 -173 -174 -178 -179 0
-195 -172 -173 -182 -183 0
-196 -172 -174 -182 -183 0
-196 -173 -174 -182 -184 0
-196 -173 -174 -183 -184 0
-196 -173 -174 -187 -188 0
-195 -178 -179 -182 -183 0
-196 -178 -180 -182 -183 0
-196 -179 -180 -182 -184 0
-196 -179 -180 -183 -184 0
-196 -179 -180 -187 -188 0
-196 -184 -185 -187 -188 0
-1 92 0
-1 93 0
-1 -106 0
-2 92 0
-2 94 0
-2 -107 0
-3 92 0
-3 95 0
-3 -108 0
-4 92 0
-4 96 0
-4 -109 0
-5 92 0
-5 97 0
-5 -110 0
-6 92 0
-6 98 0
-6 -111 0
-7 92 0
-7 99 0
-7 -112 0
-8 92 0
-8 100 0
-8 -113 0
-9 92 0
-9 101 0
-9 -114 0
-10 92 0
-10 102 0
-10 -115 0
-11 92 0
-11 103 0
-11 -116 0
-12 92 0
-12 104 0
-12 -117 0
-13 92 0
-13 105 0
-13 -118 0
-14 93 0
-14 94 0
-14 -119 0
-15 93 0
-15 95 0
-15 -120 0
-16 93 0
-16 96 0
-16 -121 0
-17 93 0
-17 97 0
-17 -122 0
-18 93 0
-18 98 0
-18 -123 0
-19 93 0
-19 99 0
-19 -124 0
-20 93 0
-20 100 0
-20 -125 0
-21 93 0
-21 101 0
-21 -126 0
-22 93 0
-22 102 0
-22 -127 0
-23 93 0
-23 103 0
-23 -128 0
-24 93 0
-24 104 0
-24 -129 0
-25 93 0
-25 105 0
-25 -130 0
-26 94 0
-26 95 0
-26 -131 0
-27 94 0
-27 96 0
-27 -132 0
-28 94 0
-28 97 0
-28 -133 0
-29 94 0
-29 98 0
-29 -134 0
-30 94 0
-30 99 0
-30 -135 0
-31 94 0
-31 100 0
-31 -136 0
-32 94 0
-32 101 0
-32 -137 0
-33 94 0
-33 102 0
-33 -138 0
-34 94 0
-34 103 0
-34 -139 0
-35 94 0
-35 104 0
-35 -140 0
-36 94 0
-36 105 0
-36 -141 0
-37 95 0
-37 96 0
-37 -142 0
-38 95 0
-38 97 0
-38 -143 0
-39 95 0
-39 98 0
-39 -144 0
-40 95 0
-40 99 0
-40 -145 0
-41 95 0
-41 100 0
-41 -146 0
-42 95 0
-42 101 0
-42 -147 0
-43 95 0
-43 102 0
-43 -148 0
-44 95 0
-44 103 0
-44 -149 0
-45 95 0
-45 104 0
-45 -150 0
-46 95 0
-46 105 0
-46 -151 0
-47 96 0
-47 97 0
-47 -152 0
-48 96 0
-48 98 0
-48 -153 0
-49 96 0
-49 99 0
-49 -154 0
-50 96 0
-50 100 0
-50 -155 0
-51 96 0
-51 101 0
-51 -156 0
-52 96 0
-52 102 0
-52 -157 0
-53 96 0
-53 103 0
-53 -158 0
-54 96 0
-54 104 0
-54 -159 0
-55 96 0
-55 105 0
-55 -160 0
-56 97 0
-56 98 0
-56 -161 0
-57 97 0
-57 99 0
-57 -162 0
-58 97 0
-58 100 0
-58 -163 0
-59 97 0
-59 101 0
-59 -164 0
-60 97 0
-60 102 0
-60 -165 0
-61 97 0
-61 103 0
-61 -166 0
-62 97 0
-62 104 0
-62 -167 0
-63 97 0
-63 105 0
-63 -168 0
-64 98 0
-64 99 0
-64 -169 0
-65 98 0
-65 100 0
-65 -170 0
-66 98 0
-66 101 0
-66 -171 0
-67 98 0
-67 102 0
-67 -172 0
-68 98 0
-68 103 0
-68 -173 0
-69 98 0
-69 104 0
-69 -174 0
-70 98 0
-70 105 0
-70 -175 0
-71 99 0
-71 100 0
-71 -176 0
-72 99 0
-72 101 0
-72 -177 0
-73 99 0
-73 102 0
-73 -178 0
-74 99 0
-74 103 0
-74 -179 0
-75 99 0
-75 104 0
-75 -180 0
-76 99 0
-76 105 0
-76 -181 0
-77 100 0
-77 101 0
-77 -182 0
-78 100 0
-78 102 0
-78 -183 0
-79 100 0
-79 103 0
-79 -184 0
-80 100 0
-80 104 0
-80 -185 0
-81 100 0
-81 105 0
-81 -186 0
-82 101 0
-82 102 0
-82 -187 0
-83 101 0
-83 103 0
-83 -188 0
-84 101 0
-84 104 0
-84 -189 0
-85 101 0
-85 105 0
-85 -190 0
-86 102 0
-86 103 0
-86 -191 0
-87 102 0
-87 104 0
-87 -192 0
-88 102 0
-88 105 0
-88 -193 0
-89 103 0
-89 104 0
-89 -194 0
-90 103 0
-90 105 0
-90 -195 0
-91 104 0
-91 105 0
-91 -196 0
1 2 3 4 5 6 7 8 9 10 11 12 13 14 15 16 17 18 19 20 21 22 23 24 25 26 27 28 29 30 31 32 33 34 35 36 37 38 39 40 41 42 43 44 45 46 47 48 49 50 51 52 53 54 55 56 57 58 59 60 61 62 63 64 65 66 67 68 69 70 71 72 73 74 75 76 77 78 79 80 81 82 83 84 85 86 87 88 89 90 91 0
-1 -2 0
-1 -3 0
-1 -4 0
-1 -5 0
-1 -6 0
-1 -7 0
-1 -8 0
-1 -9 0
-1 -10 0
-1 -11 0
-1 -12 0
-1 -13 0
-1 -14 0
-1 -15 0
-1 -16 0
-1 -17 0
-1 -18 0
-1 -19 0
-1 -20 0
-1 -21 0
-1 -22 0
-1 -23 0
-1 -24 0
-1 -25 0
-1 -26 0
-1 -27 0
-1 -28 0
-1 -29 0
-1 -30 0
-1 -31 0
-1 -32 0
-1 -33 0
-1 -34 0
-1 -35 0
-1 -36 0
-1 -37 0
-1 -38 0
-1 -39 0
-1 -40 0
-1 -41 0
-1 -42 0
-1 -43 0
-1 -44 0
-1 -45 0
-1 -46 0
-1 -47 0
-1 -48 0
-1 -49 0
-1 -50 0
-1 -51 0
-1 -52 0
-1 -53 0
-1 -54 0
-1 -55 0
-1 -56 0
-1 -57 0
-1 -58 0
-1 -59 0
-1 -60 0
-1 -61 0
-1 -62 0
-1 -63 0
-1 -64 0
-1 -65 0
-1 -66 0
-1 -67 0
-1 -68 0
-1 -69 0
-1 -70 0
-1 -71 0
-1 -72 0
-1 -73 0
-1 -74 0
-1 -75 0
-1 -76 0
-1 -77 0
-1 -78 0
-1 -79 0
-1 -80 0
-1 -81 0
-1 -82 0
-1 -83 0
-1 -84 0
-1 -85 0
-1 -86 0
-1 -87 0
-1 -88 0
-1 -89 0
-1 -90 0
-1 -91 0
-2 -3 0
-2 -4 0
-2 -5 0
-2 -6 0
-2 -7 0
-2 -8 0
-2 -9 0
-2 -10 0
-2 -11 0
-2 -12 0
-2 -13 0
-2 -14 0
-2 -15 0
-2 -16 0
-2 -17 0
-2 -18 0
-2 -19 0
-2 -20 0
-2 -21 0
-2 -22 0
-2 -23 0
-2 -24 0
-2 -25 0
-2 -26 0
-2 -27 0
-2 -28 0
-2 -29 0
-2 -30 0
-2 -31 0
-2 -32 0
-2 -33 0
-2 -34 0
-2 -35 0
-2 -36 0
-2 -37 0
-2 -38 0
-2 -39 0
-2 -40 0
-2 -41 0
-2 -42 0
-2 -43 0
-2 -44 0
-2 -45 0
-2 -46 0
-2 -47 0
-2 -48 0
-2 -49 0
-2 -50 0
-2 -51 0
-2 -52 0
-2 -53 0
-2 -54 0
-2 -55 0
-2 -56 0
-2 -57 0
-2 -58 0
-2 -59 0
-2 -60 0
-2 -61 0
-2 -62 0
-2 -63 0
-2 -64 0
-2 -65 0
-2 -66 0
-2 -67 0
-2 -68 0
-2 -69 0
-2 -70 0
-2 -71 0
-2 -72 0
-2 -73 0
-2 -74 0
-2 -75 0
-2 -76 0
-2 -77 0
-2 -78 0
-2 -79 0
-2 -80 0
-2 -81 0
-2 -82 0
-2 -83 0
-2 -84 0
-2 -85 0
-2 -86 0
-2 -87 0
-2 -88 0
-2 -89 0
-2 -90 0
-2 -91 0
-3 -4 0
-3 -5 0
-3 -6 0
-3 -7 0
-3 -8 0
-3 -9 0
-3 -10 0
-3 -11 0
-3 -12 0
-3 -13 0
-3 -14 0
-3 -15 0
-3 -16 0
-3 -17 0
-3 -18 0
-3 -19 0
-3 -20 0
-3 -21 0
-3 -22 0
-3 -23 0
-3 -24 0
-3 -25 0
-3 -26 0
-3 -27 0
-3 -28 0
-3 -29 0
-3 -30 0
-3 -31 0
-3 -32 0
-3 -33 0
-3 -34 0
-3 -35 0
-3 -36 0
-3 -37 0
-3 -38 0
-3 -39 0
-3 -40 0
-3 -41 0
-3 -42 0
-3 -43 0
-3 -44 0
-3 -45 0
-3 -46 0
-3 -47 0
-3 -48 0
-3 -49 0
-3 -50 0
-3 -51 0
-3 -52 0
-3 -53 0
-3 -54 0
-3 -55 0
-3 -56 0
-3 -57 0
-3 -58 0
-3 -59 0
-3 -60 0
-3 -61 0
-3 -62 0
-3 -63 0
-3 -64 0
-3 -65 0
-3 -66 0
-3 -67 0
-3 -68 0
-3 -69 0
-3 -70 0
-3 -71 0
-3 -72 0
-3 -73 0
-3 -74 0
-3 -75 0
-3 -76 0
-3 -77 0
-3 -78 0
-3 -79 0
-3 -80 0
-3 -81 0
-3 -82 0
-3 -83 0
-3 -84 0
-3 -85 0
-3 -86 0
-3 -87 0
-3 -88 0
-3 -89 0
-3 -90 0
-3 -91 0
-4 -5 0
-4 -6 0
-4 -7 0
-4 -8 0
-4 -9 0
-4 -10 0
-4 -11 0
-4 -12 0
-4 -13 0
-4 -14 0
-4 -15 0
-4 -16 0
-4 -17 0
-4 -18 0
-4 -19 0
-4 -20 0
-4 -21 0
-4 -22 0
-4 -23 0
-4 -24 0
-4 -25 0
-4 -26 0
-4 -27 0
-4 -28 0
-4 -29 0
-4 -30 0
-4 -31 0
-4 -32 0
-4 -33 0
-4 -34 0
-4 -35 0
-4 -36 0
-4 -37 0
-4 -38 0
-4 -39 0
-4 -40 0
-4 -41 0
-4 -42 0
-4 -43 0
-4 -44 0
-4 -45 0
-4 -46 0
-4 -47 0
-4 -48 0
-4 -49 0
-4 -50 0
-4 -51 0
-4 -52 0
-4 -53 0
-4 -54 0
-4 -55 0
-4 -56 0
-4 -57 0
-4 -58 0
-4 -59 0
-4 -60 0
-4 -61 0
-4 -62 0
-4 -63 0
-4 -64 0
-4 -65 0
-4 -66 0
-4 -67 0
-4 -68 0
-4 -69 0
-4 -70 0
-4 -71 0
-4 -72 0
-4 -73 0
-4 -74 0
-4 -75 0
-4 -76 0
-4 -77 0
-4 -78 0
-4 -79 0
-4 -80 0
-4 -81 0
-4 -82 0
-4 -83 0
-4 -84 0
-4 -85 0
-4 -86 0
-4 -87 0
-4 -88 0
-4 -89 0
-4 -90 0
-4 -91 0
-5 -6 0
-5 -7 0
-5 -8 0
-5 -9 0
-5 -10 0
-5 -11 0
-5 -12 0
-5 -13 0
-5 -14 0
-5 -15 0
-5 -16 0
-5 -17 0
-5 -18 0
-5 -19 0
-5 -20 0
-5 -21 0
-5 -22 0
-5 -23 0
-5 -24 0
-5 -25 0
-5 -26 0
-5 -27 0
-5 -28 0
-5 -29 0
-5 -30 0
-5 -31 0
-5 -32 0
-5 -33 0
-5 -34 0
-5 -35 0
-5 -36 0
-5 -37 0
-5 -38 0
-5 -39 0
-5 -40 0
-5 -41 0
-5 -42 0
-5 -43 0
-5 -44 0
-5 -45 0
-5 -46 0
-5 -47 0
-5 -48 0
-5 -49 0
-5 -50 0
-5 -51 0
-5 -52 0
-5 -53 0
-5 -54 0
-5 -55 0
-5 -56 0
-5 -57 0
-5 -58 0
-5 -59 0
-5 -60 0
-5 -61 0
-5 -62 0
-5 -63 0
-5 -64 0
-5 -65 0
-5 -66 0
-5 -67 0
-5 -68 0
-5 -69 0
-5 -70 0
-5 -71 0
-5 -72 0
-5 -73 0
-5 -74 0
-5 -75 0
-5 -76 0
-5 -77 0
-5 -78 0
-5 -79 0
-5 -80 0
-5 -81 0
-5 -82 0
-5 -83 0
-5 -84 0
-5 -85 0
-5 -86 0
-5 -87 0
-5 -88 0
-5 -89 0
-5 -90 0
-5 -91 0
-6 -7 0
-6 -8 0
-6 -9 0
-6 -10 0
-6 -11 0
-6 -12 0
-6 -13 0
-6 -14 0
-6 -15 0
-6 -16 0
-6 -17 0
-6 -18 0
-6 -19 0
-6 -20 0
-6 -21 0
-6 -22 0
-6 -23 0
-6 -24 0
-6 -25 0
-6 -26 0
-6 -27 0
-6 -28 0
-6 -29 0
-6 -30 0
-6 -31 0
-6 -32 0
-6 -33 0
-6 -34 0
-6 -35 0
-6 -36 0
-6 -37 0
-6 -38 0
-6 -39 0
-6 -40 0
-6 -41 0
-6 -42 0
-6 -43 0
-6 -44 0
-6 -45 0
-6 -46 0
-6 -47 0
-6 -48 0
-6 -49 0
-6 -50 0
-6 -51 0
-6 -52 0
-6 -53 0
-6 -54 0
-6 -55 0
-6 -56 0
-6 -57 0
-6 -58 0
-6 -59 0
-6 -60 0
-6 -61 0
-6 -62 0
-6 -63 0
-6 -64 0
-6 -65 0
-6 -66 0
-6 -67 0
-6 -68 0
-6 -69 0
-6 -70 0
-6 -71 0
-6 -72 0
-6 -73 0
-6 -74 0
-6 -75 0
-6 -76 0
-6 -77 0
-6 -78 0
-6 -79 0
-6 -80 0
-6 -81 0
-6 -82 0
-6 -83 0
-6 -84 0
-6 -85 0
-6 -86 0
-6 -87 0
-6 -88 0
-6 -89 0
-6 -90 0
-6 -91 0
-7 -8 0
-7 -9 0
-7 -10 0
-7 -11 0
-7 -12 0
-7 -13 0
-7 -14 0
-7 -15 0
-7 -16 0
-7 -17 0
-7 -18 0
-7 -19 0
-7 -20 0
-7 -21 0
-7 -22 0
-7 -23 0
-7 -24 0
-7 -25 0
-7 -26 0
-7 -27 0
-7 -28 0
-7 -29 0
-7 -30 0
-7 -31 0
-7 -32 0
-7 -33 0
-7 -34 0
-7 -35 0
-7 -36 0
-7 -37 0
-7 -38 0
-7 -39 0
-7 -40 0
-7 -41 0
-7 -42 0
-7 -43 0
-7 -44 0
-7 -45 0
-7 -46 0
-7 -47 0
-7 -48 0
-7 -49 0
-7 -50 0
-7 -51 0
-7 -52 0
-7 -53 0
-7 -54 0
-7 -55 0
-7 -56 0
-7 -57 0
-7 -58 0
-7 -59 0
-7 -60 0
-7 -61 0
-7 -62 0
-7 -63 0
-7 -64 0
-7 -65 0
-7 -66 0
-7 -67 0
-7 -68 0
-7 -69 0
-7 -70 0
-7 -71 0
-7 -72 0
-7 -73 0
-7 -74 0
-7 -75 0
-7 -76 0
-7 -77 0
-7 -78 0
-7 -79 0
-7 -80 0
-7 -81 0
-7 -82 0
-7 -83 0
-7 -84 0
-7 -85 0
-7 -86 0
-7 -87 0
-7 -88 0
-7 -89 0
-7 -90 0
-7 -91 0
-8 -9 0
-8 -10 0
-8 -11 0
-8 -12 0
-8 -13 0
-8 -14 0
-8 -15 0
-8 -16 0
-8 -17 0
-8 -18 0
-8 -19 0
-8 -20 0
-8 -21 0
-8 -22 0
-8 -23 0
-8 -24 0
-8 -25 0
-8 -26 0
-8 -27 0
-8 -28 0
-8 -29 0
-8 -30 0
-8 -31 0
-8 -32 0
-8 -33 0
-8 -34 0
-8 -35 0
-8 -36 0
-8 -37 0
-8 -38 0
-8 -39 0
-8 -40 0
-8 -41 0
-8 -42 0
-8 -43 0
-8 -44 0
-8 -45 0
-8 -46 0
-8 -47 0
-8 -48 0
-8 -49 0
-8 -50 0
-8 -51 0
-8 -52 0
-8 -53 0
-8 -54 0
-8 -55 0
-8 -56 0
-8 -57 0
-8 -58 0
-8 -59 0
-8 -60 0
-8 -61 0
-8 -62 0
-8 -63 0
-8 -64 0
-8 -65 0
-8 -66 0
-8 -67 0
-8 -68 0
-8 -69 0
-8 -70 0
-8 -71 0
-8 -72 0
-8 -73 0
-8 -74 0
-8 -75 0
-8 -76 0
-8 -77 0
-8 -78 0
-8 -79 0
-8 -80 0
-8 -81 0
-8 -82 0
-8 -83 0
-8 -84 0
-8 -85 0
-8 -86 0
-8 -87 0
-8 -88 0
-8 -89 0
-8 -90 0
-8 -91 0
-9 -10 0
-9 -11 0
-9 -12 0
-9 -13 0
-9 -14 0
-9 -15 0
-9 -16 0
-9 -17 0
-9 -18 0
-9 -19 0
-9 -20 0
-9 -21 0
-9 -22 0
-9 -23 0
-9 -24 0
-9 -25 0
-9 -26 0
-9 -27 0
-9 -28 0
-9 -29 0
-9 -30 0
-9 -31 0
-9 -32 0
-9 -33 0
-9 -34 0
-9 -35 0
-9 -36 0
-9 -37 0
-9 -38 0
-9 -39 0
-9 -40 0
-9 -41 0
-9 -42 0
-9 -43 0
-9 -44 0
-9 -45 0
-9 -46 0
-9 -47 0
-9 -48 0
-9 -49 0
-9 -50 0
-9 -51 0
-9 -52 0
-9 -53 0
-9 -54 0
-9 -55 0
-9 -56 0
-9 -57 0
-9 -58 0
-9 -59 0
-9 -60 0
-9 -61 0
-9 -62 0
-9 -63 0
-9 -64 0
-9 -65 0
-9 -66 0
-9 -67 0
-9 -68 0
-9 -69 0
-9 -70 0
-9 -71 0
-9 -72 0
-9 -73 0
-9 -74 0
-9 -75 0
-9 -76 0
-9 -77 0
-9 -78 0
-9 -79 0
-9 -80 0
-9 -81 0
-9 -82 0
-9 -83 0
-9 -84 0
-9 -85 0
-9 -86 0
-9 -87 0
-9 -88 0
-9 -89 0
-9 -90 0
-9 -91 0
-10 -11 0
-10 -12 0
-10 -13 0
-10 -14 0
-10 -15 0
-10 -16 0
-10 -17 0
-10 -18 0
-10 -19 0
-10 -20 0
-10 -21 0
-10 -22 0
-10 -23 0
-10 -24 0
-10 -25 0
-10 -26 0
-10 -27 0
-10 -28 0
-10 -29 0
-10 -30 0
-10 -31 0
-10 -32 0
-10 -33 0
-10 -34 0
-10 -35 0
-10 -36 0
-10 -37 0
-10 -38 0
-10 -39 0
-10 -40 0
-10 -41 0
-10 -42 0
-10 -43 0
-10 -44 0
-10 -45 0
-10 -46 0
-10 -47 0
-10 -48 0
-10 -49 0
-10 -50 0
-10 -51 0
-10 -52 0
-10 -53 0
-10 -54 0
-10 -55 0
-10 -56 0
-10 -57 0
-10 -58 0
-10 -59 0
-10 -60 0
-10 -61 0
-10 -62 0
-10 -63 0
-10 -64 0
-10 -65 0
-10 -66 0
-10 -67 0
-10 -68 0
-10 -69 0
-10 -70 0
-10 -71 0
-10 -72 0
-10 -73 0
-10 -74 0
-10 -75 0
-10 -76 0
-10 -77 0
-10 -78 0
-10 -79 0
-10 -80 0
-10 -81 0
-10 -82 0
-10 -83 0
-10 -84 0
-10 -85 0
-10 -86 0
-10 -87 0
-10 -88 0
-10 -89 0
-10 -90 0
-10 -91 0
-11 -12 0
-11 -13 0
-11 -14 0
-11 -15 0
-11 -16 0
-11 -17 0
-11 -18 0
-11 -19 0
-11 -20 0
-11 -21 0
-11 -22 0
-11 -23 0
-11 -24 0
-11 -25 0
-11 -26 0
-11 -27 0
-11 -28 0
-11 -29 0
-11 -30 0
-11 -31 0
-11 -32 0
-11 -33 0
-11 -34 0
-11 -35 0
-11 -36 0
-11 -37 0
-11 -38 0
-11 -39 0
-11 -40 0
-11 -41 0
-11 -42 0
-11 -43 0
-11 -44 0
-11 -45 0
-11 -46 0
-11 -47 0
-11 -48 0
-11 -49 0
-11 -50 0
-11 -51 0
-11 -52 0
-11 -53 0
-11 -54 0
-11 -55 0
-11 -56 0
-11 -57 0
-11 -58 0
-11 -59 0
-11 -60 0
-11 -61 0
-11 -62 0
-11 -63 0
-11 -64 0
-11 -65 0
-11 -66 0
-11 -67 0
-11 -68 0
-11 -69 0
-11 -70 0
-11 -71 0
-11 -72 0
-11 -73 0
-11 -74 0
-11 -75 0
-11 -76 0
-11 -77 0
-11 -78 0
-11 -79 0
-11 -80 0
-11 -81 0
-11 -82 0
-11 -83 0
-11 -84 0
-11 -85 0
-11 -86 0
-11 -87 0
-11 -88 0
-11 -89 0
-11 -90 0
-11 -91 0
-12 -13 0
-12 -14 0
-12 -15 0
-12 -16 0
-12 -17 0
-12 -18 0
-12 -19 0
-12 -20 0
-12 -21 0
-12 -22 0
-12 -23 0
-12 -24 0
-12 -25 0
-12 -26 0
-12 -27 0
-12 -28 0
-12 -29 0
-12 -30 0
-12 -31 0
-12 -32 0
-12 -33 0
-12 -34 0
-12 -35 0
-12 -36 0
-12 -37 0
-12 -38 0
-12 -39 0
-12 -40 0
-12 -41 0
-12 -42 0
-12 -43 0
-12 -44 0
-12 -45 0
-12 -46 0
-12 -47 0
-12 -48 0
-12 -49 0
-12 -50 0
-12 -51 0
-12 -52 0
-12 -53 0
-12 -54 0
-12 -55 0
-12 -56 0
-12 -57 0
-12 -58 0
-12 -59 0
-12 -60 0
-12 -61 0
-12 -62 0
-12 -63 0
-12 -64 0
-12 -65 0
-12 -66 0
-12 -67 0
-12 -68 0
-12 -69 0
-12 -70 0
-12 -71 0
-12 -72 0
-12 -73 0
-12 -74 0
-12 -75 0
-12 -76 0
-12 -77 0
-12 -78 0
-12 -79 0
-12 -80 0
-12 -81 0
-12 -82 0
-12 -83 0
-12 -84 0
-12 -85 0
-12 -86 0
-12 -87 0
-12 -88 0
-12 -89 0
-12 -90 0
-12 -91 0
-13 -14 0
-13 -15 0
-13 -16 0
-13 -17 0
-13 -18 0
-13 -19 0
-13 -20 0
-13 -21 0
-13 -22 0
-13 -23 0
-13 -24 0
-13 -25 0
-13 -26 0
-13 -27 0
-13 -28 0
-13 -29 0
-13 -30 0
-13 -31 0
-13 -32 0
-13 -33 0
-13 -34 0
-13 -35 0
-13 -36 0
-13 -37 0
-13 -38 0
-13 -39 0
-13 -40 0
-13 -41 0
-13 -42 0
-13 -43 0
-13 -44 0
-13 -45 0
-13 -46 0
-13 -47 0
-13 -48 0
-13 -49 0
-13 -50 0
-13 -51 0
-13 -52 0
-13 -53 0
-13 -54 0
-13 -55 0
-13 -56 0
-13 -57 0
-13 -58 0
-13 -59 0
-13 -60 0
-13 -61 0
-13 -62 0
-13 -63 0
-13 -64 0
-13 -65 0
-13 -66 0
-13 -67 0
-13 -68 0
-13 -69 0
-13 -70 0
-13 -71 0
-13 -72 0
-13 -73 0
-13 -74 0
-13 -75 0
-13 -76 0
-13 -77 0
-13 -78 0
-13 -79 0
-13 -80 0
-13 -81 0
-13 -82 0
-13 -83 0
-13 -84 0
-13 -85 0
-13 -86 0
-13 -87 0
-13 -88 0
-13 -89 0
-13 -90 0
-13 -91 0
-14 -15 0
-14 -16 0
-14 -17 0
-14 -18 0
-14 -19 0
-14 -20 0
-14 -21 0
-14 -22 0
-14 -23 0
-14 -24 0
-14 -25 0
-14 -26 0
-14 -27 0
-14 -28 0
-14 -29 0
-14 -30 0
-14 -31 0
-14 -32 0
-14 -33 0
-14 -34 0
-14 -35 0
-14 -36 0
-14 -37 0
-14 -38 0
-14 -39 0
-14 -40 0
-14 -41 0
-14 -42 0
-14 -43 0
-14 -44 0
-14 -45 0
-14 -46 0
-14 -47 0
-14 -48 0
-14 -49 0
-14 -50 0
-14 -51 0
-14 -52 0
-14 -53 0
-14 -54 0
-14 -55 0
-14 -56 0
-14 -57 0
-14 -58 0
-14 -59 0
-14 -60 0
-14 -61 0
-14 -62 0
-14 -63 0
-14 -64 0
-14 -65 0
-14 -66 0
-14 -67 0
-14 -68 0
-14 -69 0
-14 -70 0
-14 -71 0
-14 -72 0
-14 -73 0
-14 -74 0
-14 -75 0
-14 -76 0
-14 -77 0
-14 -78 0
-14 -79 0
-14 -80 0
-14 -81 0
-14 -82 0
-14 -83 0
-14 -84 0
-14 -85 0
-14 -86 0
-14 -87 0
-14 -88 0
-14 -89 0
-14 -90 0
-14 -91 0
-15 -16 0
-15 -17 0
-15 -18 0
-15 -19 0
-15 -20 0
-15 -21 0
-15 -22 0
-15 -23 0
-15 -24 0
-15 -25 0
-15 -26 0
-15 -27 0
-15 -28 0
-15 -29 0
-15 -30 0
-15 -31 0
-15 -32 0
-15 -33 0
-15 -34 0
-15 -35 0
-15 -36 0
-15 -37 0
-15 -38 0
-15 -39 0
-15 -40 0
-15 -41 0
-15 -42 0
-15 -43 0
-15 -44 0
-15 -45 0
-15 -46 0
-15 -47 0
-15 -48 0
-15 -49 0
-15 -50 0
-15 -51 0
-15 -52 0
-15 -53 0
-15 -54 0
-15 -55 0
-15 -56 0
-15 -57 0
-15 -58 0
-15 -59 0
-15 -60 0
-15 -61 0
-15 -62 0
-15 -63 0
-15 -64 0
-15 -65 0
-15 -66 0
-15 -67 0
-15 -68 0
-15 -69 0
-15 -70 0
-15 -71 0
-15 -72 0
-15 -73 0
-15 -74 0
-15 -75 0
-15 -76 0
-15 -77 0
-15 -78 0
-15 -79 0
-15 -80 0
-15 -81 0
-15 -82 0
-15 -83 0
-15 -84 0
-15 -85 0
-15 -86 0
-15 -87 0
-15 -88 0
-15 -89 0
-15 -90 0
-15 -91 0
-16 -17 0
-16 -18 0
-16 -19 0
-16 -20 0
-16 -21 0
-16 -22 0
-16 -23 0
-16 -24 0
-16 -25 0
-16 -26 0
-16 -27 0
-16 -28 0
-16 -29 0
-16 -30 0
-16 -31 0
-16 -32 0
-16 -33 0
-16 -34 0
-16 -35 0
-16 -36 0
-16 -37 0
-16 -38 0
-16 -39 0
-16 -40 0
-16 -41 0
-16 -42 0
-16 -43 0
-16 -44 0
-16 -45 0
-16 -46 0
-16 -47 0
-16 -48 0
-16 -49 0
-16 -50 0
-16 -51 0
-16 -52 0
-16 -53 0
-16 -54 0
-16 -55 0
-16 -56 0
-16 -57 0
-16 -58 0
-16 -59 0
-16 -60 0
-16 -61 0
-16 -62 0
-16 -63 0
-16 -64 0
-16 -65 0
-16 -66 0
-16 -67 0
-16 -68 0
-16 -69 0
-16 -70 0
-16 -71 0
-16 -72 0
-16 -73 0
-16 -74 0
-16 -75 0
-16 -76 0
-16 -77 0
-16 -78 0
-16 -79 0
-16 -80 0
-16 -81 0
-16 -82 0
-16 -83 0
-16 -84 0
-16 -85 0
-16 -86 0
-16 -87 0
-16 -88 0
-16 -89 0
-16 -90 0
-16 -91 0
-17 -18 0
-17 -19 0
-17 -20 0
-17 -21 0
-17 -22 0
-17 -23 0
-17 -24 0
-17 -25 0
-17 -26 0
-17 -27 0
-17 -28 0
-17 -29 0
-17 -30 0
-17 -31 0
-17 -32 0
-17 -33 0
-17 -34 0
-17 -35 0
-17 -36 0
-17 -37 0
-17 -38 0
-17 -39 0
-17 -40 0
-17 -41 0
-17 -42 0
-17 -43 0
-17 -44 0
-17 -45 0
-17 -46 0
-17 -47 0
-17 -48 0
-17 -49 0
-17 -50 0
-17 -51 0
-17 -52 0
-17 -53 0
-17 -54 0
-17 -55 0
-17 -56 0
-17 -57 0
-17 -58 0
-17 -59 0
-17 -60 0
-17 -61 0
-17 -62 0
-17 -63 0
-17 -64 0
-17 -65 0
-17 -66 0
-17 -67 0
-17 -68 0
-17 -69 0
-17 -70 0
-17 -71 0
-17 -72 0
-17 -73 0
-17 -74 0
-17 -75 0
-17 -76 0
-17 -77 0
-17 -78 0
-17 -79 0
-17 -80 0
-17 -81 0
-17 -82 0
-17 -83 0
-17 -84 0
-17 -85 0
-17 -86 0
-17 -87 0
-17 -88 0
-17 -89 0
-17 -90 0
-17 -91 0
-18 -19 0
-18 -20 0
-18 -21 0
-18 -22 0
-18 -23 0
-18 -24 0
-18 -25 0
-18 -26 0
-18 -27 0
-18 -28 0
-18 -29 0
-18 -30 0
-18 -31 0
-18 -32 0
-18 -33 0
-18 -34 0
-18 -35 0
-18 -36 0
-18 -37 0
-18 -38 0
-18 -39 0
-18 -40 0
-18 -41 0
-18 -42 0
-18 -43 0
-18 -44 0
-18 -45 0
-18 -46 0
-18 -47 0
-18 -48 0
-18 -49 0
-18 -50 0
-18 -51 0
-18 -52 0
-18 -53 0
-18 -54 0
-18 -55 0
-18 -56 0
-18 -57 0
-18 -58 0
-18 -59 0
-18 -60 0
-18 -61 0
-18 -62 0
-18 -63 0
-18 -64 0
-18 -65 0
-18 -66 0
-18 -67 0
-18 -68 0
-18 -69 0
-18 -70 0
-18 -71 0
-18 -72 0
-18 -73 0
-18 -74 0
-18 -75 0
-18 -76 0
-18 -77 0
-18 -78 0
-18 -79 0
-18 -80 0
-18 -81 0
-18 -82 0
-18 -83 0
-18 -84 0
-18 -85 0
-18 -86 0
-18 -87 0
-18 -88 0
-18 -89 0
-18 -90 0
-18 -91 0
-19 -20 0
-19 -21 0
-19 -22 0
-19 -23 0
-19 -24 0
-19 -25 0
-19 -26 0
-19 -27 0
-19 -28 0
-19 -29 0
-19 -30 0
-19 -31 0
-19 -32 0
-19 -33 0
-19 -34 0
-19 -35 0
-19 -36 0
-19 -37 0
-19 -38 0
-19 -39 0
-19 -40 0
-19 -41 0
-19 -42 0
-19 -43 0
-19 -44 0
-19 -45 0
-19 -46 0
-19 -47 0
-19 -48 0
-19 -49 0
-19 -50 0
-19 -51 0
-19 -52 0
-19 -53 0
-19 -54 0
-19 -55 0
-19 -56 0
-19 -57 0
-19 -58 0
-19 -59 0
-19 -60 0
-19 -61 0
-19 -62 0
-19 -63 0
-19 -64 0
-19 -65 0
-19 -66 0
-19 -67 0
-19 -68 0
-19 -69 0
-19 -70 0
-19 -71 0
-19 -72 0
-19 -73 0
-19 -74 0
-19 -75 0
-19 -76 0
-19 -77 0
-19 -78 0
-19 -79 0
-19 -80 0
-19 -81 0
-19 -82 0
-19 -83 0
-19 -84 0
-19 -85 0
-19 -86 0
-19 -87 0
-19 -88 0
-19 -89 0
-19 -90 0
-19 -91 0
-20 -21 0
-20 -22 0
-20 -23 0
-20 -24 0
-20 -25 0
-20 -26 0
-20 -27 0
-20 -28 0
-20 -29 0
-20 -30 0
-20 -31 0
-20 -32 0
-20 -33 0
-20 -34 0
-20 -35 0
-20 -36 0
-20 -37 0
-20 -38 0
-20 -39 0
-20 -40 0
-20 -41 0
-20 -42 0
-20 -43 0
-20 -44 0
-20 -45 0
-20 -46 0
-20 -47 0
-20 -48 0
-20 -49 0
-20 -50 0
-20 -51 0
-20 -52 0
-20 -53 0
-20 -54 0
-20 -55 0
-20 -56 0
-20 -57 0
-20 -58 0
-20 -59 0
-20 -60 0
-20 -61 0
-20 -62 0
-20 -63 0
-20 -64 0
-20 -65 0
-20 -66 0
-20 -67 0
-20 -68 0
-20 -69 0
-20 -70 0
-20 -71 0
-20 -72 0
-20 -73 0
-20 -74 0
-20 -75 0
-20 -76 0
-20 -77 0
-20 -78 0
-20 -79 0
-20 -80 0
-20 -81 0
-20 -82 0
-20 -83 0
-20 -84 0
-20 -85 0
-20 -86 0
-20 -87 0
-20 -88 0
-20 -89 0
-20 -90 0
-20 -91 0
-21 -22 0
-21 -23 0
-21 -24 0
-21 -25 0
-21 -26 0
-21 -27 0
-21 -28 0
-21 -29 0
-21 -30 0
-21 -31 0
-21 -32 0
-21 -33 0
-21 -34 0
-21 -35 0
-21 -36 0
-21 -37 0
-21 -38 0
-21 -39 0
-21 -40 0
-21 -41 0
-21 -42 0
-21 -43 0
-21 -44 0
-21 -45 0
-21 -46 0
-21 -47 0
-21 -48 0
-21 -49 0
-21 -50 0
-21 -51 0
-21 -52 0
-21 -53 0
-21 -54 0
-21 -55 0
-21 -56 0
-21 -57 0
-21 -58 0
-21 -59 0
-21 -60 0
-21 -61 0
-21 -62 0
-21 -63 0
-21 -64 0
-21 -65 0
-21 -66 0
-21 -67 0
-21 -68 0
-21 -69 0
-21 -70 0
-21 -71 0
-21 -72 0
-21 -73 0
-21 -74 0
-21 -75 0
-21 -76 0
-21 -77 0
-21 -78 0
-21 -79 0
-21 -80 0
-21 -81 0
-21 -82 0
-21 -83 0
-21 -84 0
-21 -85 0
-21 -86 0
-21 -87 0
-21 -88 0
-21 -89 0
-21 -90 0
-21 -91 0
-22 -23 0
-22 -24 0
-22 -25 0
-22 -26 0
-22 -27 0
-22 -28 0
-22 -29 0
-22 -30 0
-22 -31 0
-22 -32 0
-22 -33 0
-22 -34 0
-22 -35 0
-22 -36 0
-22 -37 0
-22 -38 0
-22 -39 0
-22 -40 0
-22 -41 0
-22 -42 0
-22 -43 0
-22 -44 0
-22 -45 0
-22 -46 0
-22 -47 0
-22 -48 0
-22 -49 0
-22 -50 0
-22 -51 0
-22 -52 0
-22 -53 0
-22 -54 0
-22 -55 0
-22 -56 0
-22 -57 0
-22 -58 0
-22 -59 0
-22 -60 0
-22 -61 0
-22 -62 0
-22 -63 0
-22 -64 0
-22 -65 0
-22 -66 0
-22 -67 0
-22 -68 0
-22 -69 0
-22 -70 0
-22 -71 0
-22 -72 0
-22 -73 0
-22 -74 0
-22 -75 0
-22 -76 0
-22 -77 0
-22 -78 0
-22 -79 0
-22 -80 0
-22 -81 0
-22 -82 0
-22 -83 0
-22 -84 0
-22 -85 0
-22 -86 0
-22 -87 0
-22 -88 0
-22 -89 0
-22 -90 0
-22 -91 0
-23 -24 0
-23 -25 0
-23 -26 0
-23 -27 0
-23 -28 0
-23 -29 0
-23 -30 0
-23 -31 0
-23 -32 0
-23 -33 0
-23 -34 0
-23 -35 0
-23 -36 0
-23 -37 0
-23 -38 0
-23 -39 0
-23 -40 0
-23 -41 0
-23 -42 0
-23 -43 0
-23 -44 0
-23 -45 0
-23 -46 0
-23 -47 0
-23 -48 0
-23 -49 0
-23 -50 0
-23 -51 0
-23 -52 0
-23 -53 0
-23 -54 0
-23 -55 0
-23 -56 0
-23 -57 0
-23 -58 0
-23 -59 0
-23 -60 0
-23 -61 0
-23 -62 0
-23 -63 0
-23 -64 0
-23 -65 0
-23 -66 0
-23 -67 0
-23 -68 0
-23 -69 0
-23 -70 0
-23 -71 0
-23 -72 0
-23 -73 0
-23 -74 0
-23 -75 0
-23 -76 0
-23 -77 0
-23 -78 0
-23 -79 0
-23 -80 0
-23 -81 0
-23 -82 0
-23 -83 0
-23 -84 0
-23 -85 0
-23 -86 0
-23 -87 0
-23 -88 0
-23 -89 0
-23 -90 0
-23 -91 0
-24 -25 0
-24 -26 0
-24 -27 0
-24 -28 0
-24 -29 0
-24 -30 0
-24 -31 0
-24 -32 0
-24 -33 0
-24 -34 0
-24 -35 0
-24 -36 0
-24 -37 0
-24 -38 0
-24 -39 0
-24 -40 0
-24 -41 0
-24 -42 0
-24 -43 0
-24 -44 0
-24 -45 0
-24 -46 0
-24 -47 0
-24 -48 0
-24 -49 0
-24 -50 0
-24 -51 0
-24 -52 0
-24 -53 0
-24 -54 0
-24 -55 0
-24 -56 0
-24 -57 0
-24 -58 0
-24 -59 0
-24 -60 0
-24 -61 0
-24 -62 0
-24 -63 0
-24 -64 0
-24 -65 0
-24 -66 0
-24 -67 0
-24 -68 0
-24 -69 0
-24 -70 0
-24 -71 0
-24 -72 0
-24 -73 0
-24 -74 0
-24 -75 0
-24 -76 0
-24 -77 0
-24 -78 0
-24 -79 0
-24 -80 0
-24 -81 0
-24 -82 0
-24 -83 0
-24 -84 0
-24 -85 0
-24 -86 0
-24 -87 0
-24 -88 0
-24 -89 0
-24 -90 0
-24 -91 0
-25 -26 0
-25 -27 0
-25 -28 0
-25 -29 0
-25 -30 0
-25 -31 0
-25 -32 0
-25 -33 0
-25 -34 0
-25 -35 0
-25 -36 0
-25 -37 0
-25 -38 0
-25 -39 0
-25 -40 0
-25 -41 0
-25 -42 0
-25 -43 0
-25 -44 0
-25 -45 0
-25 -46 0
-25 -47 0
-25 -48 0
-25 -49 0
-25 -50 0
-25 -51 0
-25 -52 0
-25 -53 0
-25 -54 0
-25 -55 0
-25 -56 0
-25 -57 0
-25 -58 0
-25 -59 0
-25 -60 0
-25 -61 0
-25 -62 0
-25 -63 0
-25 -64 0
-25 -65 0
-25 -66 0
-25 -67 0
-25 -68 0
-25 -69 0
-25 -70 0
-25 -71 0
-25 -72 0
-25 -73 0
-25 -74 0
-25 -75 0
-25 -76 0
-25 -77 0
-25 -78 0
-25 -79 0
-25 -80 0
-25 -81 0
-25 -82 0
-25 -83 0
-25 -84 0
-25 -85 0
-25 -86 0
-25 -87 0
-25 -88 0
-25 -89 0
-25 -90 0
-25 -91 0
-26 -27 0
-26 -28 0
-26 -29 0
-26 -30 0
-26 -31 0
-26 -32 0
-26 -33 0
-26 -34 0
-26 -35 0
-26 -36 0
-26 -37 0
-26 -38 0
-26 -39 0
-26 -40 0
-26 -41 0
-26 -42 0
-26 -43 0
-26 -44 0
-26 -45 0
-26 -46 0
-26 -47 0
-26 -48 0
-26 -49 0
-26 -50 0
-26 -51 0
-26 -52 0
-26 -53 0
-26 -54 0
-26 -55 0
-26 -56 0
-26 -57 0
-26 -58 0
-26 -59 0
-26 -60 0
-26 -61 0
-26 -62 0
-26 -63 0
-26 -64 0
-26 -65 0
-26 -66 0
-26 -67 0
-26 -68 0
-26 -69 0
-26 -70 0
-26 -71 0
-26 -72 0
-26 -73 0
-26 -74 0
-26 -75 0
-26 -76 0
-26 -77 0
-26 -78 0
-26 -79 0
-26 -80 0
-26 -81 0
-26 -82 0
-26 -83 0
-26 -84 0
-26 -85 0
-26 -86 0
-26 -87 0
-26 -88 0
-26 -89 0
-26 -90 0
-26 -91 0
-27 -28 0
-27 -29 0
-27 -30 0
-27 -31 0
-27 -32 0
-27 -33 0
-27 -34 0
-27 -35 0
-27 -36 0
-27 -37 0
-27 -38 0
-27 -39 0
-27 -40 0
-27 -41 0
-27 -42 0
-27 -43 0
-27 -44 0
-27 -45 0
-27 -46 0
-27 -47 0
-27 -48 0
-27 -49 0
-27 -50 0
-27 -51 0
-27 -52 0
-27 -53 0
-27 -54 0
-27 -55 0
-27 -56 0
-27 -57 0
-27 -58 0
-27 -59 0
-27 -60 0
-27 -61 0
-27 -62 0
-27 -63 0
-27 -64 0
-27 -65 0
-27 -66 0
-27 -67 0
-27 -68 0
-27 -69 0
-27 -70 0
-27 -71 0
-27 -72 0
-27 -73 0
-27 -74 0
-27 -75 0
-27 -76 0
-27 -77 0
-27 -78 0
-27 -79 0
-27 -80 0
-27 -81 0
-27 -82 0
-27 -83 0
-27 -84 0
-27 -85 0
-27 -86 0
-27 -87 0
-27 -88 0
-27 -89 0
-27 -90 0
-27 -91 0
-28 -29 0
-28 -30 0
-28 -31 0
-28 -32 0
-28 -33 0
-28 -34 0
-28 -35 0
-28 -36 0
-28 -37 0
-28 -38 0
-28 -39 0
-28 -40 0
-28 -41 0
-28 -42 0
-28 -43 0
-28 -44 0
-28 -45 0
-28 -46 0
-28 -47 0
-28 -48 0
-28 -49 0
-28 -50 0
-28 -51 0
-28 -52 0
-28 -53 0
-28 -54 0
-28 -55 0
-28 -56 0
-28 -57 0
-28 -58 0
-28 -59 0
-28 -60 0
-28 -61 0
-28 -62 0
-28 -63 0
-28 -64 0
-28 -65 0
-28 -66 0
-28 -67 0
-28 -68 0
-28 -69 0
-28 -70 0
-28 -71 0
-28 -72 0
-28 -73 0
-28 -74 0
-28 -75 0
-28 -76 0
-28 -77 0
-28 -78 0
-28 -79 0
-28 -80 0
-28 -81 0
-28 -82 0
-28 -83 0
-28 -84 0
-28 -85 0
-28 -86 0
-28 -87 0
-28 -88 0
-28 -89 0
-28 -90 0
-28 -91 0
-29 -30 0
-29 -31 0
-29 -32 0
-29 -33 0
-29 -34 0
-29 -35 0
-29 -36 0
-29 -37 0
-29 -38 0
-29 -39 0
-29 -40 0
-29 -41 0
-29 -42 0
-29 -43 0
-29 -44 0
-29 -45 0
-29 -46 0
-29 -47 0
-29 -48 0
-29 -49 0
-29 -50 0
-29 -51 0
-29 -52 0
-29 -53 0
-29 -54 0
-29 -55 0
-29 -56 0
-29 -57 0
-29 -58 0
-29 -59 0
-29 -60 0
-29 -61 0
-29 -62 0
-29 -63 0
-29 -64 0
-29 -65 0
-29 -66 0
-29 -67 0
-29 -68 0
-29 -69 0
-29 -70 0
-29 -71 0
-29 -72 0
-29 -73 0
-29 -74 0
-29 -75 0
-29 -76 0
-29 -77 0
-29 -78 0
-29 -79 0
-29 -80 0
-29 -81 0
-29 -82 0
-29 -83 0
-29 -84 0
-29 -85 0
-29 -86 0
-29 -87 0
-29 -88 0
-29 -89 0
-29 -90 0
-29 -91 0
-30 -31 0
-30 -32 0
-30 -33 0
-30 -34 0
-30 -35 0
-30 -36 0
-30 -37 0
-30 -38 0
-30 -39 0
-30 -40 0
-30 -41 0
-30 -42 0
-30 -43 0
-30 -44 0
-30 -45 0
-30 -46 0
-30 -47 0
-30 -48 0
-30 -49 0
-30 -50 0
-30 -51 0
-30 -52 0
-30 -53 0
-30 -54 0
-30 -55 0
-30 -56 0
-30 -57 0
-30 -58 0
-30 -59 0
-30 -60 0
-30 -61 0
-30 -62 0
-30 -63 0
-30 -64 0
-30 -65 0
-30 -66 0
-30 -67 0
-30 -68 0
-30 -69 0
-30 -70 0
-30 -71 0
-30 -72 0
-30 -73 0
-30 -74 0
-30 -75 0
-30 -76 0
-30 -77 0
-30 -78 0
-30 -79 0
-30 -80 0
-30 -81 0
-30 -82 0
-30 -83 0
-30 -84 0
-30 -85 0
-30 -86 0
-30 -87 0
-30 -88 0
-30 -89 0
-30 -90 0
-30 -91 0
-31 -32 0
-31 -33 0
-31 -34 0
-31 -35 0
-31 -36 0
-31 -37 0
-31 -38 0
-31 -39 0
-31 -40 0
-31 -41 0
-31 -42 0
-31 -43 0
-31 -44 0
-31 -45 0
-31 -46 0
-31 -47 0
-31 -48 0
-31 -49 0
-31 -50 0
-31 -51 0
-31 -52 0
-31 -53 0
-31 -54 0
-31 -55 0
-31 -56 0
-31 -57 0
-31 -58 0
-31 -59 0
-31 -60 0
-31 -61 0
-31 -62 0
-31 -63 0
-31 -64 0
-31 -65 0
-31 -66 0
-31 -67 0
-31 -68 0
-31 -69 0
-31 -70 0
-31 -71 0
-31 -72 0
-31 -73 0
-31 -74 0
-31 -75 0
-31 -76 0
-31 -77 0
-31 -78 0
-31 -79 0
-31 -80 0
-31 -81 0
-31 -82 0
-31 -83 0
-31 -84 0
-31 -85 0
-31 -86 0
-31 -87 0
-31 -88 0
-31 -89 0
-31 -90 0
-31 -91 0
-32 -33 0
-32 -34 0
-32 -35 0
-32 -36 0
-32 -37 0
-32 -38 0
-32 -39 0
-32 -40 0
-32 -41 0
-32 -42 0
-32 -43 0
-32 -44 0
-32 -45 0
-32 -46 0
-32 -47 0
-32 -48 0
-32 -49 0
-32 -50 0
-32 -51 0
-32 -52 0
-32 -53 0
-32 -54 0
-32 -55 0
-32 -56 0
-32 -57 0
-32 -58 0
-32 -59 0
-32 -60 0
-32 -61 0
-32 -62 0
-32 -63 0
-32 -64 0
-32 -65 0
-32 -66 0
-32 -67 0
-32 -68 0
-32 -69 0
-32 -70 0
-32 -71 0
-32 -72 0
-32 -73 0
-32 -74 0
-32 -75 0
-32 -76 0
-32 -77 0
-32 -78 0
-32 -79 0
-32 -80 0
-32 -81 0
-32 -82 0
-32 -83 0
-32 -84 0
-32 -85 0
-32 -86 0
-32 -87 0
-32 -88 0
-32 -89 0
-32 -90 0
-32 -91 0
-33 -34 0
-33 -35 0
-33 -36 0
-33 -37 0
-33 -38 0
-33 -39 0
-33 -40 0
-33 -41 0
-33 -42 0
-33 -43 0
-33 -44 0
-33 -45 0
-33 -46 0
-33 -47 0
-33 -48 0
-33 -49 0
-33 -50 0
-33 -51 0
-33 -52 0
-33 -53 0
-33 -54 0
-33 -55 0
-33 -56 0
-33 -57 0
-33 -58 0
-33 -59 0
-33 -60 0
-33 -61 0
-33 -62 0
-33 -63 0
-33 -64 0
-33 -65 0
-33 -66 0
-33 -67 0
-33 -68 0
-33 -69 0
-33 -70 0
-33 -71 0
-33 -72 0
-33 -73 0
-33 -74 0
-33 -75 0
-33 -76 0
-33 -77 0
-33 -78 0
-33 -79 0
-33 -80 0
-33 -81 0
-33 -82 0
-33 -83 0
-33 -84 0
-33 -85 0
-33 -86 0
-33 -87 0
-33 -88 0
-33 -89 0
-33 -90 0
-33 -91 0
-34 -35 0
-34 -36 0
-34 -37 0
-34 -38 0
-34 -39 0
-34 -40 0
-34 -41 0
-34 -42 0
-34 -43 0
-34 -44 0
-34 -45 0
-34 -46 0
-34 -47 0
-34 -48 0
-34 -49 0
-34 -50 0
-34 -51 0
-34 -52 0
-34 -53 0
-34 -54 0
-34 -55 0
-34 -56 0
-34 -57 0
-34 -58 0
-34 -59 0
-34 -60 0
-34 -61 0
-34 -62 0
-34 -63 0
-34 -64 0
-34 -65 0
-34 -66 0
-34 -67 0
-34 -68 0
-34 -69 0
-34 -70 0
-34 -71 0
-34 -72 0
-34 -73 0
-34 -74 0
-34 -75 0
-34 -76 0
-34 -77 0
-34 -78 0
-34 -79 0
-34 -80 0
-34 -81 0
-34 -82 0
-34 -83 0
-34 -84 0
-34 -85 0
-34 -86 0
-34 -87 0
-34 -88 0
-34 -89 0
-34 -90 0
-34 -91 0
-35 -36 0
-35 -37 0
-35 -38 0
-35 -39 0
-35 -40 0
-35 -41 0
-35 -42 0
-35 -43 0
-35 -44 0
-35 -45 0
-35 -46 0
-35 -47 0
-35 -48 0
-35 -49 0
-35 -50 0
-35 -51 0
-35 -52 0
-35 -53 0
-35 -54 0
-35 -55 0
-35 -56 0
-35 -57 0
-35 -58 0
-35 -59 0
-35 -60 0
-35 -61 0
-35 -62 0
-35 -63 0
-35 -64 0
-35 -65 0
-35 -66 0
-35 -67 0
-35 -68 0
-35 -69 0
-35 -70 0
-35 -71 0
-35 -72 0
-35 -73 0
-35 -74 0
-35 -75 0
-35 -76 0
-35 -77 0
-35 -78 0
-35 -79 0
-35 -80 0
-35 -81 0
-35 -82 0
-35 -83 0
-35 -84 0
-35 -85 0
-35 -86 0
-35 -87 0
-35 -88 0
-35 -89 0
-35 -90 0
-35 -91 0
-36 -37 0
-36 -38 0
-36 -39 0
-36 -40 0
-36 -41 0
-36 -42 0
-36 -43 0
-36 -44 0
-36 -45 0
-36 -46 0
-36 -47 0
-36 -48 0
-36 -49 0
-36 -50 0
-36 -51 0
-36 -52 0
-36 -53 0
-36 -54 0
-36 -55 0
-36 -56 0
-36 -57 0
-36 -58 0
-36 -59 0
-36 -60 0
-36 -61 0
-36 -62 0
-36 -63 0
-36 -64 0
-36 -65 0
-36 -66 0
-36 -67 0
-36 -68 0
-36 -69 0
-36 -70 0
-36 -71 0
-36 -72 0
-36 -73 0
-36 -74 0
-36 -75 0
-36 -76 0
-36 -77 0
-36 -78 0
-36 -79 0
-36 -80 0
-36 -81 0
-36 -82 0
-36 -83 0
-36 -84 0
-36 -85 0
-36 -86 0
-36 -87 0
-36 -88 0
-36 -89 0
-36 -90 0
-36 -91 0
-37 -38 0
-37 -39 0
-37 -40 0
-37 -41 0
-37 -42 0
-37 -43 0
-37 -44 0
-37 -45 0
-37 -46 0
-37 -47 0
-37 -48 0
-37 -49 0
-37 -50 0
-37 -51 0
-37 -52 0
-37 -53 0
-37 -54 0
-37 -55 0
-37 -56 0
-37 -57 0
-37 -58 0
-37 -59 0
-37 -60 0
-37 -61 0
-37 -62 0
-37 -63 0
-37 -64 0
-37 -65 0
-37 -66 0
-37 -67 0
-37 -68 0
-37 -69 0
-37 -70 0
-37 -71 0
-37 -72 0
-37 -73 0
-37 -74 0
-37 -75 0
-37 -76 0
-37 -77 0
-37 -78 0
-37 -79 0
-37 -80 0
-37 -81 0
-37 -82 0
-37 -83 0
-37 -84 0
-37 -85 0
-37 -86 0
-37 -87 0
-37 -88 0
-37 -89 0
-37 -90 0
-37 -91 0
-38 -39 0
-38 -40 0
-38 -41 0
-38 -42 0
-38 -43 0
-38 -44 0
-38 -45 0
-38 -46 0
-38 -47 0
-38 -48 0
-38 -49 0
-38 -50 0
-38 -51 0
-38 -52 0
-38 -53 0
-38 -54 0
-38 -55 0
-38 -56 0
-38 -57 0
-38 -58 0
-38 -59 0
-38 -60 0
-38 -61 0
-38 -62 0
-38 -63 0
-38 -64 0
-38 -65 0
-38 -66 0
-38 -67 0
-38 -68 0
-38 -69 0
-38 -70 0
-38 -71 0
-38 -72 0
-38 -73 0
-38 -74 0
-38 -75 0
-38 -76 0
-38 -77 0
-38 -78 0
-38 -79 0
-38 -80 0
-38 -81 0
-38 -82 0
-38 -83 0
-38 -84 0
-38 -85 0
-38 -86 0
-38 -87 0
-38 -88 0
-38 -89 0
-38 -90 0
-38 -91 0
-39 -40 0
-39 -41 0
-39 -42 0
-39 -43 0
-39 -44 0
-39 -45 0
-39 -46 0
-39 -47 0
-39 -48 0
-39 -49 0
-39 -50 0
-39 -51 0
-39 -52 0
-39 -53 0
-39 -54 0
-39 -55 0
-39 -56 0
-39 -57 0
-39 -58 0
-39 -59 0
-39 -60 0
-39 -61 0
-39 -62 0
-39 -63 0
-39 -64 0
-39 -65 0
-39 -66 0
-39 -67 0
-39 -68 0
-39 -69 0
-39 -70 0
-39 -71 0
-39 -72 0
-39 -73 0
-39 -74 0
-39 -75 0
-39 -76 0
-39 -77 0
-39 -78 0
-39 -79 0
-39 -80 0
-39 -81 0
-39 -82 0
-39 -83 0
-39 -84 0
-39 -85 0
-39 -86 0
-39 -87 0
-39 -88 0
-39 -89 0
-39 -90 0
-39 -91 0
-40 -41 0
-40 -42 0
-40 -43 0
-40 -44 0
-40 -45 0
-40 -46 0
-40 -47 0
-40 -48 0
-40 -49 0
-40 -50 0
-40 -51 0
-40 -52 0
-40 -53 0
-40 -54 0
-40 -55 0
-40 -56 0
-40 -57 0
-40 -58 0
-40 -59 0
-40 -60 0
-40 -61 0
-40 -62 0
-40 -63 0
-40 -64 0
-40 -65 0
-40 -66 0
-40 -67 0
-40 -68 0
-40 -69 0
-40 -70 0
-40 -71 0
-40 -72 0
-40 -73 0
-40 -74 0
-40 -75 0
-40 -76 0
-40 -77 0
-40 -78 0
-40 -79 0
-40 -80 0
-40 -81 0
-40 -82 0
-40 -83 0
-40 -84 0
-40 -85 0
-40 -86 0
-40 -87 0
-40 -88 0
-40 -89 0
-40 -90 0
-40 -91 0
-41 -42 0
-41 -43 0
-41 -44 0
-41 -45 0
-41 -46 0
-41 -47 0
-41 -48 0
-41 -49 0
-41 -50 0
-41 -51 0
-41 -52 0
-41 -53 0
-41 -54 0
-41 -55 0
-41 -56 0
-41 -57 0
-41 -58 0
-41 -59 0
-41 -60 0
-41 -61 0
-41 -62 0
-41 -63 0
-41 -64 0
-41 -65 0
-41 -66 0
-41 -67 0
-41 -68 0
-41 -69 0
-41 -70 0
-41 -71 0
-41 -72 0
-41 -73 0
-41 -74 0
-41 -75 0
-41 -76 0
-41 -77 0
-41 -78 0
-41 -79 0
-41 -80 0
-41 -81 0
-41 -82 0
-41 -83 0
-41 -84 0
-41 -85 0
-41 -86 0
-41 -87 0
-41 -88 0
-41 -89 0
-41 -90 0
-41 -91 0
-42 -43 0
-42 -44 0
-42 -45 0
-42 -46 0
-42 -47 0
-42 -48 0
-42 -49 0
-42 -50 0
-42 -51 0
-42 -52 0
-42 -53 0
-42 -54 0
-42 -55 0
-42 -56 0
-42 -57 0
-42 -58 0
-42 -59 0
-42 -60 0
-42 -61 0
-42 -62 0
-42 -63 0
-42 -64 0
-42 -65 0
-42 -66 0
-42 -67 0
-42 -68 0
-42 -69 0
-42 -70 0
-42 -71 0
-42 -72 0
-42 -73 0
-42 -74 0
-42 -75 0
-42 -76 0
-42 -77 0
-42 -78 0
-42 -79 0
-42 -80 0
-42 -81 0
-42 -82 0
-42 -83 0
-42 -84 0
-42 -85 0
-42 -86 0
-42 -87 0
-42 -88 0
-42 -89 0
-42 -90 0
-42 -91 0
-43 -44 0
-43 -45 0
-43 -46 0
-43 -47 0
-43 -48 0
-43 -49 0
-43 -50 0
-43 -51 0
-43 -52 0
-43 -53 0
-43 -54 0
-43 -55 0
-43 -56 0
-43 -57 0
-43 -58 0
-43 -59 0
-43 -60 0
-43 -61 0
-43 -62 0
-43 -63 0
-43 -64 0
-43 -65 0
-43 -66 0
-43 -67 0
-43 -68 0
-43 -69 0
-43 -70 0
-43 -71 0
-43 -72 0
-43 -73 0
-43 -74 0
-43 -75 0
-43 -76 0
-43 -77 0
-43 -78 0
-43 -79 0
-43 -80 0
-43 -81 0
-43 -82 0
-43 -83 0
-43 -84 0
-43 -85 0
-43 -86 0
-43 -87 0
-43 -88 0
-43 -89 0
-43 -90 0
-43 -91 0
-44 -45 0
-44 -46 0
-44 -47 0
-44 -48 0
-44 -49 0
-44 -50 0
-44 -51 0
-44 -52 0
-44 -53 0
-44 -54 0
-44 -55 0
-44 -56 0
-44 -57 0
-44 -58 0
-44 -59 0
-44 -60 0
-44 -61 0
-44 -62 0
-44 -63 0
-44 -64 0
-44 -65 0
-44 -66 0
-44 -67 0
-44 -68 0
-44 -69 0
-44 -70 0
-44 -71 0
-44 -72 0
-44 -73 0
-44 -74 0
-44 -75 0
-44 -76 0
-44 -77 0
-44 -78 0
-44 -79 0
-44 -80 0
-44 -81 0
-44 -82 0
-44 -83 0
-44 -84 0
-44 -85 0
-44 -86 0
-44 -87 0
-44 -88 0
-44 -89 0
-44 -90 0
-44 -91 0
-45 -46 0
-45 -47 0
-45 -48 0
-45 -49 0
-45 -50 0
-45 -51 0
-45 -52 0
-45 -53 0
-45 -54 0
-45 -55 0
-45 -56 0
-45 -57 0
-45 -58 0
-45 -59 0
-45 -60 0
-45 -61 0
-45 -62 0
-45 -63 0
-45 -64 0
-45 -65 0
-45 -66 0
-45 -67 0
-45 -68 0
-45 -69 0
-45 -70 0
-45 -71 0
-45 -72 0
-45 -73 0
-45 -74 0
-45 -75 0
-45 -76 0
-45 -77 0
-45 -78 0
-45 -79 0
-45 -80 0
-45 -81 0
-45 -82 0
-45 -83 0
-45 -84 0
-45 -85 0
-45 -86 0
-45 -87 0
-45 -88 0
-45 -89 0
-45 -90 0
-45 -91 0
-46 -47 0
-46 -48 0
-46 -49 0
-46 -50 0
-46 -51 0
-46 -52 0
-46 -53 0
-46 -54 0
-46 -55 0
-46 -56 0
-46 -57 0
-46 -58 0
-46 -59 0
-46 -60 0
-46 -61 0
-46 -62 0
-46 -63 0
-46 -64 0
-46 -65 0
-46 -66 0
-46 -67 0
-46 -68 0
-46 -69 0
-46 -70 0
-46 -71 0
-46 -72 0
-46 -73 0
-46 -74 0
-46 -75 0
-46 -76 0
-46 -77 0
-46 -78 0
-46 -79 0
-46 -80 0
-46 -81 0
-46 -82 0
-46 -83 0
-46 -84 0
-46 -85 0
-46 -86 0
-46 -87 0
-46 -88 0
-46 -89 0
-46 -90 0
-46 -91 0
-47 -48 0
-47 -49 0
-47 -50 0
-47 -51 0
-47 -52 0
-47 -53 0
-47 -54 0
-47 -55 0
-47 -56 0
-47 -57 0
-47 -58 0
-47 -59 0
-47 -60 0
-47 -61 0
-47 -62 0
-47 -63 0
-47 -64 0
-47 -65 0
-47 -66 0
-47 -67 0
-47 -68 0
-47 -69 0
-47 -70 0
-47 -71 0
-47 -72 0
-47 -73 0
-47 -74 0
-47 -75 0
-47 -76 0
-47 -77 0
-47 -78 0
-47 -79 0
-47 -80 0
-47 -81 0
-47 -82 0
-47 -83 0
-47 -84 0
-47 -85 0
-47 -86 0
-47 -87 0
-47 -88 0
-47 -89 0
-47 -90 0
-47 -91 0
-48 -49 0
-48 -50 0
-48 -51 0
-48 -52 0
-48 -53 0
-48 -54 0
-48 -55 0
-48 -56 0
-48 -57 0
-48 -58 0
-48 -59 0
-48 -60 0
-48 -61 0
-48 -62 0
-48 -63 0
-48 -64 0
-48 -65 0
-48 -66 0
-48 -67 0
-48 -68 0
-48 -69 0
-48 -70 0
-48 -71 0
-48 -72 0
-48 -73 0
-48 -74 0
-48 -75 0
-48 -76 0
-48 -77 0
-48 -78 0
-48 -79 0
-48 -80 0
-48 -81 0
-48 -82 0
-48 -83 0
-48 -84 0
-48 -85 0
-48 -86 0
-48 -87 0
-48 -88 0
-48 -89 0
-48 -90 0
-48 -91 0
-49 -50 0
-49 -51 0
-49 -52 0
-49 -53 0
-49 -54 0
-49 -55 0
-49 -56 0
-49 -57 0
-49 -58 0
-49 -59 0
-49 -60 0
-49 -61 0
-49 -62 0
-49 -63 0
-49 -64 0
-49 -65 0
-49 -66 0
-49 -67 0
-49 -68 0
-49 -69 0
-49 -70 0
-49 -71 0
-49 -72 0
-49 -73 0
-49 -74 0
-49 -75 0
-49 -76 0
-49 -77 0
-49 -78 0
-49 -79 0
-49 -80 0
-49 -81 0
-49 -82 0
-49 -83 0
-49 -84 0
-49 -85 0
-49 -86 0
-49 -87 0
-49 -88 0
-49 -89 0
-49 -90 0
-49 -91 0
-50 -51 0
-50 -52 0
-50 -53 0
-50 -54 0
-50 -55 0
-50 -56 0
-50 -57 0
-50 -58 0
-50 -59 0
-50 -60 0
-50 -61 0
-50 -62 0
-50 -63 0
-50 -64 0
-50 -65 0
-50 -66 0
-50 -67 0
-50 -68 0
-50 -69 0
-50 -70 0
-50 -71 0
-50 -72 0
-50 -73 0
-50 -74 0
-50 -75 0
-50 -76 0
-50 -77 0
-50 -78 0
-50 -79 0
-50 -80 0
-50 -81 0
-50 -82 0
-50 -83 0
-50 -84 0
-50 -85 0
-50 -86 0
-50 -87 0
-50 -88 0
-50 -89 0
-50 -90 0
-50 -91 0
-51 -52 0
-51 -53 0
-51 -54 0
-51 -55 0
-51 -56 0
-51 -57 0
-51 -58 0
-51 -59 0
-51 -60 0
-51 -61 0
-51 -62 0
-51 -63 0
-51 -64 0
-51 -65 0
-51 -66 0
-51 -67 0
-51 -68 0
-51 -69 0
-51 -70 0
-51 -71 0
-51 -72 0
-51 -73 0
-51 -74 0
-51 -75 0
-51 -76 0
-51 -77 0
-51 -78 0
-51 -79 0
-51 -80 0
-51 -81 0
-51 -82 0
-51 -83 0
-51 -84 0
-51 -85 0
-51 -86 0
-51 -87 0
-51 -88 0
-51 -89 0
-51 -90 0
-51 -91 0
-52 -53 0
-52 -54 0
-52 -55 0
-52 -56 0
-52 -57 0
-52 -58 0
-52 -59 0
-52 -60 0
-52 -61 0
-52 -62 0
-52 -63 0
-52 -64 0
-52 -65 0
-52 -66 0
-52 -67 0
-52 -68 0
-52 -69 0
-52 -70 0
-52 -71 0
-52 -72 0
-52 -73 0
-52 -74 0
-52 -75 0
-52 -76 0
-52 -77 0
-52 -78 0
-52 -79 0
-52 -80 0
-52 -81 0
-52 -82 0
-52 -83 0
-52 -84 0
-52 -85 0
-52 -86 0
-52 -87 0
-52 -88 0
-52 -89 0
-52 -90 0
-52 -91 0
-53 -54 0
-53 -55 0
-53 -56 0
-53 -57 0
-53 -58 0
-53 -59 0
-53 -60 0
-53 -61 0
-53 -62 0
-53 -63 0
-53 -64 0
-53 -65 0
-53 -66 0
-53 -67 0
-53 -68 0
-53 -69 0
-53 -70 0
-53 -71 0
-53 -72 0
-53 -73 0
-53 -74 0
-53 -75 0
-53 -76 0
-53 -77 0
-53 -78 0
-53 -79 0
-53 -80 0
-53 -81 0
-53 -82 0
-53 -83 0
-53 -84 0
-53 -85 0
-53 -86 0
-53 -87 0
-53 -88 0
-53 -89 0
-53 -90 0
-53 -91 0
-54 -55 0
-54 -56 0
-54 -57 0
-54 -58 0
-54 -59 0
-54 -60 0
-54 -61 0
-54 -62 0
-54 -63 0
-54 -64 0
-54 -65 0
-54 -66 0
-54 -67 0
-54 -68 0
-54 -69 0
-54 -70 0
-54 -71 0
-54 -72 0
-54 -73 0
-54 -74 0
-54 -75 0
-54 -76 0
-54 -77 0
-54 -78 0
-54 -79 0
-54 -80 0
-54 -81 0
-54 -82 0
-54 -83 0
-54 -84 0
-54 -85 0
-54 -86 0
-54 -87 0
-54 -88 0
-54 -89 0
-54 -90 0
-54 -91 0
-55 -56 0
-55 -57 0
-55 -58 0
-55 -59 0
-55 -60 0
-55 -61 0
-55 -62 0
-55 -63 0
-55 -64 0
-55 -65 0
-55 -66 0
-55 -67 0
-55 -68 0
-55 -69 0
-55 -70 0
-55 -71 0
-55 -72 0
-55 -73 0
-55 -74 0
-55 -75 0
-55 -76 0
-55 -77 0
-55 -78 0
-55 -79 0
-55 -80 0
-55 -81 0
-55 -82 0
-55 -83 0
-55 -84 0
-55 -85 0
-55 -86 0
-55 -87 0
-55 -88 0
-55 -89 0
-55 -90 0
-55 -91 0
-56 -57 0
-56 -58 0
-56 -59 0
-56 -60 0
-56 -61 0
-56 -62 0
-56 -63 0
-56 -64 0
-56 -65 0
-56 -66 0
-56 -67 0
-56 -68 0
-56 -69 0
-56 -70 0
-56 -71 0
-56 -72 0
-56 -73 0
-56 -74 0
-56 -75 0
-56 -76 0
-56 -77 0
-56 -78 0
-56 -79 0
-56 -80 0
-56 -81 0
-56 -82 0
-56 -83 0
-56 -84 0
-56 -85 0
-56 -86 0
-56 -87 0
-56 -88 0
-56 -89 0
-56 -90 0
-56 -91 0
-57 -58 0
-57 -59 0
-57 -60 0
-57 -61 0
-57 -62 0
-57 -63 0
-57 -64 0
-57 -65 0
-57 -66 0
-57 -67 0
-57 -68 0
-57 -69 0
-57 -70 0
-57 -71 0
-57 -72 0
-57 -73 0
-57 -74 0
-57 -75 0
-57 -76 0
-57 -77 0
-57 -78 0
-57 -79 0
-57 -80 0
-57 -81 0
-57 -82 0
-57 -83 0
-57 -84 0
-57 -85 0
-57 -86 0
-57 -87 0
-57 -88 0
-57 -89 0
-57 -90 0
-57 -91 0
-58 -59 0
-58 -60 0
-58 -61 0
-58 -62 0
-58 -63 0
-58 -64 0
-58 -65 0
-58 -66 0
-58 -67 0
-58 -68 0
-58 -69 0
-58 -70 0
-58 -71 0
-58 -72 0
-58 -73 0
-58 -74 0
-58 -75 0
-58 -76 0
-58 -77 0
-58 -78 0
-58 -79 0
-58 -80 0
-58 -81 0
-58 -82 0
-58 -83 0
-58 -84 0
-58 -85 0
-58 -86 0
-58 -87 0
-58 -88 0
-58 -89 0
-58 -90 0
-58 -91 0
-59 -60 0
-59 -61 0
-59 -62 0
-59 -63 0
-59 -64 0
-59 -65 0
-59 -66 0
-59 -67 0
-59 -68 0
-59 -69 0
-59 -70 0
-59 -71 0
-59 -72 0
-59 -73 0
-59 -74 0
-59 -75 0
-59 -76 0
-59 -77 0
-59 -78 0
-59 -79 0
-59 -80 0
-59 -81 0
-59 -82 0
-59 -83 0
-59 -84 0
-59 -85 0
-59 -86 0
-59 -87 0
-59 -88 0
-59 -89 0
-59 -90 0
-59 -91 0
-60 -61 0
-60 -62 0
-60 -63 0
-60 -64 0
-60 -65 0
-60 -66 0
-60 -67 0
-60 -68 0
-60 -69 0
-60 -70 0
-60 -71 0
-60 -72 0
-60 -73 0
-60 -74 0
-60 -75 0
-60 -76 0
-60 -77 0
-60 -78 0
-60 -79 0
-60 -80 0
-60 -81 0
-60 -82 0
-60 -83 0
-60 -84 0
-60 -85 0
-60 -86 0
-60 -87 0
-60 -88 0
-60 -89 0
-60 -90 0
-60 -91 0
-61 -62 0
-61 -63 0
-61 -64 0
-61 -65 0
-61 -66 0
-61 -67 0
-61 -68 0
-61 -69 0
-61 -70 0
-61 -71 0
-61 -72 0
-61 -73 0
-61 -74 0
-61 -75 0
-61 -76 0
-61 -77 0
-61 -78 0
-61 -79 0
-61 -80 0
-61 -81 0
-61 -82 0
-61 -83 0
-61 -84 0
-61 -85 0
-61 -86 0
-61 -87 0
-61 -88 0
-61 -89 0
-61 -90 0
-61 -91 0
-62 -63 0
-62 -64 0
-62 -65 0
-62 -66 0
-62 -67 0
-62 -68 0
-62 -69 0
-62 -70 0
-62 -71 0
-62 -72 0
-62 -73 0
-62 -74 0
-62 -75 0
-62 -76 0
-62 -77 0
-62 -78 0
-62 -79 0
-62 -80 0
-62 -81 0
-62 -82 0
-62 -83 0
-62 -84 0
-62 -85 0
-62 -86 0
-62 -87 0
-62 -88 0
-62 -89 0
-62 -90 0
-62 -91 0
-63 -64 0
-63 -65 0
-63 -66 0
-63 -67 0
-63 -68 0
-63 -69 0
-63 -70 0
-63 -71 0
-63 -72 0
-63 -73 0
-63 -74 0
-63 -75 0
-63 -76 0
-63 -77 0
-63 -78 0
-63 -79 0
-63 -80 0
-63 -81 0
-63 -82 0
-63 -83 0
-63 -84 0
-63 -85 0
-63 -86 0
-63 -87 0
-63 -88 0
-63 -89 0
-63 -90 0
-63 -91 0
-64 -65 0
-64 -66 0
-64 -67 0
-64 -68 0
-64 -69 0
-64 -70 0
-64 -71 0
-64 -72 0
-64 -73 0
-64 -74 0
-64 -75 0
-64 -76 0
-64 -77 0
-64 -78 0
-64 -79 0
-64 -80 0
-64 -81 0
-64 -82 0
-64 -83 0
-64 -84 0
-64 -85 0
-64 -86 0
-64 -87 0
-64 -88 0
-64 -89 0
-64 -90 0
-64 -91 0
-65 -66 0
-65 -67 0
-65 -68 0
-65 -69 0
-65 -70 0
-65 -71 0
-65 -72 0
-65 -73 0
-65 -74 0
-65 -75 0
-65 -76 0
-65 -77 0
-65 -78 0
-65 -79 0
-65 -80 0
-65 -81 0
-65 -82 0
-65 -83 0
-65 -84 0
-65 -85 0
-65 -86 0
-65 -87 0
-65 -88 0
-65 -89 0
-65 -90 0
-65 -91 0
-66 -67 0
-66 -68 0
-66 -69 0
-66 -70 0
-66 -71 0
-66 -72 0
-66 -73 0
-66 -74 0
-66 -75 0
-66 -76 0
-66 -77 0
-66 -78 0
-66 -79 0
-66 -80 0
-66 -81 0
-66 -82 0
-66 -83 0
-66 -84 0
-66 -85 0
-66 -86 0
-66 -87 0
-66 -88 0
-66 -89 0
-66 -90 0
-66 -91 0
-67 -68 0
-67 -69 0
-67 -70 0
-67 -71 0
-67 -72 0
-67 -73 0
-67 -74 0
-67 -75 0
-67 -76 0
-67 -77 0
-67 -78 0
-67 -79 0
-67 -80 0
-67 -81 0
-67 -82 0
-67 -83 0
-67 -84 0
-67 -85 0
-67 -86 0
-67 -87 0
-67 -88 0
-67 -89 0
-67 -90 0
-67 -91 0
-68 -69 0
-68 -70 0
-68 -71 0
-68 -72 0
-68 -73 0
-68 -74 0
-68 -75 0
-68 -76 0
-68 -77 0
-68 -78 0
-68 -79 0
-68 -80 0
-68 -81 0
-68 -82 0
-68 -83 0
-68 -84 0
-68 -85 0
-68 -86 0
-68 -87 0
-68 -88 0
-68 -89 0
-68 -90 0
-68 -91 0
-69 -70 0
-69 -71 0
-69 -72 0
-69 -73 0
-69 -74 0
-69 -75 0
-69 -76 0
-69 -77 0
-69 -78 0
-69 -79 0
-69 -80 0
-69 -81 0
-69 -82 0
-69 -83 0
-69 -84 0
-69 -85 0
-69 -86 0
-69 -87 0
-69 -88 0
-69 -89 0
-69 -90 0
-69 -91 0
-70 -71 0
-70 -72 0
-70 -73 0
-70 -74 0
-70 -75 0
-70 -76 0
-70 -77 0
-70 -78 0
-70 -79 0
-70 -80 0
-70 -81 0
-70 -82 0
-70 -83 0
-70 -84 0
-70 -85 0
-70 -86 0
-70 -87 0
-70 -88 0
-70 -89 0
-70 -90 0
-70 -91 0
-71 -72 0
-71 -73 0
-71 -74 0
-71 -75 0
-71 -76 0
-71 -77 0
-71 -78 0
-71 -79 0
-71 -80 0
-71 -81 0
-71 -82 0
-71 -83 0
-71 -84 0
-71 -85 0
-71 -86 0
-71 -87 0
-71 -88 0
-71 -89 0
-71 -90 0
-71 -91 0
-72 -73 0
-72 -74 0
-72 -75 0
-72 -76 0
-72 -77 0
-72 -78 0
-72 -79 0
-72 -80 0
-72 -81 0
-72 -82 0
-72 -83 0
-72 -84 0
-72 -85 0
-72 -86 0
-72 -87 0
-72 -88 0
-72 -89 0
-72 -90 0
-72 -91 0
-73 -74 0
-73 -75 0
-73 -76 0
-73 -77 0
-73 -78 0
-73 -79 0
-73 -80 0
-73 -81 0
-73 -82 0
-73 -83 0
-73 -84 0
-73 -85 0
-73 -86 0
-73 -87 0
-73 -88 0
-73 -89 0
-73 -90 0
-73 -91 0
-74 -75 0
-74 -76 0
-74 -77 0
-74 -78 0
-74 -79 0
-74 -80 0
-74 -81 0
-74 -82 0
-74 -83 0
-74 -84 0
-74 -85 0
-74 -86 0
-74 -87 0
-74 -88 0
-74 -89 0
-74 -90 0
-74 -91 0
-75 -76 0
-75 -77 0
-75 -78 0
-75 -79 0
-75 -80 0
-75 -81 0
-75 -82 0
-75 -83 0
-75 -84 0
-75 -85 0
-75 -86 0
-75 -87 0
-75 -88 0
-75 -89 0
-75 -90 0
-75 -91 0
-76 -77 0
-76 -78 0
-76 -79 0
-76 -80 0
-76 -81 0
-76 -82 0
-76 -83 0
-76 -84 0
-76 -85 0
-76 -86 0
-76 -87 0
-76 -88 0
-76 -89 0
-76 -90 0
-76 -91 0
-77 -78 0
-77 -79 0
-77 -80 0
-77 -81 0
-77 -82 0
-77 -83 0
-77 -84 0
-77 -85 0
-77 -86 0
-77 -87 0
-77 -88 0
-77 -89 0
-77 -90 0
-77 -91 0
-78 -79 0
-78 -80 0
-78 -81 0
-78 -82 0
-78 -83 0
-78 -84 0
-78 -85 0
-78 -86 0
-78 -87 0
-78 -88 0
-78 -89 0
-78 -90 0
-78 -91 0
-79 -80 0
-79 -81 0
-79 -82 0
-79 -83 0
-79 -84 0
-79 -85 0
-79 -86 0
-79 -87 0
-79 -88 0
-79 -89 0
-79 -90 0
-79 -91 0
-80 -81 0
-80 -82 0
-80 -83 0
-80 -84 0
-80 -85 0
-80 -86 0
-80 -87 0
-80 -88 0
-80 -89 0
-80 -90 0
-80 -91 0
-81 -82 0
-81 -83 0
-81 -84 0
-81 -85 0
-81 -86 0
-81 -87 0
-81 -88 0
-81 -89 0
-81 -90 0
-81 -91 0
-82 -83 0
-82 -84 0
-82 -85 0
-82 -86 0
-82 -87 0
-82 -88 0
-82 -89 0
-82 -90 0
-82 -91 0
-83 -84 0
-83 -85 0
-83 -86 0
-83 -87 0
-83 -88 0
-83 -89 0
-83 -90 0
-83 -91 0
-84 -85 0
-84 -86 0
-84 -87 0
-84 -88 0
-84 -89 0
-84 -90 0
-84 -91 0
-85 -86 0
-85 -87 0
-85 -88 0
-85 -89 0
-85 -90 0
-85 -91 0
-86 -87 0
-86 -88 0
-86 -89 0
-86 -90 0
-86 -91 0
-87 -88 0
-87 -89 0
-87 -90 0
-87 -91 0
-88 -89 0
-88 -90 0
-88 -91 0
-89 -90 0
-89 -91 0
-90 -91 0
