p cnf 105 35490
1 2 3 15 16 28 0
1 2 3 15 16 28 0
1 2 3 15 16 28 0
1 2 3 15 16 28 0
1 2 4 15 17 29 0
1 2 4 15 17 29 0
1 2 4 15 17 29 0
1 2 4 15 17 29 0
1 2 5 15 18 30 0
1 2 5 15 18 30 0
1 2 5 15 18 30 0
1 2 5 15 18 30 0
1 2 6 15 19 31 0
1 2 6 15 19 31 0
1 2 6 15 19 31 0
1 2 6 15 19 31 0
1 2 7 15 20 32 0
1 2 7 15 20 32 0
1 2 7 15 20 32 0
1 2 7 15 20 32 0
1 2 8 15 21 33 0
1 2 8 15 21 33 0
1 2 8 15 21 33 0
1 2 8 15 21 33 0
1 2 9 15 22 34 0
1 2 9 15 22 34 0
1 2 9 15 22 34 0
1 2 9 15 22 34 0
1 2 10 15 23 35 0
1 2 10 15 23 35 0
1 2 10 15 23 35 0
1 2 10 15 23 35 0
1 2 11 15 24 36 0
1 2 11 15 24 36 0
1 2 11 15 24 36 0
1 2 11 15 24 36 0
1 2 12 15 25 37 0
1 2 12 15 25 37 0
1 2 12 15 25 37 0
1 2 12 15 25 37 0
1 2 13 15 26 38 0
1 2 13 15 26 38 0
1 2 13 15 26 38 0
1 2 13 15 26 38 0
1 2 14 15 27 39 0
1 2 14 15 27 39 0
1 2 14 15 27 39 0
1 2 14 15 27 39 0
1 3 4 16 17 40 0
1 3 4 16 17 40 0
1 3 4 16 17 40 0
1 3 4 16 17 40 0
1 3 5 16 18 41 0
1 3 5 16 18 41 0
1 3 5 16 18 41 0
1 3 5 16 18 41 0
1 3 6 16 19 42 0
1 3 6 16 19 42 0
1 3 6 16 19 42 0
1 3 6 16 19 42 0
1 3 7 16 20 43 0
1 3 7 16 20 43 0
1 3 7 16 20 43 0
1 3 7 16 20 43 0
1 3 8 16 21 44 0
1 3 8 16 21 44 0
1 3 8 16 21 44 0
1 3 8 16 21 44 0
1 3 9 16 22 45 0
1 3 9 16 22 45 0
1 3 9 16 22 45 0
1 3 9 16 22 45 0
1 3 10 16 23 46 0
1 3 10 16 23 46 0
1 3 10 16 23 46 0
1 3 10 16 23 46 0
1 3 11 16 24 47 0
1 3 11 16 24 47 0
1 3 11 16 24 47 0
1 3 11 16 24 47 0
1 3 12 16 25 48 0
1 3 12 16 25 48 0
1 3 12 16 25 48 0
1 3 12 16 25 48 0
1 3 13 16 26 49 0
1 3 13 16 26 49 0
1 3 13 16 26 49 0
1 3 13 16 26 49 0
1 3 14 16 27 50 0
1 3 14 16 27 50 0
1 3 14 16 27 50 0
1 3 14 16 27 50 0
1 4 5 17 18 51 0
1 4 5 17 18 51 0
1 4 5 17 18 51 0
1 4 5 17 18 51 0
1 4 6 17 19 52 0
1 4 6 17 19 52 0
1 4 6 17 19 52 0
1 4 6 17 19 52 0
1 4 7 17 20 53 0
1 4 7 17 20 53 0
1 4 7 17 20 53 0
1 4 7 17 20 53 0
1 4 8 17 21 54 0
1 4 8 17 21 54 0
1 4 8 17 21 54 0
1 4 8 17 21 54 0
1 4 9 17 22 55 0
1 4 9 17 22 55 0
1 4 9 17 22 55 0
1 4 9 17 22 55 0
1 4 10 17 23 56 0
1 4 10 17 23 56 0
1 4 10 17 23 56 0
1 4 10 17 23 56 0
1 4 11 17 24 57 0
1 4 11 17 24 57 0
1 4 11 17 24 57 0
1 4 11 17 24 57 0
1 4 12 17 25 58 0
1 4 12 17 25 58 0
1 4 12 17 25 58 0
1 4 12 17 25 58 0
1 4 13 17 26 59 0
1 4 13 17 26 59 0
1 4 13 17 26 59 0
1 4 13 17 26 59 0
1 4 14 17 27 60 0
1 4 14 17 27 60 0
1 4 14 17 27 60 0
1 4 14 17 27 60 0
1 5 6 18 19 61 0
1 5 6 18 19 61 0
1 5 6 18 19 61 0
1 5 6 18 19 61 0
1 5 7 18 20 62 0
1 5 7 18 20 62 0
1 5 7 18 20 62 0
1 5 7 18 20 62 0
1 5 8 18 21 63 0
1 5 8 18 21 63 0
1 5 8 18 21 63 0
1 5 8 18 21 63 0
1 5 9 18 22 64 0
1 5 9 18 22 64 0
1 5 9 18 22 64 0
1 5 9 18 22 64 0
1 5 10 18 23 65 0
1 5 10 18 23 65 0
1 5 10 18 23 65 0
1 5 10 18 23 65 0
1 5 11 18 24 66 0
1 5 11 18 24 66 0
1 5 11 18 24 66 0
1 5 11 18 24 66 0
1 5 12 18 25 67 0
1 5 12 18 25 67 0
1 5 12 18 25 67 0
1 5 12 18 25 67 0
1 5 13 18 26 68 0
1 5 13 18 26 68 0
1 5 13 18 26 68 0
1 5 13 18 26 68 0
1 5 14 18 27 69 0
1 5 14 18 27 69 0
1 5 14 18 27 69 0
1 5 14 18 27 69 0
1 6 7 19 20 70 0
1 6 7 19 20 70 0
1 6 7 19 20 70 0
1 6 7 19 20 70 0
1 6 8 19 21 71 0
1 6 8 19 21 71 0
1 6 8 19 21 71 0
1 6 8 19 21 71 0
1 6 9 19 22 72 0
1 6 9 19 22 72 0
1 6 9 19 22 72 0
1 6 9 19 22 72 0
1 6 10 19 23 73 0
1 6 10 19 23 73 0
1 6 10 19 23 73 0
1 6 10 19 23 73 0
1 6 11 19 24 74 0
1 6 11 19 24 74 0
1 6 11 19 24 74 0
1 6 11 19 24 74 0
1 6 12 19 25 75 0
1 6 12 19 25 75 0
1 6 12 19 25 75 0
1 6 12 19 25 75 0
1 6 13 19 26 76 0
1 6 13 19 26 76 0
1 6 13 19 26 76 0
1 6 13 19 26 76 0
1 6 14 19 27 77 0
1 6 14 19 27 77 0
1 6 14 19 27 77 0
1 6 14 19 27 77 0
1 7 8 20 21 78 0
1 7 8 20 21 78 0
1 7 8 20 21 78 0
1 7 8 20 21 78 0
1 7 9 20 22 79 0
1 7 9 20 22 79 0
1 7 9 20 22 79 0
1 7 9 20 22 79 0
1 7 10 20 23 80 0
1 7 10 20 23 80 0
1 7 10 20 23 80 0
1 7 10 20 23 80 0
1 7 11 20 24 81 0
1 7 11 20 24 81 0
1 7 11 20 24 81 0
1 7 11 20 24 81 0
1 7 12 20 25 82 0
1 7 12 20 25 82 0
1 7 12 20 25 82 0
1 7 12 20 25 82 0
1 7 13 20 26 83 0
1 7 13 20 26 83 0
1 7 13 20 26 83 0
1 7 13 20 26 83 0
1 7 14 20 27 84 0
1 7 14 20 27 84 0
1 7 14 20 27 84 0
1 7 14 20 27 84 0
1 8 9 21 22 85 0
1 8 9 21 22 85 0
1 8 9 21 22 85 0
1 8 9 21 22 85 0
1 8 10 21 23 86 0
1 8 10 21 23 86 0
1 8 10 21 23 86 0
1 8 10 21 23 86 0
1 8 11 21 24 87 0
1 8 11 21 24 87 0
1 8 11 21 24 87 0
1 8 11 21 24 87 0
1 8 12 21 25 88 0
1 8 12 21 25 88 0
1 8 12 21 25 88 0
1 8 12 21 25 88 0
1 8 13 21 26 89 0
1 8 13 21 26 89 0
1 8 13 21 26 89 0
1 8 13 21 26 89 0
1 8 14 21 27 90 0
1 8 14 21 27 90 0
1 8 14 21 27 90 0
1 8 14 21 27 90 0
1 9 10 22 23 91 0
1 9 10 22 23 91 0
1 9 10 22 23 91 0
1 9 10 22 23 91 0
1 9 11 22 24 92 0
1 9 11 22 24 92 0
1 9 11 22 24 92 0
1 9 11 22 24 92 0
1 9 12 22 25 93 0
1 9 12 22 25 93 0
1 9 12 22 25 93 0
1 9 12 22 25 93 0
1 9 13 22 26 94 0
1 9 13 22 26 94 0
1 9 13 22 26 94 0
1 9 13 22 26 94 0
1 9 14 22 27 95 0
1 9 14 22 27 95 0
1 9 14 22 27 95 0
1 9 14 22 27 95 0
1 10 11 23 24 96 0
1 10 11 23 24 96 0
1 10 11 23 24 96 0
1 10 11 23 24 96 0
1 10 12 23 25 97 0
1 10 12 23 25 97 0
1 10 12 23 25 97 0
1 10 12 23 25 97 0
1 10 13 23 26 98 0
1 10 13 23 26 98 0
1 10 13 23 26 98 0
1 10 13 23 26 98 0
1 10 14 23 27 99 0
1 10 14 23 27 99 0
1 10 14 23 27 99 0
1 10 14 23 27 99 0
1 11 12 24 25 100 0
1 11 12 24 25 100 0
1 11 12 24 25 100 0
1 11 12 24 25 100 0
1 11 13 24 26 101 0
1 11 13 24 26 101 0
1 11 13 24 26 101 0
1 11 13 24 26 101 0
1 11 14 24 27 102 0
1 11 14 24 27 102 0
1 11 14 24 27 102 0
1 11 14 24 27 102 0
1 12 13 25 26 103 0
1 12 13 25 26 103 0
1 12 13 25 26 103 0
1 12 13 25 26 103 0
1 12 14 25 27 104 0
1 12 14 25 27 104 0
1 12 14 25 27 104 0
1 12 14 25 27 104 0
1 13 14 26 27 105 0
1 13 14 26 27 105 0
1 13 14 26 27 105 0
1 13 14 26 27 105 0
2 3 4 28 29 40 0
2 3 4 28 29 40 0
2 3 4 28 29 40 0
2 3 4 28 29 40 0
2 3 5 28 30 41 0
2 3 5 28 30 41 0
2 3 5 28 30 41 0
2 3 5 28 30 41 0
2 3 6 28 31 42 0
2 3 6 28 31 42 0
2 3 6 28 31 42 0
2 3 6 28 31 42 0
2 3 7 28 32 43 0
2 3 7 28 32 43 0
2 3 7 28 32 43 0
2 3 7 28 32 43 0
2 3 8 28 33 44 0
2 3 8 28 33 44 0
2 3 8 28 33 44 0
2 3 8 28 33 44 0
2 3 9 28 34 45 0
2 3 9 28 34 45 0
2 3 9 28 34 45 0
2 3 9 28 34 45 0
2 3 10 28 35 46 0
2 3 10 28 35 46 0
2 3 10 28 35 46 0
2 3 10 28 35 46 0
2 3 11 28 36 47 0
2 3 11 28 36 47 0
2 3 11 28 36 47 0
2 3 11 28 36 47 0
2 3 12 28 37 48 0
2 3 12 28 37 48 0
2 3 12 28 37 48 0
2 3 12 28 37 48 0
2 3 13 28 38 49 0
2 3 13 28 38 49 0
2 3 13 28 38 49 0
2 3 13 28 38 49 0
2 3 14 28 39 50 0
2 3 14 28 39 50 0
2 3 14 28 39 50 0
2 3 14 28 39 50 0
2 4 5 29 30 51 0
2 4 5 29 30 51 0
2 4 5 29 30 51 0
2 4 5 29 30 51 0
2 4 6 29 31 52 0
2 4 6 29 31 52 0
2 4 6 29 31 52 0
2 4 6 29 31 52 0
2 4 7 29 32 53 0
2 4 7 29 32 53 0
2 4 7 29 32 53 0
2 4 7 29 32 53 0
2 4 8 29 33 54 0
2 4 8 29 33 54 0
2 4 8 29 33 54 0
2 4 8 29 33 54 0
2 4 9 29 34 55 0
2 4 9 29 34 55 0
2 4 9 29 34 55 0
2 4 9 29 34 55 0
2 4 10 29 35 56 0
2 4 10 29 35 56 0
2 4 10 29 35 56 0
2 4 10 29 35 56 0
2 4 11 29 36 57 0
2 4 11 29 36 57 0
2 4 11 29 36 57 0
2 4 11 29 36 57 0
2 4 12 29 37 58 0
2 4 12 29 37 58 0
2 4 12 29 37 58 0
2 4 12 29 37 58 0
2 4 13 29 38 59 0
2 4 13 29 38 59 0
2 4 13 29 38 59 0
2 4 13 29 38 59 0
2 4 14 29 39 60 0
2 4 14 29 39 60 0
2 4 14 29 39 60 0
2 4 14 29 39 60 0
2 5 6 30 31 61 0
2 5 6 30 31 61 0
2 5 6 30 31 61 0
2 5 6 30 31 61 0
2 5 7 30 32 62 0
2 5 7 30 32 62 0
2 5 7 30 32 62 0
2 5 7 30 32 62 0
2 5 8 30 33 63 0
2 5 8 30 33 63 0
2 5 8 30 33 63 0
2 5 8 30 33 63 0
2 5 9 30 34 64 0
2 5 9 30 34 64 0
2 5 9 30 34 64 0
2 5 9 30 34 64 0
2 5 10 30 35 65 0
2 5 10 30 35 65 0
2 5 10 30 35 65 0
2 5 10 30 35 65 0
2 5 11 30 36 66 0
2 5 11 30 36 66 0
2 5 11 30 36 66 0
2 5 11 30 36 66 0
2 5 12 30 37 67 0
2 5 12 30 37 67 0
2 5 12 30 37 67 0
2 5 12 30 37 67 0
2 5 13 30 38 68 0
2 5 13 30 38 68 0
2 5 13 30 38 68 0
2 5 13 30 38 68 0
2 5 14 30 39 69 0
2 5 14 30 39 69 0
2 5 14 30 39 69 0
2 5 14 30 39 69 0
2 6 7 31 32 70 0
2 6 7 31 32 70 0
2 6 7 31 32 70 0
2 6 7 31 32 70 0
2 6 8 31 33 71 0
2 6 8 31 33 71 0
2 6 8 31 33 71 0
2 6 8 31 33 71 0
2 6 9 31 34 72 0
2 6 9 31 34 72 0
2 6 9 31 34 72 0
2 6 9 31 34 72 0
2 6 10 31 35 73 0
2 6 10 31 35 73 0
2 6 10 31 35 73 0
2 6 10 31 35 73 0
2 6 11 31 36 74 0
2 6 11 31 36 74 0
2 6 11 31 36 74 0
2 6 11 31 36 74 0
2 6 12 31 37 75 0
2 6 12 31 37 75 0
2 6 12 31 37 75 0
2 6 12 31 37 75 0
2 6 13 31 38 76 0
2 6 13 31 38 76 0
2 6 13 31 38 76 0
2 6 13 31 38 76 0
2 6 14 31 39 77 0
2 6 14 31 39 77 0
2 6 14 31 39 77 0
2 6 14 31 39 77 0
2 7 8 32 33 78 0
2 7 8 32 33 78 0
2 7 8 32 33 78 0
2 7 8 32 33 78 0
2 7 9 32 34 79 0
2 7 9 32 34 79 0
2 7 9 32 34 79 0
2 7 9 32 34 79 0
2 7 10 32 35 80 0
2 7 10 32 35 80 0
2 7 10 32 35 80 0
2 7 10 32 35 80 0
2 7 11 32 36 81 0
2 7 11 32 36 81 0
2 7 11 32 36 81 0
2 7 11 32 36 81 0
2 7 12 32 37 82 0
2 7 12 32 37 82 0
2 7 12 32 37 82 0
2 7 12 32 37 82 0
2 7 13 32 38 83 0
2 7 13 32 38 83 0
2 7 13 32 38 83 0
2 7 13 32 38 83 0
2 7 14 32 39 84 0
2 7 14 32 39 84 0
2 7 14 32 39 84 0
2 7 14 32 39 84 0
2 8 9 33 34 85 0
2 8 9 33 34 85 0
2 8 9 33 34 85 0
2 8 9 33 34 85 0
2 8 10 33 35 86 0
2 8 10 33 35 86 0
2 8 10 33 35 86 0
2 8 10 33 35 86 0
2 8 11 33 36 87 0
2 8 11 33 36 87 0
2 8 11 33 36 87 0
2 8 11 33 36 87 0
2 8 12 33 37 88 0
2 8 12 33 37 88 0
2 8 12 33 37 88 0
2 8 12 33 37 88 0
2 8 13 33 38 89 0
2 8 13 33 38 89 0
2 8 13 33 38 89 0
2 8 13 33 38 89 0
2 8 14 33 39 90 0
2 8 14 33 39 90 0
2 8 14 33 39 90 0
2 8 14 33 39 90 0
2 9 10 34 35 91 0
2 9 10 34 35 91 0
2 9 10 34 35 91 0
2 9 10 34 35 91 0
2 9 11 34 36 92 0
2 9 11 34 36 92 0
2 9 11 34 36 92 0
2 9 11 34 36 92 0
2 9 12 34 37 93 0
2 9 12 34 37 93 0
2 9 12 34 37 93 0
2 9 12 34 37 93 0
2 9 13 34 38 94 0
2 9 13 34 38 94 0
2 9 13 34 38 94 0
2 9 13 34 38 94 0
2 9 14 34 39 95 0
2 9 14 34 39 95 0
2 9 14 34 39 95 0
2 9 14 34 39 95 0
2 10 11 35 36 96 0
2 10 11 35 36 96 0
2 10 11 35 36 96 0
2 10 11 35 36 96 0
2 10 12 35 37 97 0
2 10 12 35 37 97 0
2 10 12 35 37 97 0
2 10 12 35 37 97 0
2 10 13 35 38 98 0
2 10 13 35 38 98 0
2 10 13 35 38 98 0
2 10 13 35 38 98 0
2 10 14 35 39 99 0
2 10 14 35 39 99 0
2 10 14 35 39 99 0
2 10 14 35 39 99 0
2 11 12 36 37 100 0
2 11 12 36 37 100 0
2 11 12 36 37 100 0
2 11 12 36 37 100 0
2 11 13 36 38 101 0
2 11 13 36 38 101 0
2 11 13 36 38 101 0
2 11 13 36 38 101 0
2 11 14 36 39 102 0
2 11 14 36 39 102 0
2 11 14 36 39 102 0
2 11 14 36 39 102 0
2 12 13 37 38 103 0
2 12 13 37 38 103 0
2 12 13 37 38 103 0
2 12 13 37 38 103 0
2 12 14 37 39 104 0
2 12 14 37 39 104 0
2 12 14 37 39 104 0
2 12 14 37 39 104 0
2 13 14 38 39 105 0
2 13 14 38 39 105 0
2 13 14 38 39 105 0
2 13 14 38 39 105 0
3 4 5 40 41 51 0
3 4 5 40 41 51 0
3 4 5 40 41 51 0
3 4 5 40 41 51 0
3 4 6 40 42 52 0
3 4 6 40 42 52 0
3 4 6 40 42 52 0
3 4 6 40 42 52 0
3 4 7 40 43 53 0
3 4 7 40 43 53 0
3 4 7 40 43 53 0
3 4 7 40 43 53 0
3 4 8 40 44 54 0
3 4 8 40 44 54 0
3 4 8 40 44 54 0
3 4 8 40 44 54 0
3 4 9 40 45 55 0
3 4 9 40 45 55 0
3 4 9 40 45 55 0
3 4 9 40 45 55 0
3 4 10 40 46 56 0
3 4 10 40 46 56 0
3 4 10 40 46 56 0
3 4 10 40 46 56 0
3 4 11 40 47 57 0
3 4 11 40 47 57 0
3 4 11 40 47 57 0
3 4 11 40 47 57 0
3 4 12 40 48 58 0
3 4 12 40 48 58 0
3 4 12 40 48 58 0
3 4 12 40 48 58 0
3 4 13 40 49 59 0
3 4 13 40 49 59 0
3 4 13 40 49 59 0
3 4 13 40 49 59 0
3 4 14 40 50 60 0
3 4 14 40 50 60 0
3 4 14 40 50 60 0
3 4 14 40 50 60 0
3 5 6 41 42 61 0
3 5 6 41 42 61 0
3 5 6 41 42 61 0
3 5 6 41 42 61 0
3 5 7 41 43 62 0
3 5 7 41 43 62 0
3 5 7 41 43 62 0
3 5 7 41 43 62 0
3 5 8 41 44 63 0
3 5 8 41 44 63 0
3 5 8 41 44 63 0
3 5 8 41 44 63 0
3 5 9 41 45 64 0
3 5 9 41 45 64 0
3 5 9 41 45 64 0
3 5 9 41 45 64 0
3 5 10 41 46 65 0
3 5 10 41 46 65 0
3 5 10 41 46 65 0
3 5 10 41 46 65 0
3 5 11 41 47 66 0
3 5 11 41 47 66 0
3 5 11 41 47 66 0
3 5 11 41 47 66 0
3 5 12 41 48 67 0
3 5 12 41 48 67 0
3 5 12 41 48 67 0
3 5 12 41 48 67 0
3 5 13 41 49 68 0
3 5 13 41 49 68 0
3 5 13 41 49 68 0
3 5 13 41 49 68 0
3 5 14 41 50 69 0
3 5 14 41 50 69 0
3 5 14 41 50 69 0
3 5 14 41 50 69 0
3 6 7 42 43 70 0
3 6 7 42 43 70 0
3 6 7 42 43 70 0
3 6 7 42 43 70 0
3 6 8 42 44 71 0
3 6 8 42 44 71 0
3 6 8 42 44 71 0
3 6 8 42 44 71 0
3 6 9 42 45 72 0
3 6 9 42 45 72 0
3 6 9 42 45 72 0
3 6 9 42 45 72 0
3 6 10 42 46 73 0
3 6 10 42 46 73 0
3 6 10 42 46 73 0
3 6 10 42 46 73 0
3 6 11 42 47 74 0
3 6 11 42 47 74 0
3 6 11 42 47 74 0
3 6 11 42 47 74 0
3 6 12 42 48 75 0
3 6 12 42 48 75 0
3 6 12 42 48 75 0
3 6 12 42 48 75 0
3 6 13 42 49 76 0
3 6 13 42 49 76 0
3 6 13 42 49 76 0
3 6 13 42 49 76 0
3 6 14 42 50 77 0
3 6 14 42 50 77 0
3 6 14 42 50 77 0
3 6 14 42 50 77 0
3 7 8 43 44 78 0
3 7 8 43 44 78 0
3 7 8 43 44 78 0
3 7 8 43 44 78 0
3 7 9 43 45 79 0
3 7 9 43 45 79 0
3 7 9 43 45 79 0
3 7 9 43 45 79 0
3 7 10 43 46 80 0
3 7 10 43 46 80 0
3 7 10 43 46 80 0
3 7 10 43 46 80 0
3 7 11 43 47 81 0
3 7 11 43 47 81 0
3 7 11 43 47 81 0
3 7 11 43 47 81 0
3 7 12 43 48 82 0
3 7 12 43 48 82 0
3 7 12 43 48 82 0
3 7 12 43 48 82 0
3 7 13 43 49 83 0
3 7 13 43 49 83 0
3 7 13 43 49 83 0
3 7 13 43 49 83 0
3 7 14 43 50 84 0
3 7 14 43 50 84 0
3 7 14 43 50 84 0
3 7 14 43 50 84 0
3 8 9 44 45 85 0
3 8 9 44 45 85 0
3 8 9 44 45 85 0
3 8 9 44 45 85 0
3 8 10 44 46 86 0
3 8 10 44 46 86 0
3 8 10 44 46 86 0
3 8 10 44 46 86 0
3 8 11 44 47 87 0
3 8 11 44 47 87 0
3 8 11 44 47 87 0
3 8 11 44 47 87 0
3 8 12 44 48 88 0
3 8 12 44 48 88 0
3 8 12 44 48 88 0
3 8 12 44 48 88 0
3 8 13 44 49 89 0
3 8 13 44 49 89 0
3 8 13 44 49 89 0
3 8 13 44 49 89 0
3 8 14 44 50 90 0
3 8 14 44 50 90 0
3 8 14 44 50 90 0
3 8 14 44 50 90 0
3 9 10 45 46 91 0
3 9 10 45 46 91 0
3 9 10 45 46 91 0
3 9 10 45 46 91 0
3 9 11 45 47 92 0
3 9 11 45 47 92 0
3 9 11 45 47 92 0
3 9 11 45 47 92 0
3 9 12 45 48 93 0
3 9 12 45 48 93 0
3 9 12 45 48 93 0
3 9 12 45 48 93 0
3 9 13 45 49 94 0
3 9 13 45 49 94 0
3 9 13 45 49 94 0
3 9 13 45 49 94 0
3 9 14 45 50 95 0
3 9 14 45 50 95 0
3 9 14 45 50 95 0
3 9 14 45 50 95 0
3 10 11 46 47 96 0
3 10 11 46 47 96 0
3 10 11 46 47 96 0
3 10 11 46 47 96 0
3 10 12 46 48 97 0
3 10 12 46 48 97 0
3 10 12 46 48 97 0
3 10 12 46 48 97 0
3 10 13 46 49 98 0
3 10 13 46 49 98 0
3 10 13 46 49 98 0
3 10 13 46 49 98 0
3 10 14 46 50 99 0
3 10 14 46 50 99 0
3 10 14 46 50 99 0
3 10 14 46 50 99 0
3 11 12 47 48 100 0
3 11 12 47 48 100 0
3 11 12 47 48 100 0
3 11 12 47 48 100 0
3 11 13 47 49 101 0
3 11 13 47 49 101 0
3 11 13 47 49 101 0
3 11 13 47 49 101 0
3 11 14 47 50 102 0
3 11 14 47 50 102 0
3 11 14 47 50 102 0
3 11 14 47 50 102 0
3 12 13 48 49 103 0
3 12 13 48 49 103 0
3 12 13 48 49 103 0
3 12 13 48 49 103 0
3 12 14 48 50 104 0
3 12 14 48 50 104 0
3 12 14 48 50 104 0
3 12 14 48 50 104 0
3 13 14 49 50 105 0
3 13 14 49 50 105 0
3 13 14 49 50 105 0
3 13 14 49 50 105 0
4 5 6 51 52 61 0
4 5 6 51 52 61 0
4 5 6 51 52 61 0
4 5 6 51 52 61 0
4 5 7 51 53 62 0
4 5 7 51 53 62 0
4 5 7 51 53 62 0
4 5 7 51 53 62 0
4 5 8 51 54 63 0
4 5 8 51 54 63 0
4 5 8 51 54 63 0
4 5 8 51 54 63 0
4 5 9 51 55 64 0
4 5 9 51 55 64 0
4 5 9 51 55 64 0
4 5 9 51 55 64 0
4 5 10 51 56 65 0
4 5 10 51 56 65 0
4 5 10 51 56 65 0
4 5 10 51 56 65 0
4 5 11 51 57 66 0
4 5 11 51 57 66 0
4 5 11 51 57 66 0
4 5 11 51 57 66 0
4 5 12 51 58 67 0
4 5 12 51 58 67 0
4 5 12 51 58 67 0
4 5 12 51 58 67 0
4 5 13 51 59 68 0
4 5 13 51 59 68 0
4 5 13 51 59 68 0
4 5 13 51 59 68 0
4 5 14 51 60 69 0
4 5 14 51 60 69 0
4 5 14 51 60 69 0
4 5 14 51 60 69 0
4 6 7 52 53 70 0
4 6 7 52 53 70 0
4 6 7 52 53 70 0
4 6 7 52 53 70 0
4 6 8 52 54 71 0
4 6 8 52 54 71 0
4 6 8 52 54 71 0
4 6 8 52 54 71 0
4 6 9 52 55 72 0
4 6 9 52 55 72 0
4 6 9 52 55 72 0
4 6 9 52 55 72 0
4 6 10 52 56 73 0
4 6 10 52 56 73 0
4 6 10 52 56 73 0
4 6 10 52 56 73 0
4 6 11 52 57 74 0
4 6 11 52 57 74 0
4 6 11 52 57 74 0
4 6 11 52 57 74 0
4 6 12 52 58 75 0
4 6 12 52 58 75 0
4 6 12 52 58 75 0
4 6 12 52 58 75 0
4 6 13 52 59 76 0
4 6 13 52 59 76 0
4 6 13 52 59 76 0
4 6 13 52 59 76 0
4 6 14 52 60 77 0
4 6 14 52 60 77 0
4 6 14 52 60 77 0
4 6 14 52 60 77 0
4 7 8 53 54 78 0
4 7 8 53 54 78 0
4 7 8 53 54 78 0
4 7 8 53 54 78 0
4 7 9 53 55 79 0
4 7 9 53 55 79 0
4 7 9 53 55 79 0
4 7 9 53 55 79 0
4 7 10 53 56 80 0
4 7 10 53 56 80 0
4 7 10 53 56 80 0
4 7 10 53 56 80 0
4 7 11 53 57 81 0
4 7 11 53 57 81 0
4 7 11 53 57 81 0
4 7 11 53 57 81 0
4 7 12 53 58 82 0
4 7 12 53 58 82 0
4 7 12 53 58 82 0
4 7 12 53 58 82 0
4 7 13 53 59 83 0
4 7 13 53 59 83 0
4 7 13 53 59 83 0
4 7 13 53 59 83 0
4 7 14 53 60 84 0
4 7 14 53 60 84 0
4 7 14 53 60 84 0
4 7 14 53 60 84 0
4 8 9 54 55 85 0
4 8 9 54 55 85 0
4 8 9 54 55 85 0
4 8 9 54 55 85 0
4 8 10 54 56 86 0
4 8 10 54 56 86 0
4 8 10 54 56 86 0
4 8 10 54 56 86 0
4 8 11 54 57 87 0
4 8 11 54 57 87 0
4 8 11 54 57 87 0
4 8 11 54 57 87 0
4 8 12 54 58 88 0
4 8 12 54 58 88 0
4 8 12 54 58 88 0
4 8 12 54 58 88 0
4 8 13 54 59 89 0
4 8 13 54 59 89 0
4 8 13 54 59 89 0
4 8 13 54 59 89 0
4 8 14 54 60 90 0
4 8 14 54 60 90 0
4 8 14 54 60 90 0
4 8 14 54 60 90 0
4 9 10 55 56 91 0
4 9 10 55 56 91 0
4 9 10 55 56 91 0
4 9 10 55 56 91 0
4 9 11 55 57 92 0
4 9 11 55 57 92 0
4 9 11 55 57 92 0
4 9 11 55 57 92 0
4 9 12 55 58 93 0
4 9 12 55 58 93 0
4 9 12 55 58 93 0
4 9 12 55 58 93 0
4 9 13 55 59 94 0
4 9 13 55 59 94 0
4 9 13 55 59 94 0
4 9 13 55 59 94 0
4 9 14 55 60 95 0
4 9 14 55 60 95 0
4 9 14 55 60 95 0
4 9 14 55 60 95 0
4 10 11 56 57 96 0
4 10 11 56 57 96 0
4 10 11 56 57 96 0
4 10 11 56 57 96 0
4 10 12 56 58 97 0
4 10 12 56 58 97 0
4 10 12 56 58 97 0
4 10 12 56 58 97 0
4 10 13 56 59 98 0
4 10 13 56 59 98 0
4 10 13 56 59 98 0
4 10 13 56 59 98 0
4 10 14 56 60 99 0
4 10 14 56 60 99 0
4 10 14 56 60 99 0
4 10 14 56 60 99 0
4 11 12 57 58 100 0
4 11 12 57 58 100 0
4 11 12 57 58 100 0
4 11 12 57 58 100 0
4 11 13 57 59 101 0
4 11 13 57 59 101 0
4 11 13 57 59 101 0
4 11 13 57 59 101 0
4 11 14 57 60 102 0
4 11 14 57 60 102 0
4 11 14 57 60 102 0
4 11 14 57 60 102 0
4 12 13 58 59 103 0
4 12 13 58 59 103 0
4 12 13 58 59 103 0
4 12 13 58 59 103 0
4 12 14 58 60 104 0
4 12 14 58 60 104 0
4 12 14 58 60 104 0
4 12 14 58 60 104 0
4 13 14 59 60 105 0
4 13 14 59 60 105 0
4 13 14 59 60 105 0
4 13 14 59 60 105 0
5 6 7 61 62 70 0
5 6 7 61 62 70 0
5 6 7 61 62 70 0
5 6 7 61 62 70 0
5 6 8 61 63 71 0
5 6 8 61 63 71 0
5 6 8 61 63 71 0
5 6 8 61 63 71 0
5 6 9 61 64 72 0
5 6 9 61 64 72 0
5 6 9 61 64 72 0
5 6 9 61 64 72 0
5 6 10 61 65 73 0
5 6 10 61 65 73 0
5 6 10 61 65 73 0
5 6 10 61 65 73 0
5 6 11 61 66 74 0
5 6 11 61 66 74 0
5 6 11 61 66 74 0
5 6 11 61 66 74 0
5 6 12 61 67 75 0
5 6 12 61 67 75 0
5 6 12 61 67 75 0
5 6 12 61 67 75 0
5 6 13 61 68 76 0
5 6 13 61 68 76 0
5 6 13 61 68 76 0
5 6 13 61 68 76 0
5 6 14 61 69 77 0
5 6 14 61 69 77 0
5 6 14 61 69 77 0
5 6 14 61 69 77 0
5 7 8 62 63 78 0
5 7 8 62 63 78 0
5 7 8 62 63 78 0
5 7 8 62 63 78 0
5 7 9 62 64 79 0
5 7 9 62 64 79 0
5 7 9 62 64 79 0
5 7 9 62 64 79 0
5 7 10 62 65 80 0
5 7 10 62 65 80 0
5 7 10 62 65 80 0
5 7 10 62 65 80 0
5 7 11 62 66 81 0
5 7 11 62 66 81 0
5 7 11 62 66 81 0
5 7 11 62 66 81 0
5 7 12 62 67 82 0
5 7 12 62 67 82 0
5 7 12 62 67 82 0
5 7 12 62 67 82 0
5 7 13 62 68 83 0
5 7 13 62 68 83 0
5 7 13 62 68 83 0
5 7 13 62 68 83 0
5 7 14 62 69 84 0
5 7 14 62 69 84 0
5 7 14 62 69 84 0
5 7 14 62 69 84 0
5 8 9 63 64 85 0
5 8 9 63 64 85 0
5 8 9 63 64 85 0
5 8 9 63 64 85 0
5 8 10 63 65 86 0
5 8 10 63 65 86 0
5 8 10 63 65 86 0
5 8 10 63 65 86 0
5 8 11 63 66 87 0
5 8 11 63 66 87 0
5 8 11 63 66 87 0
5 8 11 63 66 87 0
5 8 12 63 67 88 0
5 8 12 63 67 88 0
5 8 12 63 67 88 0
5 8 12 63 67 88 0
5 8 13 63 68 89 0
5 8 13 63 68 89 0
5 8 13 63 68 89 0
5 8 13 63 68 89 0
5 8 14 63 69 90 0
5 8 14 63 69 90 0
5 8 14 63 69 90 0
5 8 14 63 69 90 0
5 9 10 64 65 91 0
5 9 10 64 65 91 0
5 9 10 64 65 91 0
5 9 10 64 65 91 0
5 9 11 64 66 92 0
5 9 11 64 66 92 0
5 9 11 64 66 92 0
5 9 11 64 66 92 0
5 9 12 64 67 93 0
5 9 12 64 67 93 0
5 9 12 64 67 93 0
5 9 12 64 67 93 0
5 9 13 64 68 94 0
5 9 13 64 68 94 0
5 9 13 64 68 94 0
5 9 13 64 68 94 0
5 9 14 64 69 95 0
5 9 14 64 69 95 0
5 9 14 64 69 95 0
5 9 14 64 69 95 0
5 10 11 65 66 96 0
5 10 11 65 66 96 0
5 10 11 65 66 96 0
5 10 11 65 66 96 0
5 10 12 65 67 97 0
5 10 12 65 67 97 0
5 10 12 65 67 97 0
5 10 12 65 67 97 0
5 10 13 65 68 98 0
5 10 13 65 68 98 0
5 10 13 65 68 98 0
5 10 13 65 68 98 0
5 10 14 65 69 99 0
5 10 14 65 69 99 0
5 10 14 65 69 99 0
5 10 14 65 69 99 0
5 11 12 66 67 100 0
5 11 12 66 67 100 0
5 11 12 66 67 100 0
5 11 12 66 67 100 0
5 11 13 66 68 101 0
5 11 13 66 68 101 0
5 11 13 66 68 101 0
5 11 13 66 68 101 0
5 11 14 66 69 102 0
5 11 14 66 69 102 0
5 11 14 66 69 102 0
5 11 14 66 69 102 0
5 12 13 67 68 103 0
5 12 13 67 68 103 0
5 12 13 67 68 103 0
5 12 13 67 68 103 0
5 12 14 67 69 104 0
5 12 14 67 69 104 0
5 12 14 67 69 104 0
5 12 14 67 69 104 0
5 13 14 68 69 105 0
5 13 14 68 69 105 0
5 13 14 68 69 105 0
5 13 14 68 69 105 0
6 7 8 70 71 78 0
6 7 8 70 71 78 0
6 7 8 70 71 78 0
6 7 8 70 71 78 0
6 7 9 70 72 79 0
6 7 9 70 72 79 0
6 7 9 70 72 79 0
6 7 9 70 72 79 0
6 7 10 70 73 80 0
6 7 10 70 73 80 0
6 7 10 70 73 80 0
6 7 10 70 73 80 0
6 7 11 70 74 81 0
6 7 11 70 74 81 0
6 7 11 70 74 81 0
6 7 11 70 74 81 0
6 7 12 70 75 82 0
6 7 12 70 75 82 0
6 7 12 70 75 82 0
6 7 12 70 75 82 0
6 7 13 70 76 83 0
6 7 13 70 76 83 0
6 7 13 70 76 83 0
6 7 13 70 76 83 0
6 7 14 70 77 84 0
6 7 14 70 77 84 0
6 7 14 70 77 84 0
6 7 14 70 77 84 0
6 8 9 71 72 85 0
6 8 9 71 72 85 0
6 8 9 71 72 85 0
6 8 9 71 72 85 0
6 8 10 71 73 86 0
6 8 10 71 73 86 0
6 8 10 71 73 86 0
6 8 10 71 73 86 0
6 8 11 71 74 87 0
6 8 11 71 74 87 0
6 8 11 71 74 87 0
6 8 11 71 74 87 0
6 8 12 71 75 88 0
6 8 12 71 75 88 0
6 8 12 71 75 88 0
6 8 12 71 75 88 0
6 8 13 71 76 89 0
6 8 13 71 76 89 0
6 8 13 71 76 89 0
6 8 13 71 76 89 0
6 8 14 71 77 90 0
6 8 14 71 77 90 0
6 8 14 71 77 90 0
6 8 14 71 77 90 0
6 9 10 72 73 91 0
6 9 10 72 73 91 0
6 9 10 72 73 91 0
6 9 10 72 73 91 0
6 9 11 72 74 92 0
6 9 11 72 74 92 0
6 9 11 72 74 92 0
6 9 11 72 74 92 0
6 9 12 72 75 93 0
6 9 12 72 75 93 0
6 9 12 72 75 93 0
6 9 12 72 75 93 0
6 9 13 72 76 94 0
6 9 13 72 76 94 0
6 9 13 72 76 94 0
6 9 13 72 76 94 0
6 9 14 72 77 95 0
6 9 14 72 77 95 0
6 9 14 72 77 95 0
6 9 14 72 77 95 0
6 10 11 73 74 96 0
6 10 11 73 74 96 0
6 10 11 73 74 96 0
6 10 11 73 74 96 0
6 10 12 73 75 97 0
6 10 12 73 75 97 0
6 10 12 73 75 97 0
6 10 12 73 75 97 0
6 10 13 73 76 98 0
6 10 13 73 76 98 0
6 10 13 73 76 98 0
6 10 13 73 76 98 0
6 10 14 73 77 99 0
6 10 14 73 77 99 0
6 10 14 73 77 99 0
6 10 14 73 77 99 0
6 11 12 74 75 100 0
6 11 12 74 75 100 0
6 11 12 74 75 100 0
6 11 12 74 75 100 0
6 11 13 74 76 101 0
6 11 13 74 76 101 0
6 11 13 74 76 101 0
6 11 13 74 76 101 0
6 11 14 74 77 102 0
6 11 14 74 77 102 0
6 11 14 74 77 102 0
6 11 14 74 77 102 0
6 12 13 75 76 103 0
6 12 13 75 76 103 0
6 12 13 75 76 103 0
6 12 13 75 76 103 0
6 12 14 75 77 104 0
6 12 14 75 77 104 0
6 12 14 75 77 104 0
6 12 14 75 77 104 0
6 13 14 76 77 105 0
6 13 14 76 77 105 0
6 13 14 76 77 105 0
6 13 14 76 77 105 0
7 8 9 78 79 85 0
7 8 9 78 79 85 0
7 8 9 78 79 85 0
7 8 9 78 79 85 0
7 8 10 78 80 86 0
7 8 10 78 80 86 0
7 8 10 78 80 86 0
7 8 10 78 80 86 0
7 8 11 78 81 87 0
7 8 11 78 81 87 0
7 8 11 78 81 87 0
7 8 11 78 81 87 0
7 8 12 78 82 88 0
7 8 12 78 82 88 0
7 8 12 78 82 88 0
7 8 12 78 82 88 0
7 8 13 78 83 89 0
7 8 13 78 83 89 0
7 8 13 78 83 89 0
7 8 13 78 83 89 0
7 8 14 78 84 90 0
7 8 14 78 84 90 0
7 8 14 78 84 90 0
7 8 14 78 84 90 0
7 9 10 79 80 91 0
7 9 10 79 80 91 0
7 9 10 79 80 91 0
7 9 10 79 80 91 0
7 9 11 79 81 92 0
7 9 11 79 81 92 0
7 9 11 79 81 92 0
7 9 11 79 81 92 0
7 9 12 79 82 93 0
7 9 12 79 82 93 0
7 9 12 79 82 93 0
7 9 12 79 82 93 0
7 9 13 79 83 94 0
7 9 13 79 83 94 0
7 9 13 79 83 94 0
7 9 13 79 83 94 0
7 9 14 79 84 95 0
7 9 14 79 84 95 0
7 9 14 79 84 95 0
7 9 14 79 84 95 0
7 10 11 80 81 96 0
7 10 11 80 81 96 0
7 10 11 80 81 96 0
7 10 11 80 81 96 0
7 10 12 80 82 97 0
7 10 12 80 82 97 0
7 10 12 80 82 97 0
7 10 12 80 82 97 0
7 10 13 80 83 98 0
7 10 13 80 83 98 0
7 10 13 80 83 98 0
7 10 13 80 83 98 0
7 10 14 80 84 99 0
7 10 14 80 84 99 0
7 10 14 80 84 99 0
7 10 14 80 84 99 0
7 11 12 81 82 100 0
7 11 12 81 82 100 0
7 11 12 81 82 100 0
7 11 12 81 82 100 0
7 11 13 81 83 101 0
7 11 13 81 83 101 0
7 11 13 81 83 101 0
7 11 13 81 83 101 0
7 11 14 81 84 102 0
7 11 14 81 84 102 0
7 11 14 81 84 102 0
7 11 14 81 84 102 0
7 12 13 82 83 103 0
7 12 13 82 83 103 0
7 12 13 82 83 103 0
7 12 13 82 83 103 0
7 12 14 82 84 104 0
7 12 14 82 84 104 0
7 12 14 82 84 104 0
7 12 14 82 84 104 0
7 13 14 83 84 105 0
7 13 14 83 84 105 0
7 13 14 83 84 105 0
7 13 14 83 84 105 0
8 9 10 85 86 91 0
8 9 10 85 86 91 0
8 9 10 85 86 91 0
8 9 10 85 86 91 0
8 9 11 85 87 92 0
8 9 11 85 87 92 0
8 9 11 85 87 92 0
8 9 11 85 87 92 0
8 9 12 85 88 93 0
8 9 12 85 88 93 0
8 9 12 85 88 93 0
8 9 12 85 88 93 0
8 9 13 85 89 94 0
8 9 13 85 89 94 0
8 9 13 85 89 94 0
8 9 13 85 89 94 0
8 9 14 85 90 95 0
8 9 14 85 90 95 0
8 9 14 85 90 95 0
8 9 14 85 90 95 0
8 10 11 86 87 96 0
8 10 11 86 87 96 0
8 10 11 86 87 96 0
8 10 11 86 87 96 0
8 10 12 86 88 97 0
8 10 12 86 88 97 0
8 10 12 86 88 97 0
8 10 12 86 88 97 0
8 10 13 86 89 98 0
8 10 13 86 89 98 0
8 10 13 86 89 98 0
8 10 13 86 89 98 0
8 10 14 86 90 99 0
8 10 14 86 90 99 0
8 10 14 86 90 99 0
8 10 14 86 90 99 0
8 11 12 87 88 100 0
8 11 12 87 88 100 0
8 11 12 87 88 100 0
8 11 12 87 88 100 0
8 11 13 87 89 101 0
8 11 13 87 89 101 0
8 11 13 87 89 101 0
8 11 13 87 89 101 0
8 11 14 87 90 102 0
8 11 14 87 90 102 0
8 11 14 87 90 102 0
8 11 14 87 90 102 0
8 12 13 88 89 103 0
8 12 13 88 89 103 0
8 12 13 88 89 103 0
8 12 13 88 89 103 0
8 12 14 88 90 104 0
8 12 14 88 90 104 0
8 12 14 88 90 104 0
8 12 14 88 90 104 0
8 13 14 89 90 105 0
8 13 14 89 90 105 0
8 13 14 89 90 105 0
8 13 14 89 90 105 0
9 10 11 91 92 96 0
9 10 11 91 92 96 0
9 10 11 91 92 96 0
9 10 11 91 92 96 0
9 10 12 91 93 97 0
9 10 12 91 93 97 0
9 10 12 91 93 97 0
9 10 12 91 93 97 0
9 10 13 91 94 98 0
9 10 13 91 94 98 0
9 10 13 91 94 98 0
9 10 13 91 94 98 0
9 10 14 91 95 99 0
9 10 14 91 95 99 0
9 10 14 91 95 99 0
9 10 14 91 95 99 0
9 11 12 92 93 100 0
9 11 12 92 93 100 0
9 11 12 92 93 100 0
9 11 12 92 93 100 0
9 11 13 92 94 101 0
9 11 13 92 94 101 0
9 11 13 92 94 101 0
9 11 13 92 94 101 0
9 11 14 92 95 102 0
9 11 14 92 95 102 0
9 11 14 92 95 102 0
9 11 14 92 95 102 0
9 12 13 93 94 103 0
9 12 13 93 94 103 0
9 12 13 93 94 103 0
9 12 13 93 94 103 0
9 12 14 93 95 104 0
9 12 14 93 95 104 0
9 12 14 93 95 104 0
9 12 14 93 95 104 0
9 13 14 94 95 105 0
9 13 14 94 95 105 0
9 13 14 94 95 105 0
9 13 14 94 95 105 0
10 11 12 96 97 100 0
10 11 12 96 97 100 0
10 11 12 96 97 100 0
10 11 12 96 97 100 0
10 11 13 96 98 101 0
10 11 13 96 98 101 0
10 11 13 96 98 101 0
10 11 13 96 98 101 0
10 11 14 96 99 102 0
10 11 14 96 99 102 0
10 11 14 96 99 102 0
10 11 14 96 99 102 0
10 12 13 97 98 103 0
10 12 13 97 98 103 0
10 12 13 97 98 103 0
10 12 13 97 98 103 0
10 12 14 97 99 104 0
10 12 14 97 99 104 0
10 12 14 97 99 104 0
10 12 14 97 99 104 0
10 13 14 98 99 105 0
10 13 14 98 99 105 0
10 13 14 98 99 105 0
10 13 14 98 99 105 0
11 12 13 100 101 103 0
11 12 13 100 101 103 0
11 12 13 100 101 103 0
11 12 13 100 101 103 0
11 12 14 100 102 104 0
11 12 14 100 102 104 0
11 12 14 100 102 104 0
11 12 14 100 102 104 0
11 13 14 101 102 105 0
11 13 14 101 102 105 0
11 13 14 101 102 105 0
11 13 14 101 102 105 0
12 13 14 103 104 105 0
12 13 14 103 104 105 0
12 13 14 103 104 105 0
12 13 14 103 104 105 0
15 16 17 28 29 40 0
15 16 17 28 29 40 0
15 16 17 28 29 40 0
15 16 17 28 29 40 0
15 16 18 28 30 41 0
15 16 18 28 30 41 0
15 16 18 28 30 41 0
15 16 18 28 30 41 0
15 16 19 28 31 42 0
15 16 19 28 31 42 0
15 16 19 28 31 42 0
15 16 19 28 31 42 0
15 16 20 28 32 43 0
15 16 20 28 32 43 0
15 16 20 28 32 43 0
15 16 20 28 32 43 0
15 16 21 28 33 44 0
15 16 21 28 33 44 0
15 16 21 28 33 44 0
15 16 21 28 33 44 0
15 16 22 28 34 45 0
15 16 22 28 34 45 0
15 16 22 28 34 45 0
15 16 22 28 34 45 0
15 16 23 28 35 46 0
15 16 23 28 35 46 0
15 16 23 28 35 46 0
15 16 23 28 35 46 0
15 16 24 28 36 47 0
15 16 24 28 36 47 0
15 16 24 28 36 47 0
15 16 24 28 36 47 0
15 16 25 28 37 48 0
15 16 25 28 37 48 0
15 16 25 28 37 48 0
15 16 25 28 37 48 0
15 16 26 28 38 49 0
15 16 26 28 38 49 0
15 16 26 28 38 49 0
15 16 26 28 38 49 0
15 16 27 28 39 50 0
15 16 27 28 39 50 0
15 16 27 28 39 50 0
15 16 27 28 39 50 0
15 17 18 29 30 51 0
15 17 18 29 30 51 0
15 17 18 29 30 51 0
15 17 18 29 30 51 0
15 17 19 29 31 52 0
15 17 19 29 31 52 0
15 17 19 29 31 52 0
15 17 19 29 31 52 0
15 17 20 29 32 53 0
15 17 20 29 32 53 0
15 17 20 29 32 53 0
15 17 20 29 32 53 0
15 17 21 29 33 54 0
15 17 21 29 33 54 0
15 17 21 29 33 54 0
15 17 21 29 33 54 0
15 17 22 29 34 55 0
15 17 22 29 34 55 0
15 17 22 29 34 55 0
15 17 22 29 34 55 0
15 17 23 29 35 56 0
15 17 23 29 35 56 0
15 17 23 29 35 56 0
15 17 23 29 35 56 0
15 17 24 29 36 57 0
15 17 24 29 36 57 0
15 17 24 29 36 57 0
15 17 24 29 36 57 0
15 17 25 29 37 58 0
15 17 25 29 37 58 0
15 17 25 29 37 58 0
15 17 25 29 37 58 0
15 17 26 29 38 59 0
15 17 26 29 38 59 0
15 17 26 29 38 59 0
15 17 26 29 38 59 0
15 17 27 29 39 60 0
15 17 27 29 39 60 0
15 17 27 29 39 60 0
15 17 27 29 39 60 0
15 18 19 30 31 61 0
15 18 19 30 31 61 0
15 18 19 30 31 61 0
15 18 19 30 31 61 0
15 18 20 30 32 62 0
15 18 20 30 32 62 0
15 18 20 30 32 62 0
15 18 20 30 32 62 0
15 18 21 30 33 63 0
15 18 21 30 33 63 0
15 18 21 30 33 63 0
15 18 21 30 33 63 0
15 18 22 30 34 64 0
15 18 22 30 34 64 0
15 18 22 30 34 64 0
15 18 22 30 34 64 0
15 18 23 30 35 65 0
15 18 23 30 35 65 0
15 18 23 30 35 65 0
15 18 23 30 35 65 0
15 18 24 30 36 66 0
15 18 24 30 36 66 0
15 18 24 30 36 66 0
15 18 24 30 36 66 0
15 18 25 30 37 67 0
15 18 25 30 37 67 0
15 18 25 30 37 67 0
15 18 25 30 37 67 0
15 18 26 30 38 68 0
15 18 26 30 38 68 0
15 18 26 30 38 68 0
15 18 26 30 38 68 0
15 18 27 30 39 69 0
15 18 27 30 39 69 0
15 18 27 30 39 69 0
15 18 27 30 39 69 0
15 19 20 31 32 70 0
15 19 20 31 32 70 0
15 19 20 31 32 70 0
15 19 20 31 32 70 0
15 19 21 31 33 71 0
15 19 21 31 33 71 0
15 19 21 31 33 71 0
15 19 21 31 33 71 0
15 19 22 31 34 72 0
15 19 22 31 34 72 0
15 19 22 31 34 72 0
15 19 22 31 34 72 0
15 19 23 31 35 73 0
15 19 23 31 35 73 0
15 19 23 31 35 73 0
15 19 23 31 35 73 0
15 19 24 31 36 74 0
15 19 24 31 36 74 0
15 19 24 31 36 74 0
15 19 24 31 36 74 0
15 19 25 31 37 75 0
15 19 25 31 37 75 0
15 19 25 31 37 75 0
15 19 25 31 37 75 0
15 19 26 31 38 76 0
15 19 26 31 38 76 0
15 19 26 31 38 76 0
15 19 26 31 38 76 0
15 19 27 31 39 77 0
15 19 27 31 39 77 0
15 19 27 31 39 77 0
15 19 27 31 39 77 0
15 20 21 32 33 78 0
15 20 21 32 33 78 0
15 20 21 32 33 78 0
15 20 21 32 33 78 0
15 20 22 32 34 79 0
15 20 22 32 34 79 0
15 20 22 32 34 79 0
15 20 22 32 34 79 0
15 20 23 32 35 80 0
15 20 23 32 35 80 0
15 20 23 32 35 80 0
15 20 23 32 35 80 0
15 20 24 32 36 81 0
15 20 24 32 36 81 0
15 20 24 32 36 81 0
15 20 24 32 36 81 0
15 20 25 32 37 82 0
15 20 25 32 37 82 0
15 20 25 32 37 82 0
15 20 25 32 37 82 0
15 20 26 32 38 83 0
15 20 26 32 38 83 0
15 20 26 32 38 83 0
15 20 26 32 38 83 0
15 20 27 32 39 84 0
15 20 27 32 39 84 0
15 20 27 32 39 84 0
15 20 27 32 39 84 0
15 21 22 33 34 85 0
15 21 22 33 34 85 0
15 21 22 33 34 85 0
15 21 22 33 34 85 0
15 21 23 33 35 86 0
15 21 23 33 35 86 0
15 21 23 33 35 86 0
15 21 23 33 35 86 0
15 21 24 33 36 87 0
15 21 24 33 36 87 0
15 21 24 33 36 87 0
15 21 24 33 36 87 0
15 21 25 33 37 88 0
15 21 25 33 37 88 0
15 21 25 33 37 88 0
15 21 25 33 37 88 0
15 21 26 33 38 89 0
15 21 26 33 38 89 0
15 21 26 33 38 89 0
15 21 26 33 38 89 0
15 21 27 33 39 90 0
15 21 27 33 39 90 0
15 21 27 33 39 90 0
15 21 27 33 39 90 0
15 22 23 34 35 91 0
15 22 23 34 35 91 0
15 22 23 34 35 91 0
15 22 23 34 35 91 0
15 22 24 34 36 92 0
15 22 24 34 36 92 0
15 22 24 34 36 92 0
15 22 24 34 36 92 0
15 22 25 34 37 93 0
15 22 25 34 37 93 0
15 22 25 34 37 93 0
15 22 25 34 37 93 0
15 22 26 34 38 94 0
15 22 26 34 38 94 0
15 22 26 34 38 94 0
15 22 26 34 38 94 0
15 22 27 34 39 95 0
15 22 27 34 39 95 0
15 22 27 34 39 95 0
15 22 27 34 39 95 0
15 23 24 35 36 96 0
15 23 24 35 36 96 0
15 23 24 35 36 96 0
15 23 24 35 36 96 0
15 23 25 35 37 97 0
15 23 25 35 37 97 0
15 23 25 35 37 97 0
15 23 25 35 37 97 0
15 23 26 35 38 98 0
15 23 26 35 38 98 0
15 23 26 35 38 98 0
15 23 26 35 38 98 0
15 23 27 35 39 99 0
15 23 27 35 39 99 0
15 23 27 35 39 99 0
15 23 27 35 39 99 0
15 24 25 36 37 100 0
15 24 25 36 37 100 0
15 24 25 36 37 100 0
15 24 25 36 37 100 0
15 24 26 36 38 101 0
15 24 26 36 38 101 0
15 24 26 36 38 101 0
15 24 26 36 38 101 0
15 24 27 36 39 102 0
15 24 27 36 39 102 0
15 24 27 36 39 102 0
15 24 27 36 39 102 0
15 25 26 37 38 103 0
15 25 26 37 38 103 0
15 25 26 37 38 103 0
15 25 26 37 38 103 0
15 25 27 37 39 104 0
15 25 27 37 39 104 0
15 25 27 37 39 104 0
15 25 27 37 39 104 0
15 26 27 38 39 105 0
15 26 27 38 39 105 0
15 26 27 38 39 105 0
15 26 27 38 39 105 0
16 17 18 40 41 51 0
16 17 18 40 41 51 0
16 17 18 40 41 51 0
16 17 18 40 41 51 0
16 17 19 40 42 52 0
16 17 19 40 42 52 0
16 17 19 40 42 52 0
16 17 19 40 42 52 0
16 17 20 40 43 53 0
16 17 20 40 43 53 0
16 17 20 40 43 53 0
16 17 20 40 43 53 0
16 17 21 40 44 54 0
16 17 21 40 44 54 0
16 17 21 40 44 54 0
16 17 21 40 44 54 0
16 17 22 40 45 55 0
16 17 22 40 45 55 0
16 17 22 40 45 55 0
16 17 22 40 45 55 0
16 17 23 40 46 56 0
16 17 23 40 46 56 0
16 17 23 40 46 56 0
16 17 23 40 46 56 0
16 17 24 40 47 57 0
16 17 24 40 47 57 0
16 17 24 40 47 57 0
16 17 24 40 47 57 0
16 17 25 40 48 58 0
16 17 25 40 48 58 0
16 17 25 40 48 58 0
16 17 25 40 48 58 0
16 17 26 40 49 59 0
16 17 26 40 49 59 0
16 17 26 40 49 59 0
16 17 26 40 49 59 0
16 17 27 40 50 60 0
16 17 27 40 50 60 0
16 17 27 40 50 60 0
16 17 27 40 50 60 0
16 18 19 41 42 61 0
16 18 19 41 42 61 0
16 18 19 41 42 61 0
16 18 19 41 42 61 0
16 18 20 41 43 62 0
16 18 20 41 43 62 0
16 18 20 41 43 62 0
16 18 20 41 43 62 0
16 18 21 41 44 63 0
16 18 21 41 44 63 0
16 18 21 41 44 63 0
16 18 21 41 44 63 0
16 18 22 41 45 64 0
16 18 22 41 45 64 0
16 18 22 41 45 64 0
16 18 22 41 45 64 0
16 18 23 41 46 65 0
16 18 23 41 46 65 0
16 18 23 41 46 65 0
16 18 23 41 46 65 0
16 18 24 41 47 66 0
16 18 24 41 47 66 0
16 18 24 41 47 66 0
16 18 24 41 47 66 0
16 18 25 41 48 67 0
16 18 25 41 48 67 0
16 18 25 41 48 67 0
16 18 25 41 48 67 0
16 18 26 41 49 68 0
16 18 26 41 49 68 0
16 18 26 41 49 68 0
16 18 26 41 49 68 0
16 18 27 41 50 69 0
16 18 27 41 50 69 0
16 18 27 41 50 69 0
16 18 27 41 50 69 0
16 19 20 42 43 70 0
16 19 20 42 43 70 0
16 19 20 42 43 70 0
16 19 20 42 43 70 0
16 19 21 42 44 71 0
16 19 21 42 44 71 0
16 19 21 42 44 71 0
16 19 21 42 44 71 0
16 19 22 42 45 72 0
16 19 22 42 45 72 0
16 19 22 42 45 72 0
16 19 22 42 45 72 0
16 19 23 42 46 73 0
16 19 23 42 46 73 0
16 19 23 42 46 73 0
16 19 23 42 46 73 0
16 19 24 42 47 74 0
16 19 24 42 47 74 0
16 19 24 42 47 74 0
16 19 24 42 47 74 0
16 19 25 42 48 75 0
16 19 25 42 48 75 0
16 19 25 42 48 75 0
16 19 25 42 48 75 0
16 19 26 42 49 76 0
16 19 26 42 49 76 0
16 19 26 42 49 76 0
16 19 26 42 49 76 0
16 19 27 42 50 77 0
16 19 27 42 50 77 0
16 19 27 42 50 77 0
16 19 27 42 50 77 0
16 20 21 43 44 78 0
16 20 21 43 44 78 0
16 20 21 43 44 78 0
16 20 21 43 44 78 0
16 20 22 43 45 79 0
16 20 22 43 45 79 0
16 20 22 43 45 79 0
16 20 22 43 45 79 0
16 20 23 43 46 80 0
16 20 23 43 46 80 0
16 20 23 43 46 80 0
16 20 23 43 46 80 0
16 20 24 43 47 81 0
16 20 24 43 47 81 0
16 20 24 43 47 81 0
16 20 24 43 47 81 0
16 20 25 43 48 82 0
16 20 25 43 48 82 0
16 20 25 43 48 82 0
16 20 25 43 48 82 0
16 20 26 43 49 83 0
16 20 26 43 49 83 0
16 20 26 43 49 83 0
16 20 26 43 49 83 0
16 20 27 43 50 84 0
16 20 27 43 50 84 0
16 20 27 43 50 84 0
16 20 27 43 50 84 0
16 21 22 44 45 85 0
16 21 22 44 45 85 0
16 21 22 44 45 85 0
16 21 22 44 45 85 0
16 21 23 44 46 86 0
16 21 23 44 46 86 0
16 21 23 44 46 86 0
16 21 23 44 46 86 0
16 21 24 44 47 87 0
16 21 24 44 47 87 0
16 21 24 44 47 87 0
16 21 24 44 47 87 0
16 21 25 44 48 88 0
16 21 25 44 48 88 0
16 21 25 44 48 88 0
16 21 25 44 48 88 0
16 21 26 44 49 89 0
16 21 26 44 49 89 0
16 21 26 44 49 89 0
16 21 26 44 49 89 0
16 21 27 44 50 90 0
16 21 27 44 50 90 0
16 21 27 44 50 90 0
16 21 27 44 50 90 0
16 22 23 45 46 91 0
16 22 23 45 46 91 0
16 22 23 45 46 91 0
16 22 23 45 46 91 0
16 22 24 45 47 92 0
16 22 24 45 47 92 0
16 22 24 45 47 92 0
16 22 24 45 47 92 0
16 22 25 45 48 93 0
16 22 25 45 48 93 0
16 22 25 45 48 93 0
16 22 25 45 48 93 0
16 22 26 45 49 94 0
16 22 26 45 49 94 0
16 22 26 45 49 94 0
16 22 26 45 49 94 0
16 22 27 45 50 95 0
16 22 27 45 50 95 0
16 22 27 45 50 95 0
16 22 27 45 50 95 0
16 23 24 46 47 96 0
16 23 24 46 47 96 0
16 23 24 46 47 96 0
16 23 24 46 47 96 0
16 23 25 46 48 97 0
16 23 25 46 48 97 0
16 23 25 46 48 97 0
16 23 25 46 48 97 0
16 23 26 46 49 98 0
16 23 26 46 49 98 0
16 23 26 46 49 98 0
16 23 26 46 49 98 0
16 23 27 46 50 99 0
16 23 27 46 50 99 0
16 23 27 46 50 99 0
16 23 27 46 50 99 0
16 24 25 47 48 100 0
16 24 25 47 48 100 0
16 24 25 47 48 100 0
16 24 25 47 48 100 0
16 24 26 47 49 101 0
16 24 26 47 49 101 0
16 24 26 47 49 101 0
16 24 26 47 49 101 0
16 24 27 47 50 102 0
16 24 27 47 50 102 0
16 24 27 47 50 102 0
16 24 27 47 50 102 0
16 25 26 48 49 103 0
16 25 26 48 49 103 0
16 25 26 48 49 103 0
16 25 26 48 49 103 0
16 25 27 48 50 104 0
16 25 27 48 50 104 0
16 25 27 48 50 104 0
16 25 27 48 50 104 0
16 26 27 49 50 105 0
16 26 27 49 50 105 0
16 26 27 49 50 105 0
16 26 27 49 50 105 0
17 18 19 51 52 61 0
17 18 19 51 52 61 0
17 18 19 51 52 61 0
17 18 19 51 52 61 0
17 18 20 51 53 62 0
17 18 20 51 53 62 0
17 18 20 51 53 62 0
17 18 20 51 53 62 0
17 18 21 51 54 63 0
17 18 21 51 54 63 0
17 18 21 51 54 63 0
17 18 21 51 54 63 0
17 18 22 51 55 64 0
17 18 22 51 55 64 0
17 18 22 51 55 64 0
17 18 22 51 55 64 0
17 18 23 51 56 65 0
17 18 23 51 56 65 0
17 18 23 51 56 65 0
17 18 23 51 56 65 0
17 18 24 51 57 66 0
17 18 24 51 57 66 0
17 18 24 51 57 66 0
17 18 24 51 57 66 0
17 18 25 51 58 67 0
17 18 25 51 58 67 0
17 18 25 51 58 67 0
17 18 25 51 58 67 0
17 18 26 51 59 68 0
17 18 26 51 59 68 0
17 18 26 51 59 68 0
17 18 26 51 59 68 0
17 18 27 51 60 69 0
17 18 27 51 60 69 0
17 18 27 51 60 69 0
17 18 27 51 60 69 0
17 19 20 52 53 70 0
17 19 20 52 53 70 0
17 19 20 52 53 70 0
17 19 20 52 53 70 0
17 19 21 52 54 71 0
17 19 21 52 54 71 0
17 19 21 52 54 71 0
17 19 21 52 54 71 0
17 19 22 52 55 72 0
17 19 22 52 55 72 0
17 19 22 52 55 72 0
17 19 22 52 55 72 0
17 19 23 52 56 73 0
17 19 23 52 56 73 0
17 19 23 52 56 73 0
17 19 23 52 56 73 0
17 19 24 52 57 74 0
17 19 24 52 57 74 0
17 19 24 52 57 74 0
17 19 24 52 57 74 0
17 19 25 52 58 75 0
17 19 25 52 58 75 0
17 19 25 52 58 75 0
17 19 25 52 58 75 0
17 19 26 52 59 76 0
17 19 26 52 59 76 0
17 19 26 52 59 76 0
17 19 26 52 59 76 0
17 19 27 52 60 77 0
17 19 27 52 60 77 0
17 19 27 52 60 77 0
17 19 27 52 60 77 0
17 20 21 53 54 78 0
17 20 21 53 54 78 0
17 20 21 53 54 78 0
17 20 21 53 54 78 0
17 20 22 53 55 79 0
17 20 22 53 55 79 0
17 20 22 53 55 79 0
17 20 22 53 55 79 0
17 20 23 53 56 80 0
17 20 23 53 56 80 0
17 20 23 53 56 80 0
17 20 23 53 56 80 0
17 20 24 53 57 81 0
17 20 24 53 57 81 0
17 20 24 53 57 81 0
17 20 24 53 57 81 0
17 20 25 53 58 82 0
17 20 25 53 58 82 0
17 20 25 53 58 82 0
17 20 25 53 58 82 0
17 20 26 53 59 83 0
17 20 26 53 59 83 0
17 20 26 53 59 83 0
17 20 26 53 59 83 0
17 20 27 53 60 84 0
17 20 27 53 60 84 0
17 20 27 53 60 84 0
17 20 27 53 60 84 0
17 21 22 54 55 85 0
17 21 22 54 55 85 0
17 21 22 54 55 85 0
17 21 22 54 55 85 0
17 21 23 54 56 86 0
17 21 23 54 56 86 0
17 21 23 54 56 86 0
17 21 23 54 56 86 0
17 21 24 54 57 87 0
17 21 24 54 57 87 0
17 21 24 54 57 87 0
17 21 24 54 57 87 0
17 21 25 54 58 88 0
17 21 25 54 58 88 0
17 21 25 54 58 88 0
17 21 25 54 58 88 0
17 21 26 54 59 89 0
17 21 26 54 59 89 0
17 21 26 54 59 89 0
17 21 26 54 59 89 0
17 21 27 54 60 90 0
17 21 27 54 60 90 0
17 21 27 54 60 90 0
17 21 27 54 60 90 0
17 22 23 55 56 91 0
17 22 23 55 56 91 0
17 22 23 55 56 91 0
17 22 23 55 56 91 0
17 22 24 55 57 92 0
17 22 24 55 57 92 0
17 22 24 55 57 92 0
17 22 24 55 57 92 0
17 22 25 55 58 93 0
17 22 25 55 58 93 0
17 22 25 55 58 93 0
17 22 25 55 58 93 0
17 22 26 55 59 94 0
17 22 26 55 59 94 0
17 22 26 55 59 94 0
17 22 26 55 59 94 0
17 22 27 55 60 95 0
17 22 27 55 60 95 0
17 22 27 55 60 95 0
17 22 27 55 60 95 0
17 23 24 56 57 96 0
17 23 24 56 57 96 0
17 23 24 56 57 96 0
17 23 24 56 57 96 0
17 23 25 56 58 97 0
17 23 25 56 58 97 0
17 23 25 56 58 97 0
17 23 25 56 58 97 0
17 23 26 56 59 98 0
17 23 26 56 59 98 0
17 23 26 56 59 98 0
17 23 26 56 59 98 0
17 23 27 56 60 99 0
17 23 27 56 60 99 0
17 23 27 56 60 99 0
17 23 27 56 60 99 0
17 24 25 57 58 100 0
17 24 25 57 58 100 0
17 24 25 57 58 100 0
17 24 25 57 58 100 0
17 24 26 57 59 101 0
17 24 26 57 59 101 0
17 24 26 57 59 101 0
17 24 26 57 59 101 0
17 24 27 57 60 102 0
17 24 27 57 60 102 0
17 24 27 57 60 102 0
17 24 27 57 60 102 0
17 25 26 58 59 103 0
17 25 26 58 59 103 0
17 25 26 58 59 103 0
17 25 26 58 59 103 0
17 25 27 58 60 104 0
17 25 27 58 60 104 0
17 25 27 58 60 104 0
17 25 27 58 60 104 0
17 26 27 59 60 105 0
17 26 27 59 60 105 0
17 26 27 59 60 105 0
17 26 27 59 60 105 0
18 19 20 61 62 70 0
18 19 20 61 62 70 0
18 19 20 61 62 70 0
18 19 20 61 62 70 0
18 19 21 61 63 71 0
18 19 21 61 63 71 0
18 19 21 61 63 71 0
18 19 21 61 63 71 0
18 19 22 61 64 72 0
18 19 22 61 64 72 0
18 19 22 61 64 72 0
18 19 22 61 64 72 0
18 19 23 61 65 73 0
18 19 23 61 65 73 0
18 19 23 61 65 73 0
18 19 23 61 65 73 0
18 19 24 61 66 74 0
18 19 24 61 66 74 0
18 19 24 61 66 74 0
18 19 24 61 66 74 0
18 19 25 61 67 75 0
18 19 25 61 67 75 0
18 19 25 61 67 75 0
18 19 25 61 67 75 0
18 19 26 61 68 76 0
18 19 26 61 68 76 0
18 19 26 61 68 76 0
18 19 26 61 68 76 0
18 19 27 61 69 77 0
18 19 27 61 69 77 0
18 19 27 61 69 77 0
18 19 27 61 69 77 0
18 20 21 62 63 78 0
18 20 21 62 63 78 0
18 20 21 62 63 78 0
18 20 21 62 63 78 0
18 20 22 62 64 79 0
18 20 22 62 64 79 0
18 20 22 62 64 79 0
18 20 22 62 64 79 0
18 20 23 62 65 80 0
18 20 23 62 65 80 0
18 20 23 62 65 80 0
18 20 23 62 65 80 0
18 20 24 62 66 81 0
18 20 24 62 66 81 0
18 20 24 62 66 81 0
18 20 24 62 66 81 0
18 20 25 62 67 82 0
18 20 25 62 67 82 0
18 20 25 62 67 82 0
18 20 25 62 67 82 0
18 20 26 62 68 83 0
18 20 26 62 68 83 0
18 20 26 62 68 83 0
18 20 26 62 68 83 0
18 20 27 62 69 84 0
18 20 27 62 69 84 0
18 20 27 62 69 84 0
18 20 27 62 69 84 0
18 21 22 63 64 85 0
18 21 22 63 64 85 0
18 21 22 63 64 85 0
18 21 22 63 64 85 0
18 21 23 63 65 86 0
18 21 23 63 65 86 0
18 21 23 63 65 86 0
18 21 23 63 65 86 0
18 21 24 63 66 87 0
18 21 24 63 66 87 0
18 21 24 63 66 87 0
18 21 24 63 66 87 0
18 21 25 63 67 88 0
18 21 25 63 67 88 0
18 21 25 63 67 88 0
18 21 25 63 67 88 0
18 21 26 63 68 89 0
18 21 26 63 68 89 0
18 21 26 63 68 89 0
18 21 26 63 68 89 0
18 21 27 63 69 90 0
18 21 27 63 69 90 0
18 21 27 63 69 90 0
18 21 27 63 69 90 0
18 22 23 64 65 91 0
18 22 23 64 65 91 0
18 22 23 64 65 91 0
18 22 23 64 65 91 0
18 22 24 64 66 92 0
18 22 24 64 66 92 0
18 22 24 64 66 92 0
18 22 24 64 66 92 0
18 22 25 64 67 93 0
18 22 25 64 67 93 0
18 22 25 64 67 93 0
18 22 25 64 67 93 0
18 22 26 64 68 94 0
18 22 26 64 68 94 0
18 22 26 64 68 94 0
18 22 26 64 68 94 0
18 22 27 64 69 95 0
18 22 27 64 69 95 0
18 22 27 64 69 95 0
18 22 27 64 69 95 0
18 23 24 65 66 96 0
18 23 24 65 66 96 0
18 23 24 65 66 96 0
18 23 24 65 66 96 0
18 23 25 65 67 97 0
18 23 25 65 67 97 0
18 23 25 65 67 97 0
18 23 25 65 67 97 0
18 23 26 65 68 98 0
18 23 26 65 68 98 0
18 23 26 65 68 98 0
18 23 26 65 68 98 0
18 23 27 65 69 99 0
18 23 27 65 69 99 0
18 23 27 65 69 99 0
18 23 27 65 69 99 0
18 24 25 66 67 100 0
18 24 25 66 67 100 0
18 24 25 66 67 100 0
18 24 25 66 67 100 0
18 24 26 66 68 101 0
18 24 26 66 68 101 0
18 24 26 66 68 101 0
18 24 26 66 68 101 0
18 24 27 66 69 102 0
18 24 27 66 69 102 0
18 24 27 66 69 102 0
18 24 27 66 69 102 0
18 25 26 67 68 103 0
18 25 26 67 68 103 0
18 25 26 67 68 103 0
18 25 26 67 68 103 0
18 25 27 67 69 104 0
18 25 27 67 69 104 0
18 25 27 67 69 104 0
18 25 27 67 69 104 0
18 26 27 68 69 105 0
18 26 27 68 69 105 0
18 26 27 68 69 105 0
18 26 27 68 69 105 0
19 20 21 70 71 78 0
19 20 21 70 71 78 0
19 20 21 70 71 78 0
19 20 21 70 71 78 0
19 20 22 70 72 79 0
19 20 22 70 72 79 0
19 20 22 70 72 79 0
19 20 22 70 72 79 0
19 20 23 70 73 80 0
19 20 23 70 73 80 0
19 20 23 70 73 80 0
19 20 23 70 73 80 0
19 20 24 70 74 81 0
19 20 24 70 74 81 0
19 20 24 70 74 81 0
19 20 24 70 74 81 0
19 20 25 70 75 82 0
19 20 25 70 75 82 0
19 20 25 70 75 82 0
19 20 25 70 75 82 0
19 20 26 70 76 83 0
19 20 26 70 76 83 0
19 20 26 70 76 83 0
19 20 26 70 76 83 0
19 20 27 70 77 84 0
19 20 27 70 77 84 0
19 20 27 70 77 84 0
19 20 27 70 77 84 0
19 21 22 71 72 85 0
19 21 22 71 72 85 0
19 21 22 71 72 85 0
19 21 22 71 72 85 0
19 21 23 71 73 86 0
19 21 23 71 73 86 0
19 21 23 71 73 86 0
19 21 23 71 73 86 0
19 21 24 71 74 87 0
19 21 24 71 74 87 0
19 21 24 71 74 87 0
19 21 24 71 74 87 0
19 21 25 71 75 88 0
19 21 25 71 75 88 0
19 21 25 71 75 88 0
19 21 25 71 75 88 0
19 21 26 71 76 89 0
19 21 26 71 76 89 0
19 21 26 71 76 89 0
19 21 26 71 76 89 0
19 21 27 71 77 90 0
19 21 27 71 77 90 0
19 21 27 71 77 90 0
19 21 27 71 77 90 0
19 22 23 72 73 91 0
19 22 23 72 73 91 0
19 22 23 72 73 91 0
19 22 23 72 73 91 0
19 22 24 72 74 92 0
19 22 24 72 74 92 0
19 22 24 72 74 92 0
19 22 24 72 74 92 0
19 22 25 72 75 93 0
19 22 25 72 75 93 0
19 22 25 72 75 93 0
19 22 25 72 75 93 0
19 22 26 72 76 94 0
19 22 26 72 76 94 0
19 22 26 72 76 94 0
19 22 26 72 76 94 0
19 22 27 72 77 95 0
19 22 27 72 77 95 0
19 22 27 72 77 95 0
19 22 27 72 77 95 0
19 23 24 73 74 96 0
19 23 24 73 74 96 0
19 23 24 73 74 96 0
19 23 24 73 74 96 0
19 23 25 73 75 97 0
19 23 25 73 75 97 0
19 23 25 73 75 97 0
19 23 25 73 75 97 0
19 23 26 73 76 98 0
19 23 26 73 76 98 0
19 23 26 73 76 98 0
19 23 26 73 76 98 0
19 23 27 73 77 99 0
19 23 27 73 77 99 0
19 23 27 73 77 99 0
19 23 27 73 77 99 0
19 24 25 74 75 100 0
19 24 25 74 75 100 0
19 24 25 74 75 100 0
19 24 25 74 75 100 0
19 24 26 74 76 101 0
19 24 26 74 76 101 0
19 24 26 74 76 101 0
19 24 26 74 76 101 0
19 24 27 74 77 102 0
19 24 27 74 77 102 0
19 24 27 74 77 102 0
19 24 27 74 77 102 0
19 25 26 75 76 103 0
19 25 26 75 76 103 0
19 25 26 75 76 103 0
19 25 26 75 76 103 0
19 25 27 75 77 104 0
19 25 27 75 77 104 0
19 25 27 75 77 104 0
19 25 27 75 77 104 0
19 26 27 76 77 105 0
19 26 27 76 77 105 0
19 26 27 76 77 105 0
19 26 27 76 77 105 0
20 21 22 78 79 85 0
20 21 22 78 79 85 0
20 21 22 78 79 85 0
20 21 22 78 79 85 0
20 21 23 78 80 86 0
20 21 23 78 80 86 0
20 21 23 78 80 86 0
20 21 23 78 80 86 0
20 21 24 78 81 87 0
20 21 24 78 81 87 0
20 21 24 78 81 87 0
20 21 24 78 81 87 0
20 21 25 78 82 88 0
20 21 25 78 82 88 0
20 21 25 78 82 88 0
20 21 25 78 82 88 0
20 21 26 78 83 89 0
20 21 26 78 83 89 0
20 21 26 78 83 89 0
20 21 26 78 83 89 0
20 21 27 78 84 90 0
20 21 27 78 84 90 0
20 21 27 78 84 90 0
20 21 27 78 84 90 0
20 22 23 79 80 91 0
20 22 23 79 80 91 0
20 22 23 79 80 91 0
20 22 23 79 80 91 0
20 22 24 79 81 92 0
20 22 24 79 81 92 0
20 22 24 79 81 92 0
20 22 24 79 81 92 0
20 22 25 79 82 93 0
20 22 25 79 82 93 0
20 22 25 79 82 93 0
20 22 25 79 82 93 0
20 22 26 79 83 94 0
20 22 26 79 83 94 0
20 22 26 79 83 94 0
20 22 26 79 83 94 0
20 22 27 79 84 95 0
20 22 27 79 84 95 0
20 22 27 79 84 95 0
20 22 27 79 84 95 0
20 23 24 80 81 96 0
20 23 24 80 81 96 0
20 23 24 80 81 96 0
20 23 24 80 81 96 0
20 23 25 80 82 97 0
20 23 25 80 82 97 0
20 23 25 80 82 97 0
20 23 25 80 82 97 0
20 23 26 80 83 98 0
20 23 26 80 83 98 0
20 23 26 80 83 98 0
20 23 26 80 83 98 0
20 23 27 80 84 99 0
20 23 27 80 84 99 0
20 23 27 80 84 99 0
20 23 27 80 84 99 0
20 24 25 81 82 100 0
20 24 25 81 82 100 0
20 24 25 81 82 100 0
20 24 25 81 82 100 0
20 24 26 81 83 101 0
20 24 26 81 83 101 0
20 24 26 81 83 101 0
20 24 26 81 83 101 0
20 24 27 81 84 102 0
20 24 27 81 84 102 0
20 24 27 81 84 102 0
20 24 27 81 84 102 0
20 25 26 82 83 103 0
20 25 26 82 83 103 0
20 25 26 82 83 103 0
20 25 26 82 83 103 0
20 25 27 82 84 104 0
20 25 27 82 84 104 0
20 25 27 82 84 104 0
20 25 27 82 84 104 0
20 26 27 83 84 105 0
20 26 27 83 84 105 0
20 26 27 83 84 105 0
20 26 27 83 84 105 0
21 22 23 85 86 91 0
21 22 23 85 86 91 0
21 22 23 85 86 91 0
21 22 23 85 86 91 0
21 22 24 85 87 92 0
21 22 24 85 87 92 0
21 22 24 85 87 92 0
21 22 24 85 87 92 0
21 22 25 85 88 93 0
21 22 25 85 88 93 0
21 22 25 85 88 93 0
21 22 25 85 88 93 0
21 22 26 85 89 94 0
21 22 26 85 89 94 0
21 22 26 85 89 94 0
21 22 26 85 89 94 0
21 22 27 85 90 95 0
21 22 27 85 90 95 0
21 22 27 85 90 95 0
21 22 27 85 90 95 0
21 23 24 86 87 96 0
21 23 24 86 87 96 0
21 23 24 86 87 96 0
21 23 24 86 87 96 0
21 23 25 86 88 97 0
21 23 25 86 88 97 0
21 23 25 86 88 97 0
21 23 25 86 88 97 0
21 23 26 86 89 98 0
21 23 26 86 89 98 0
21 23 26 86 89 98 0
21 23 26 86 89 98 0
21 23 27 86 90 99 0
21 23 27 86 90 99 0
21 23 27 86 90 99 0
21 23 27 86 90 99 0
21 24 25 87 88 100 0
21 24 25 87 88 100 0
21 24 25 87 88 100 0
21 24 25 87 88 100 0
21 24 26 87 89 101 0
21 24 26 87 89 101 0
21 24 26 87 89 101 0
21 24 26 87 89 101 0
21 24 27 87 90 102 0
21 24 27 87 90 102 0
21 24 27 87 90 102 0
21 24 27 87 90 102 0
21 25 26 88 89 103 0
21 25 26 88 89 103 0
21 25 26 88 89 103 0
21 25 26 88 89 103 0
21 25 27 88 90 104 0
21 25 27 88 90 104 0
21 25 27 88 90 104 0
21 25 27 88 90 104 0
21 26 27 89 90 105 0
21 26 27 89 90 105 0
21 26 27 89 90 105 0
21 26 27 89 90 105 0
22 23 24 91 92 96 0
22 23 24 91 92 96 0
22 23 24 91 92 96 0
22 23 24 91 92 96 0
22 23 25 91 93 97 0
22 23 25 91 93 97 0
22 23 25 91 93 97 0
22 23 25 91 93 97 0
22 23 26 91 94 98 0
22 23 26 91 94 98 0
22 23 26 91 94 98 0
22 23 26 91 94 98 0
22 23 27 91 95 99 0
22 23 27 91 95 99 0
22 23 27 91 95 99 0
22 23 27 91 95 99 0
22 24 25 92 93 100 0
22 24 25 92 93 100 0
22 24 25 92 93 100 0
22 24 25 92 93 100 0
22 24 26 92 94 101 0
22 24 26 92 94 101 0
22 24 26 92 94 101 0
22 24 26 92 94 101 0
22 24 27 92 95 102 0
22 24 27 92 95 102 0
22 24 27 92 95 102 0
22 24 27 92 95 102 0
22 25 26 93 94 103 0
22 25 26 93 94 103 0
22 25 26 93 94 103 0
22 25 26 93 94 103 0
22 25 27 93 95 104 0
22 25 27 93 95 104 0
22 25 27 93 95 104 0
22 25 27 93 95 104 0
22 26 27 94 95 105 0
22 26 27 94 95 105 0
22 26 27 94 95 105 0
22 26 27 94 95 105 0
23 24 25 96 97 100 0
23 24 25 96 97 100 0
23 24 25 96 97 100 0
23 24 25 96 97 100 0
23 24 26 96 98 101 0
23 24 26 96 98 101 0
23 24 26 96 98 101 0
23 24 26 96 98 101 0
23 24 27 96 99 102 0
23 24 27 96 99 102 0
23 24 27 96 99 102 0
23 24 27 96 99 102 0
23 25 26 97 98 103 0
23 25 26 97 98 103 0
23 25 26 97 98 103 0
23 25 26 97 98 103 0
23 25 27 97 99 104 0
23 25 27 97 99 104 0
23 25 27 97 99 104 0
23 25 27 97 99 104 0
23 26 27 98 99 105 0
23 26 27 98 99 105 0
23 26 27 98 99 105 0
23 26 27 98 99 105 0
24 25 26 100 101 103 0
24 25 26 100 101 103 0
24 25 26 100 101 103 0
24 25 26 100 101 103 0
24 25 27 100 102 104 0
24 25 27 100 102 104 0
24 25 27 100 102 104 0
24 25 27 100 102 104 0
24 26 27 101 102 105 0
24 26 27 101 102 105 0
24 26 27 101 102 105 0
24 26 27 101 102 105 0
25 26 27 103 104 105 0
25 26 27 103 104 105 0
25 26 27 103 104 105 0
25 26 27 103 104 105 0
28 29 30 40 41 51 0
28 29 30 40 41 51 0
28 29 30 40 41 51 0
28 29 30 40 41 51 0
28 29 31 40 42 52 0
28 29 31 40 42 52 0
28 29 31 40 42 52 0
28 29 31 40 42 52 0
28 29 32 40 43 53 0
28 29 32 40 43 53 0
28 29 32 40 43 53 0
28 29 32 40 43 53 0
28 29 33 40 44 54 0
28 29 33 40 44 54 0
28 29 33 40 44 54 0
28 29 33 40 44 54 0
28 29 34 40 45 55 0
28 29 34 40 45 55 0
28 29 34 40 45 55 0
28 29 34 40 45 55 0
28 29 35 40 46 56 0
28 29 35 40 46 56 0
28 29 35 40 46 56 0
28 29 35 40 46 56 0
28 29 36 40 47 57 0
28 29 36 40 47 57 0
28 29 36 40 47 57 0
28 29 36 40 47 57 0
28 29 37 40 48 58 0
28 29 37 40 48 58 0
28 29 37 40 48 58 0
28 29 37 40 48 58 0
28 29 38 40 49 59 0
28 29 38 40 49 59 0
28 29 38 40 49 59 0
28 29 38 40 49 59 0
28 29 39 40 50 60 0
28 29 39 40 50 60 0
28 29 39 40 50 60 0
28 29 39 40 50 60 0
28 30 31 41 42 61 0
28 30 31 41 42 61 0
28 30 31 41 42 61 0
28 30 31 41 42 61 0
28 30 32 41 43 62 0
28 30 32 41 43 62 0
28 30 32 41 43 62 0
28 30 32 41 43 62 0
28 30 33 41 44 63 0
28 30 33 41 44 63 0
28 30 33 41 44 63 0
28 30 33 41 44 63 0
28 30 34 41 45 64 0
28 30 34 41 45 64 0
28 30 34 41 45 64 0
28 30 34 41 45 64 0
28 30 35 41 46 65 0
28 30 35 41 46 65 0
28 30 35 41 46 65 0
28 30 35 41 46 65 0
28 30 36 41 47 66 0
28 30 36 41 47 66 0
28 30 36 41 47 66 0
28 30 36 41 47 66 0
28 30 37 41 48 67 0
28 30 37 41 48 67 0
28 30 37 41 48 67 0
28 30 37 41 48 67 0
28 30 38 41 49 68 0
28 30 38 41 49 68 0
28 30 38 41 49 68 0
28 30 38 41 49 68 0
28 30 39 41 50 69 0
28 30 39 41 50 69 0
28 30 39 41 50 69 0
28 30 39 41 50 69 0
28 31 32 42 43 70 0
28 31 32 42 43 70 0
28 31 32 42 43 70 0
28 31 32 42 43 70 0
28 31 33 42 44 71 0
28 31 33 42 44 71 0
28 31 33 42 44 71 0
28 31 33 42 44 71 0
28 31 34 42 45 72 0
28 31 34 42 45 72 0
28 31 34 42 45 72 0
28 31 34 42 45 72 0
28 31 35 42 46 73 0
28 31 35 42 46 73 0
28 31 35 42 46 73 0
28 31 35 42 46 73 0
28 31 36 42 47 74 0
28 31 36 42 47 74 0
28 31 36 42 47 74 0
28 31 36 42 47 74 0
28 31 37 42 48 75 0
28 31 37 42 48 75 0
28 31 37 42 48 75 0
28 31 37 42 48 75 0
28 31 38 42 49 76 0
28 31 38 42 49 76 0
28 31 38 42 49 76 0
28 31 38 42 49 76 0
28 31 39 42 50 77 0
28 31 39 42 50 77 0
28 31 39 42 50 77 0
28 31 39 42 50 77 0
28 32 33 43 44 78 0
28 32 33 43 44 78 0
28 32 33 43 44 78 0
28 32 33 43 44 78 0
28 32 34 43 45 79 0
28 32 34 43 45 79 0
28 32 34 43 45 79 0
28 32 34 43 45 79 0
28 32 35 43 46 80 0
28 32 35 43 46 80 0
28 32 35 43 46 80 0
28 32 35 43 46 80 0
28 32 36 43 47 81 0
28 32 36 43 47 81 0
28 32 36 43 47 81 0
28 32 36 43 47 81 0
28 32 37 43 48 82 0
28 32 37 43 48 82 0
28 32 37 43 48 82 0
28 32 37 43 48 82 0
28 32 38 43 49 83 0
28 32 38 43 49 83 0
28 32 38 43 49 83 0
28 32 38 43 49 83 0
28 32 39 43 50 84 0
28 32 39 43 50 84 0
28 32 39 43 50 84 0
28 32 39 43 50 84 0
28 33 34 44 45 85 0
28 33 34 44 45 85 0
28 33 34 44 45 85 0
28 33 34 44 45 85 0
28 33 35 44 46 86 0
28 33 35 44 46 86 0
28 33 35 44 46 86 0
28 33 35 44 46 86 0
28 33 36 44 47 87 0
28 33 36 44 47 87 0
28 33 36 44 47 87 0
28 33 36 44 47 87 0
28 33 37 44 48 88 0
28 33 37 44 48 88 0
28 33 37 44 48 88 0
28 33 37 44 48 88 0
28 33 38 44 49 89 0
28 33 38 44 49 89 0
28 33 38 44 49 89 0
28 33 38 44 49 89 0
28 33 39 44 50 90 0
28 33 39 44 50 90 0
28 33 39 44 50 90 0
28 33 39 44 50 90 0
28 34 35 45 46 91 0
28 34 35 45 46 91 0
28 34 35 45 46 91 0
28 34 35 45 46 91 0
28 34 36 45 47 92 0
28 34 36 45 47 92 0
28 34 36 45 47 92 0
28 34 36 45 47 92 0
28 34 37 45 48 93 0
28 34 37 45 48 93 0
28 34 37 45 48 93 0
28 34 37 45 48 93 0
28 34 38 45 49 94 0
28 34 38 45 49 94 0
28 34 38 45 49 94 0
28 34 38 45 49 94 0
28 34 39 45 50 95 0
28 34 39 45 50 95 0
28 34 39 45 50 95 0
28 34 39 45 50 95 0
28 35 36 46 47 96 0
28 35 36 46 47 96 0
28 35 36 46 47 96 0
28 35 36 46 47 96 0
28 35 37 46 48 97 0
28 35 37 46 48 97 0
28 35 37 46 48 97 0
28 35 37 46 48 97 0
28 35 38 46 49 98 0
28 35 38 46 49 98 0
28 35 38 46 49 98 0
28 35 38 46 49 98 0
28 35 39 46 50 99 0
28 35 39 46 50 99 0
28 35 39 46 50 99 0
28 35 39 46 50 99 0
28 36 37 47 48 100 0
28 36 37 47 48 100 0
28 36 37 47 48 100 0
28 36 37 47 48 100 0
28 36 38 47 49 101 0
28 36 38 47 49 101 0
28 36 38 47 49 101 0
28 36 38 47 49 101 0
28 36 39 47 50 102 0
28 36 39 47 50 102 0
28 36 39 47 50 102 0
28 36 39 47 50 102 0
28 37 38 48 49 103 0
28 37 38 48 49 103 0
28 37 38 48 49 103 0
28 37 38 48 49 103 0
28 37 39 48 50 104 0
28 37 39 48 50 104 0
28 37 39 48 50 104 0
28 37 39 48 50 104 0
28 38 39 49 50 105 0
28 38 39 49 50 105 0
28 38 39 49 50 105 0
28 38 39 49 50 105 0
29 30 31 51 52 61 0
29 30 31 51 52 61 0
29 30 31 51 52 61 0
29 30 31 51 52 61 0
29 30 32 51 53 62 0
29 30 32 51 53 62 0
29 30 32 51 53 62 0
29 30 32 51 53 62 0
29 30 33 51 54 63 0
29 30 33 51 54 63 0
29 30 33 51 54 63 0
29 30 33 51 54 63 0
29 30 34 51 55 64 0
29 30 34 51 55 64 0
29 30 34 51 55 64 0
29 30 34 51 55 64 0
29 30 35 51 56 65 0
29 30 35 51 56 65 0
29 30 35 51 56 65 0
29 30 35 51 56 65 0
29 30 36 51 57 66 0
29 30 36 51 57 66 0
29 30 36 51 57 66 0
29 30 36 51 57 66 0
29 30 37 51 58 67 0
29 30 37 51 58 67 0
29 30 37 51 58 67 0
29 30 37 51 58 67 0
29 30 38 51 59 68 0
29 30 38 51 59 68 0
29 30 38 51 59 68 0
29 30 38 51 59 68 0
29 30 39 51 60 69 0
29 30 39 51 60 69 0
29 30 39 51 60 69 0
29 30 39 51 60 69 0
29 31 32 52 53 70 0
29 31 32 52 53 70 0
29 31 32 52 53 70 0
29 31 32 52 53 70 0
29 31 33 52 54 71 0
29 31 33 52 54 71 0
29 31 33 52 54 71 0
29 31 33 52 54 71 0
29 31 34 52 55 72 0
29 31 34 52 55 72 0
29 31 34 52 55 72 0
29 31 34 52 55 72 0
29 31 35 52 56 73 0
29 31 35 52 56 73 0
29 31 35 52 56 73 0
29 31 35 52 56 73 0
29 31 36 52 57 74 0
29 31 36 52 57 74 0
29 31 36 52 57 74 0
29 31 36 52 57 74 0
29 31 37 52 58 75 0
29 31 37 52 58 75 0
29 31 37 52 58 75 0
29 31 37 52 58 75 0
29 31 38 52 59 76 0
29 31 38 52 59 76 0
29 31 38 52 59 76 0
29 31 38 52 59 76 0
29 31 39 52 60 77 0
29 31 39 52 60 77 0
29 31 39 52 60 77 0
29 31 39 52 60 77 0
29 32 33 53 54 78 0
29 32 33 53 54 78 0
29 32 33 53 54 78 0
29 32 33 53 54 78 0
29 32 34 53 55 79 0
29 32 34 53 55 79 0
29 32 34 53 55 79 0
29 32 34 53 55 79 0
29 32 35 53 56 80 0
29 32 35 53 56 80 0
29 32 35 53 56 80 0
29 32 35 53 56 80 0
29 32 36 53 57 81 0
29 32 36 53 57 81 0
29 32 36 53 57 81 0
29 32 36 53 57 81 0
29 32 37 53 58 82 0
29 32 37 53 58 82 0
29 32 37 53 58 82 0
29 32 37 53 58 82 0
29 32 38 53 59 83 0
29 32 38 53 59 83 0
29 32 38 53 59 83 0
29 32 38 53 59 83 0
29 32 39 53 60 84 0
29 32 39 53 60 84 0
29 32 39 53 60 84 0
29 32 39 53 60 84 0
29 33 34 54 55 85 0
29 33 34 54 55 85 0
29 33 34 54 55 85 0
29 33 34 54 55 85 0
29 33 35 54 56 86 0
29 33 35 54 56 86 0
29 33 35 54 56 86 0
29 33 35 54 56 86 0
29 33 36 54 57 87 0
29 33 36 54 57 87 0
29 33 36 54 57 87 0
29 33 36 54 57 87 0
29 33 37 54 58 88 0
29 33 37 54 58 88 0
29 33 37 54 58 88 0
29 33 37 54 58 88 0
29 33 38 54 59 89 0
29 33 38 54 59 89 0
29 33 38 54 59 89 0
29 33 38 54 59 89 0
29 33 39 54 60 90 0
29 33 39 54 60 90 0
29 33 39 54 60 90 0
29 33 39 54 60 90 0
29 34 35 55 56 91 0
29 34 35 55 56 91 0
29 34 35 55 56 91 0
29 34 35 55 56 91 0
29 34 36 55 57 92 0
29 34 36 55 57 92 0
29 34 36 55 57 92 0
29 34 36 55 57 92 0
29 34 37 55 58 93 0
29 34 37 55 58 93 0
29 34 37 55 58 93 0
29 34 37 55 58 93 0
29 34 38 55 59 94 0
29 34 38 55 59 94 0
29 34 38 55 59 94 0
29 34 38 55 59 94 0
29 34 39 55 60 95 0
29 34 39 55 60 95 0
29 34 39 55 60 95 0
29 34 39 55 60 95 0
29 35 36 56 57 96 0
29 35 36 56 57 96 0
29 35 36 56 57 96 0
29 35 36 56 57 96 0
29 35 37 56 58 97 0
29 35 37 56 58 97 0
29 35 37 56 58 97 0
29 35 37 56 58 97 0
29 35 38 56 59 98 0
29 35 38 56 59 98 0
29 35 38 56 59 98 0
29 35 38 56 59 98 0
29 35 39 56 60 99 0
29 35 39 56 60 99 0
29 35 39 56 60 99 0
29 35 39 56 60 99 0
29 36 37 57 58 100 0
29 36 37 57 58 100 0
29 36 37 57 58 100 0
29 36 37 57 58 100 0
29 36 38 57 59 101 0
29 36 38 57 59 101 0
29 36 38 57 59 101 0
29 36 38 57 59 101 0
29 36 39 57 60 102 0
29 36 39 57 60 102 0
29 36 39 57 60 102 0
29 36 39 57 60 102 0
29 37 38 58 59 103 0
29 37 38 58 59 103 0
29 37 38 58 59 103 0
29 37 38 58 59 103 0
29 37 39 58 60 104 0
29 37 39 58 60 104 0
29 37 39 58 60 104 0
29 37 39 58 60 104 0
29 38 39 59 60 105 0
29 38 39 59 60 105 0
29 38 39 59 60 105 0
29 38 39 59 60 105 0
30 31 32 61 62 70 0
30 31 32 61 62 70 0
30 31 32 61 62 70 0
30 31 32 61 62 70 0
30 31 33 61 63 71 0
30 31 33 61 63 71 0
30 31 33 61 63 71 0
30 31 33 61 63 71 0
30 31 34 61 64 72 0
30 31 34 61 64 72 0
30 31 34 61 64 72 0
30 31 34 61 64 72 0
30 31 35 61 65 73 0
30 31 35 61 65 73 0
30 31 35 61 65 73 0
30 31 35 61 65 73 0
30 31 36 61 66 74 0
30 31 36 61 66 74 0
30 31 36 61 66 74 0
30 31 36 61 66 74 0
30 31 37 61 67 75 0
30 31 37 61 67 75 0
30 31 37 61 67 75 0
30 31 37 61 67 75 0
30 31 38 61 68 76 0
30 31 38 61 68 76 0
30 31 38 61 68 76 0
30 31 38 61 68 76 0
30 31 39 61 69 77 0
30 31 39 61 69 77 0
30 31 39 61 69 77 0
30 31 39 61 69 77 0
30 32 33 62 63 78 0
30 32 33 62 63 78 0
30 32 33 62 63 78 0
30 32 33 62 63 78 0
30 32 34 62 64 79 0
30 32 34 62 64 79 0
30 32 34 62 64 79 0
30 32 34 62 64 79 0
30 32 35 62 65 80 0
30 32 35 62 65 80 0
30 32 35 62 65 80 0
30 32 35 62 65 80 0
30 32 36 62 66 81 0
30 32 36 62 66 81 0
30 32 36 62 66 81 0
30 32 36 62 66 81 0
30 32 37 62 67 82 0
30 32 37 62 67 82 0
30 32 37 62 67 82 0
30 32 37 62 67 82 0
30 32 38 62 68 83 0
30 32 38 62 68 83 0
30 32 38 62 68 83 0
30 32 38 62 68 83 0
30 32 39 62 69 84 0
30 32 39 62 69 84 0
30 32 39 62 69 84 0
30 32 39 62 69 84 0
30 33 34 63 64 85 0
30 33 34 63 64 85 0
30 33 34 63 64 85 0
30 33 34 63 64 85 0
30 33 35 63 65 86 0
30 33 35 63 65 86 0
30 33 35 63 65 86 0
30 33 35 63 65 86 0
30 33 36 63 66 87 0
30 33 36 63 66 87 0
30 33 36 63 66 87 0
30 33 36 63 66 87 0
30 33 37 63 67 88 0
30 33 37 63 67 88 0
30 33 37 63 67 88 0
30 33 37 63 67 88 0
30 33 38 63 68 89 0
30 33 38 63 68 89 0
30 33 38 63 68 89 0
30 33 38 63 68 89 0
30 33 39 63 69 90 0
30 33 39 63 69 90 0
30 33 39 63 69 90 0
30 33 39 63 69 90 0
30 34 35 64 65 91 0
30 34 35 64 65 91 0
30 34 35 64 65 91 0
30 34 35 64 65 91 0
30 34 36 64 66 92 0
30 34 36 64 66 92 0
30 34 36 64 66 92 0
30 34 36 64 66 92 0
30 34 37 64 67 93 0
30 34 37 64 67 93 0
30 34 37 64 67 93 0
30 34 37 64 67 93 0
30 34 38 64 68 94 0
30 34 38 64 68 94 0
30 34 38 64 68 94 0
30 34 38 64 68 94 0
30 34 39 64 69 95 0
30 34 39 64 69 95 0
30 34 39 64 69 95 0
30 34 39 64 69 95 0
30 35 36 65 66 96 0
30 35 36 65 66 96 0
30 35 36 65 66 96 0
30 35 36 65 66 96 0
30 35 37 65 67 97 0
30 35 37 65 67 97 0
30 35 37 65 67 97 0
30 35 37 65 67 97 0
30 35 38 65 68 98 0
30 35 38 65 68 98 0
30 35 38 65 68 98 0
30 35 38 65 68 98 0
30 35 39 65 69 99 0
30 35 39 65 69 99 0
30 35 39 65 69 99 0
30 35 39 65 69 99 0
30 36 37 66 67 100 0
30 36 37 66 67 100 0
30 36 37 66 67 100 0
30 36 37 66 67 100 0
30 36 38 66 68 101 0
30 36 38 66 68 101 0
30 36 38 66 68 101 0
30 36 38 66 68 101 0
30 36 39 66 69 102 0
30 36 39 66 69 102 0
30 36 39 66 69 102 0
30 36 39 66 69 102 0
30 37 38 67 68 103 0
30 37 38 67 68 103 0
30 37 38 67 68 103 0
30 37 38 67 68 103 0
30 37 39 67 69 104 0
30 37 39 67 69 104 0
30 37 39 67 69 104 0
30 37 39 67 69 104 0
30 38 39 68 69 105 0
30 38 39 68 69 105 0
30 38 39 68 69 105 0
30 38 39 68 69 105 0
31 32 33 70 71 78 0
31 32 33 70 71 78 0
31 32 33 70 71 78 0
31 32 33 70 71 78 0
31 32 34 70 72 79 0
31 32 34 70 72 79 0
31 32 34 70 72 79 0
31 32 34 70 72 79 0
31 32 35 70 73 80 0
31 32 35 70 73 80 0
31 32 35 70 73 80 0
31 32 35 70 73 80 0
31 32 36 70 74 81 0
31 32 36 70 74 81 0
31 32 36 70 74 81 0
31 32 36 70 74 81 0
31 32 37 70 75 82 0
31 32 37 70 75 82 0
31 32 37 70 75 82 0
31 32 37 70 75 82 0
31 32 38 70 76 83 0
31 32 38 70 76 83 0
31 32 38 70 76 83 0
31 32 38 70 76 83 0
31 32 39 70 77 84 0
31 32 39 70 77 84 0
31 32 39 70 77 84 0
31 32 39 70 77 84 0
31 33 34 71 72 85 0
31 33 34 71 72 85 0
31 33 34 71 72 85 0
31 33 34 71 72 85 0
31 33 35 71 73 86 0
31 33 35 71 73 86 0
31 33 35 71 73 86 0
31 33 35 71 73 86 0
31 33 36 71 74 87 0
31 33 36 71 74 87 0
31 33 36 71 74 87 0
31 33 36 71 74 87 0
31 33 37 71 75 88 0
31 33 37 71 75 88 0
31 33 37 71 75 88 0
31 33 37 71 75 88 0
31 33 38 71 76 89 0
31 33 38 71 76 89 0
31 33 38 71 76 89 0
31 33 38 71 76 89 0
31 33 39 71 77 90 0
31 33 39 71 77 90 0
31 33 39 71 77 90 0
31 33 39 71 77 90 0
31 34 35 72 73 91 0
31 34 35 72 73 91 0
31 34 35 72 73 91 0
31 34 35 72 73 91 0
31 34 36 72 74 92 0
31 34 36 72 74 92 0
31 34 36 72 74 92 0
31 34 36 72 74 92 0
31 34 37 72 75 93 0
31 34 37 72 75 93 0
31 34 37 72 75 93 0
31 34 37 72 75 93 0
31 34 38 72 76 94 0
31 34 38 72 76 94 0
31 34 38 72 76 94 0
31 34 38 72 76 94 0
31 34 39 72 77 95 0
31 34 39 72 77 95 0
31 34 39 72 77 95 0
31 34 39 72 77 95 0
31 35 36 73 74 96 0
31 35 36 73 74 96 0
31 35 36 73 74 96 0
31 35 36 73 74 96 0
31 35 37 73 75 97 0
31 35 37 73 75 97 0
31 35 37 73 75 97 0
31 35 37 73 75 97 0
31 35 38 73 76 98 0
31 35 38 73 76 98 0
31 35 38 73 76 98 0
31 35 38 73 76 98 0
31 35 39 73 77 99 0
31 35 39 73 77 99 0
31 35 39 73 77 99 0
31 35 39 73 77 99 0
31 36 37 74 75 100 0
31 36 37 74 75 100 0
31 36 37 74 75 100 0
31 36 37 74 75 100 0
31 36 38 74 76 101 0
31 36 38 74 76 101 0
31 36 38 74 76 101 0
31 36 38 74 76 101 0
31 36 39 74 77 102 0
31 36 39 74 77 102 0
31 36 39 74 77 102 0
31 36 39 74 77 102 0
31 37 38 75 76 103 0
31 37 38 75 76 103 0
31 37 38 75 76 103 0
31 37 38 75 76 103 0
31 37 39 75 77 104 0
31 37 39 75 77 104 0
31 37 39 75 77 104 0
31 37 39 75 77 104 0
31 38 39 76 77 105 0
31 38 39 76 77 105 0
31 38 39 76 77 105 0
31 38 39 76 77 105 0
32 33 34 78 79 85 0
32 33 34 78 79 85 0
32 33 34 78 79 85 0
32 33 34 78 79 85 0
32 33 35 78 80 86 0
32 33 35 78 80 86 0
32 33 35 78 80 86 0
32 33 35 78 80 86 0
32 33 36 78 81 87 0
32 33 36 78 81 87 0
32 33 36 78 81 87 0
32 33 36 78 81 87 0
32 33 37 78 82 88 0
32 33 37 78 82 88 0
32 33 37 78 82 88 0
32 33 37 78 82 88 0
32 33 38 78 83 89 0
32 33 38 78 83 89 0
32 33 38 78 83 89 0
32 33 38 78 83 89 0
32 33 39 78 84 90 0
32 33 39 78 84 90 0
32 33 39 78 84 90 0
32 33 39 78 84 90 0
32 34 35 79 80 91 0
32 34 35 79 80 91 0
32 34 35 79 80 91 0
32 34 35 79 80 91 0
32 34 36 79 81 92 0
32 34 36 79 81 92 0
32 34 36 79 81 92 0
32 34 36 79 81 92 0
32 34 37 79 82 93 0
32 34 37 79 82 93 0
32 34 37 79 82 93 0
32 34 37 79 82 93 0
32 34 38 79 83 94 0
32 34 38 79 83 94 0
32 34 38 79 83 94 0
32 34 38 79 83 94 0
32 34 39 79 84 95 0
32 34 39 79 84 95 0
32 34 39 79 84 95 0
32 34 39 79 84 95 0
32 35 36 80 81 96 0
32 35 36 80 81 96 0
32 35 36 80 81 96 0
32 35 36 80 81 96 0
32 35 37 80 82 97 0
32 35 37 80 82 97 0
32 35 37 80 82 97 0
32 35 37 80 82 97 0
32 35 38 80 83 98 0
32 35 38 80 83 98 0
32 35 38 80 83 98 0
32 35 38 80 83 98 0
32 35 39 80 84 99 0
32 35 39 80 84 99 0
32 35 39 80 84 99 0
32 35 39 80 84 99 0
32 36 37 81 82 100 0
32 36 37 81 82 100 0
32 36 37 81 82 100 0
32 36 37 81 82 100 0
32 36 38 81 83 101 0
32 36 38 81 83 101 0
32 36 38 81 83 101 0
32 36 38 81 83 101 0
32 36 39 81 84 102 0
32 36 39 81 84 102 0
32 36 39 81 84 102 0
32 36 39 81 84 102 0
32 37 38 82 83 103 0
32 37 38 82 83 103 0
32 37 38 82 83 103 0
32 37 38 82 83 103 0
32 37 39 82 84 104 0
32 37 39 82 84 104 0
32 37 39 82 84 104 0
32 37 39 82 84 104 0
32 38 39 83 84 105 0
32 38 39 83 84 105 0
32 38 39 83 84 105 0
32 38 39 83 84 105 0
33 34 35 85 86 91 0
33 34 35 85 86 91 0
33 34 35 85 86 91 0
33 34 35 85 86 91 0
33 34 36 85 87 92 0
33 34 36 85 87 92 0
33 34 36 85 87 92 0
33 34 36 85 87 92 0
33 34 37 85 88 93 0
33 34 37 85 88 93 0
33 34 37 85 88 93 0
33 34 37 85 88 93 0
33 34 38 85 89 94 0
33 34 38 85 89 94 0
33 34 38 85 89 94 0
33 34 38 85 89 94 0
33 34 39 85 90 95 0
33 34 39 85 90 95 0
33 34 39 85 90 95 0
33 34 39 85 90 95 0
33 35 36 86 87 96 0
33 35 36 86 87 96 0
33 35 36 86 87 96 0
33 35 36 86 87 96 0
33 35 37 86 88 97 0
33 35 37 86 88 97 0
33 35 37 86 88 97 0
33 35 37 86 88 97 0
33 35 38 86 89 98 0
33 35 38 86 89 98 0
33 35 38 86 89 98 0
33 35 38 86 89 98 0
33 35 39 86 90 99 0
33 35 39 86 90 99 0
33 35 39 86 90 99 0
33 35 39 86 90 99 0
33 36 37 87 88 100 0
33 36 37 87 88 100 0
33 36 37 87 88 100 0
33 36 37 87 88 100 0
33 36 38 87 89 101 0
33 36 38 87 89 101 0
33 36 38 87 89 101 0
33 36 38 87 89 101 0
33 36 39 87 90 102 0
33 36 39 87 90 102 0
33 36 39 87 90 102 0
33 36 39 87 90 102 0
33 37 38 88 89 103 0
33 37 38 88 89 103 0
33 37 38 88 89 103 0
33 37 38 88 89 103 0
33 37 39 88 90 104 0
33 37 39 88 90 104 0
33 37 39 88 90 104 0
33 37 39 88 90 104 0
33 38 39 89 90 105 0
33 38 39 89 90 105 0
33 38 39 89 90 105 0
33 38 39 89 90 105 0
34 35 36 91 92 96 0
34 35 36 91 92 96 0
34 35 36 91 92 96 0
34 35 36 91 92 96 0
34 35 37 91 93 97 0
34 35 37 91 93 97 0
34 35 37 91 93 97 0
34 35 37 91 93 97 0
34 35 38 91 94 98 0
34 35 38 91 94 98 0
34 35 38 91 94 98 0
34 35 38 91 94 98 0
34 35 39 91 95 99 0
34 35 39 91 95 99 0
34 35 39 91 95 99 0
34 35 39 91 95 99 0
34 36 37 92 93 100 0
34 36 37 92 93 100 0
34 36 37 92 93 100 0
34 36 37 92 93 100 0
34 36 38 92 94 101 0
34 36 38 92 94 101 0
34 36 38 92 94 101 0
34 36 38 92 94 101 0
34 36 39 92 95 102 0
34 36 39 92 95 102 0
34 36 39 92 95 102 0
34 36 39 92 95 102 0
34 37 38 93 94 103 0
34 37 38 93 94 103 0
34 37 38 93 94 103 0
34 37 38 93 94 103 0
34 37 39 93 95 104 0
34 37 39 93 95 104 0
34 37 39 93 95 104 0
34 37 39 93 95 104 0
34 38 39 94 95 105 0
34 38 39 94 95 105 0
34 38 39 94 95 105 0
34 38 39 94 95 105 0
35 36 37 96 97 100 0
35 36 37 96 97 100 0
35 36 37 96 97 100 0
35 36 37 96 97 100 0
35 36 38 96 98 101 0
35 36 38 96 98 101 0
35 36 38 96 98 101 0
35 36 38 96 98 101 0
35 36 39 96 99 102 0
35 36 39 96 99 102 0
35 36 39 96 99 102 0
35 36 39 96 99 102 0
35 37 38 97 98 103 0
35 37 38 97 98 103 0
35 37 38 97 98 103 0
35 37 38 97 98 103 0
35 37 39 97 99 104 0
35 37 39 97 99 104 0
35 37 39 97 99 104 0
35 37 39 97 99 104 0
35 38 39 98 99 105 0
35 38 39 98 99 105 0
35 38 39 98 99 105 0
35 38 39 98 99 105 0
36 37 38 100 101 103 0
36 37 38 100 101 103 0
36 37 38 100 101 103 0
36 37 38 100 101 103 0
36 37 39 100 102 104 0
36 37 39 100 102 104 0
36 37 39 100 102 104 0
36 37 39 100 102 104 0
36 38 39 101 102 105 0
36 38 39 101 102 105 0
36 38 39 101 102 105 0
36 38 39 101 102 105 0
37 38 39 103 104 105 0
37 38 39 103 104 105 0
37 38 39 103 104 105 0
37 38 39 103 104 105 0
40 41 42 51 52 61 0
40 41 42 51 52 61 0
40 41 42 51 52 61 0
40 41 42 51 52 61 0
40 41 43 51 53 62 0
40 41 43 51 53 62 0
40 41 43 51 53 62 0
40 41 43 51 53 62 0
40 41 44 51 54 63 0
40 41 44 51 54 63 0
40 41 44 51 54 63 0
40 41 44 51 54 63 0
40 41 45 51 55 64 0
40 41 45 51 55 64 0
40 41 45 51 55 64 0
40 41 45 51 55 64 0
40 41 46 51 56 65 0
40 41 46 51 56 65 0
40 41 46 51 56 65 0
40 41 46 51 56 65 0
40 41 47 51 57 66 0
40 41 47 51 57 66 0
40 41 47 51 57 66 0
40 41 47 51 57 66 0
40 41 48 51 58 67 0
40 41 48 51 58 67 0
40 41 48 51 58 67 0
40 41 48 51 58 67 0
40 41 49 51 59 68 0
40 41 49 51 59 68 0
40 41 49 51 59 68 0
40 41 49 51 59 68 0
40 41 50 51 60 69 0
40 41 50 51 60 69 0
40 41 50 51 60 69 0
40 41 50 51 60 69 0
40 42 43 52 53 70 0
40 42 43 52 53 70 0
40 42 43 52 53 70 0
40 42 43 52 53 70 0
40 42 44 52 54 71 0
40 42 44 52 54 71 0
40 42 44 52 54 71 0
40 42 44 52 54 71 0
40 42 45 52 55 72 0
40 42 45 52 55 72 0
40 42 45 52 55 72 0
40 42 45 52 55 72 0
40 42 46 52 56 73 0
40 42 46 52 56 73 0
40 42 46 52 56 73 0
40 42 46 52 56 73 0
40 42 47 52 57 74 0
40 42 47 52 57 74 0
40 42 47 52 57 74 0
40 42 47 52 57 74 0
40 42 48 52 58 75 0
40 42 48 52 58 75 0
40 42 48 52 58 75 0
40 42 48 52 58 75 0
40 42 49 52 59 76 0
40 42 49 52 59 76 0
40 42 49 52 59 76 0
40 42 49 52 59 76 0
40 42 50 52 60 77 0
40 42 50 52 60 77 0
40 42 50 52 60 77 0
40 42 50 52 60 77 0
40 43 44 53 54 78 0
40 43 44 53 54 78 0
40 43 44 53 54 78 0
40 43 44 53 54 78 0
40 43 45 53 55 79 0
40 43 45 53 55 79 0
40 43 45 53 55 79 0
40 43 45 53 55 79 0
40 43 46 53 56 80 0
40 43 46 53 56 80 0
40 43 46 53 56 80 0
40 43 46 53 56 80 0
40 43 47 53 57 81 0
40 43 47 53 57 81 0
40 43 47 53 57 81 0
40 43 47 53 57 81 0
40 43 48 53 58 82 0
40 43 48 53 58 82 0
40 43 48 53 58 82 0
40 43 48 53 58 82 0
40 43 49 53 59 83 0
40 43 49 53 59 83 0
40 43 49 53 59 83 0
40 43 49 53 59 83 0
40 43 50 53 60 84 0
40 43 50 53 60 84 0
40 43 50 53 60 84 0
40 43 50 53 60 84 0
40 44 45 54 55 85 0
40 44 45 54 55 85 0
40 44 45 54 55 85 0
40 44 45 54 55 85 0
40 44 46 54 56 86 0
40 44 46 54 56 86 0
40 44 46 54 56 86 0
40 44 46 54 56 86 0
40 44 47 54 57 87 0
40 44 47 54 57 87 0
40 44 47 54 57 87 0
40 44 47 54 57 87 0
40 44 48 54 58 88 0
40 44 48 54 58 88 0
40 44 48 54 58 88 0
40 44 48 54 58 88 0
40 44 49 54 59 89 0
40 44 49 54 59 89 0
40 44 49 54 59 89 0
40 44 49 54 59 89 0
40 44 50 54 60 90 0
40 44 50 54 60 90 0
40 44 50 54 60 90 0
40 44 50 54 60 90 0
40 45 46 55 56 91 0
40 45 46 55 56 91 0
40 45 46 55 56 91 0
40 45 46 55 56 91 0
40 45 47 55 57 92 0
40 45 47 55 57 92 0
40 45 47 55 57 92 0
40 45 47 55 57 92 0
40 45 48 55 58 93 0
40 45 48 55 58 93 0
40 45 48 55 58 93 0
40 45 48 55 58 93 0
40 45 49 55 59 94 0
40 45 49 55 59 94 0
40 45 49 55 59 94 0
40 45 49 55 59 94 0
40 45 50 55 60 95 0
40 45 50 55 60 95 0
40 45 50 55 60 95 0
40 45 50 55 60 95 0
40 46 47 56 57 96 0
40 46 47 56 57 96 0
40 46 47 56 57 96 0
40 46 47 56 57 96 0
40 46 48 56 58 97 0
40 46 48 56 58 97 0
40 46 48 56 58 97 0
40 46 48 56 58 97 0
40 46 49 56 59 98 0
40 46 49 56 59 98 0
40 46 49 56 59 98 0
40 46 49 56 59 98 0
40 46 50 56 60 99 0
40 46 50 56 60 99 0
40 46 50 56 60 99 0
40 46 50 56 60 99 0
40 47 48 57 58 100 0
40 47 48 57 58 100 0
40 47 48 57 58 100 0
40 47 48 57 58 100 0
40 47 49 57 59 101 0
40 47 49 57 59 101 0
40 47 49 57 59 101 0
40 47 49 57 59 101 0
40 47 50 57 60 102 0
40 47 50 57 60 102 0
40 47 50 57 60 102 0
40 47 50 57 60 102 0
40 48 49 58 59 103 0
40 48 49 58 59 103 0
40 48 49 58 59 103 0
40 48 49 58 59 103 0
40 48 50 58 60 104 0
40 48 50 58 60 104 0
40 48 50 58 60 104 0
40 48 50 58 60 104 0
40 49 50 59 60 105 0
40 49 50 59 60 105 0
40 49 50 59 60 105 0
40 49 50 59 60 105 0
41 42 43 61 62 70 0
41 42 43 61 62 70 0
41 42 43 61 62 70 0
41 42 43 61 62 70 0
41 42 44 61 63 71 0
41 42 44 61 63 71 0
41 42 44 61 63 71 0
41 42 44 61 63 71 0
41 42 45 61 64 72 0
41 42 45 61 64 72 0
41 42 45 61 64 72 0
41 42 45 61 64 72 0
41 42 46 61 65 73 0
41 42 46 61 65 73 0
41 42 46 61 65 73 0
41 42 46 61 65 73 0
41 42 47 61 66 74 0
41 42 47 61 66 74 0
41 42 47 61 66 74 0
41 42 47 61 66 74 0
41 42 48 61 67 75 0
41 42 48 61 67 75 0
41 42 48 61 67 75 0
41 42 48 61 67 75 0
41 42 49 61 68 76 0
41 42 49 61 68 76 0
41 42 49 61 68 76 0
41 42 49 61 68 76 0
41 42 50 61 69 77 0
41 42 50 61 69 77 0
41 42 50 61 69 77 0
41 42 50 61 69 77 0
41 43 44 62 63 78 0
41 43 44 62 63 78 0
41 43 44 62 63 78 0
41 43 44 62 63 78 0
41 43 45 62 64 79 0
41 43 45 62 64 79 0
41 43 45 62 64 79 0
41 43 45 62 64 79 0
41 43 46 62 65 80 0
41 43 46 62 65 80 0
41 43 46 62 65 80 0
41 43 46 62 65 80 0
41 43 47 62 66 81 0
41 43 47 62 66 81 0
41 43 47 62 66 81 0
41 43 47 62 66 81 0
41 43 48 62 67 82 0
41 43 48 62 67 82 0
41 43 48 62 67 82 0
41 43 48 62 67 82 0
41 43 49 62 68 83 0
41 43 49 62 68 83 0
41 43 49 62 68 83 0
41 43 49 62 68 83 0
41 43 50 62 69 84 0
41 43 50 62 69 84 0
41 43 50 62 69 84 0
41 43 50 62 69 84 0
41 44 45 63 64 85 0
41 44 45 63 64 85 0
41 44 45 63 64 85 0
41 44 45 63 64 85 0
41 44 46 63 65 86 0
41 44 46 63 65 86 0
41 44 46 63 65 86 0
41 44 46 63 65 86 0
41 44 47 63 66 87 0
41 44 47 63 66 87 0
41 44 47 63 66 87 0
41 44 47 63 66 87 0
41 44 48 63 67 88 0
41 44 48 63 67 88 0
41 44 48 63 67 88 0
41 44 48 63 67 88 0
41 44 49 63 68 89 0
41 44 49 63 68 89 0
41 44 49 63 68 89 0
41 44 49 63 68 89 0
41 44 50 63 69 90 0
41 44 50 63 69 90 0
41 44 50 63 69 90 0
41 44 50 63 69 90 0
41 45 46 64 65 91 0
41 45 46 64 65 91 0
41 45 46 64 65 91 0
41 45 46 64 65 91 0
41 45 47 64 66 92 0
41 45 47 64 66 92 0
41 45 47 64 66 92 0
41 45 47 64 66 92 0
41 45 48 64 67 93 0
41 45 48 64 67 93 0
41 45 48 64 67 93 0
41 45 48 64 67 93 0
41 45 49 64 68 94 0
41 45 49 64 68 94 0
41 45 49 64 68 94 0
41 45 49 64 68 94 0
41 45 50 64 69 95 0
41 45 50 64 69 95 0
41 45 50 64 69 95 0
41 45 50 64 69 95 0
41 46 47 65 66 96 0
41 46 47 65 66 96 0
41 46 47 65 66 96 0
41 46 47 65 66 96 0
41 46 48 65 67 97 0
41 46 48 65 67 97 0
41 46 48 65 67 97 0
41 46 48 65 67 97 0
41 46 49 65 68 98 0
41 46 49 65 68 98 0
41 46 49 65 68 98 0
41 46 49 65 68 98 0
41 46 50 65 69 99 0
41 46 50 65 69 99 0
41 46 50 65 69 99 0
41 46 50 65 69 99 0
41 47 48 66 67 100 0
41 47 48 66 67 100 0
41 47 48 66 67 100 0
41 47 48 66 67 100 0
41 47 49 66 68 101 0
41 47 49 66 68 101 0
41 47 49 66 68 101 0
41 47 49 66 68 101 0
41 47 50 66 69 102 0
41 47 50 66 69 102 0
41 47 50 66 69 102 0
41 47 50 66 69 102 0
41 48 49 67 68 103 0
41 48 49 67 68 103 0
41 48 49 67 68 103 0
41 48 49 67 68 103 0
41 48 50 67 69 104 0
41 48 50 67 69 104 0
41 48 50 67 69 104 0
41 48 50 67 69 104 0
41 49 50 68 69 105 0
41 49 50 68 69 105 0
41 49 50 68 69 105 0
41 49 50 68 69 105 0
42 43 44 70 71 78 0
42 43 44 70 71 78 0
42 43 44 70 71 78 0
42 43 44 70 71 78 0
42 43 45 70 72 79 0
42 43 45 70 72 79 0
42 43 45 70 72 79 0
42 43 45 70 72 79 0
42 43 46 70 73 80 0
42 43 46 70 73 80 0
42 43 46 70 73 80 0
42 43 46 70 73 80 0
42 43 47 70 74 81 0
42 43 47 70 74 81 0
42 43 47 70 74 81 0
42 43 47 70 74 81 0
42 43 48 70 75 82 0
42 43 48 70 75 82 0
42 43 48 70 75 82 0
42 43 48 70 75 82 0
42 43 49 70 76 83 0
42 43 49 70 76 83 0
42 43 49 70 76 83 0
42 43 49 70 76 83 0
42 43 50 70 77 84 0
42 43 50 70 77 84 0
42 43 50 70 77 84 0
42 43 50 70 77 84 0
42 44 45 71 72 85 0
42 44 45 71 72 85 0
42 44 45 71 72 85 0
42 44 45 71 72 85 0
42 44 46 71 73 86 0
42 44 46 71 73 86 0
42 44 46 71 73 86 0
42 44 46 71 73 86 0
42 44 47 71 74 87 0
42 44 47 71 74 87 0
42 44 47 71 74 87 0
42 44 47 71 74 87 0
42 44 48 71 75 88 0
42 44 48 71 75 88 0
42 44 48 71 75 88 0
42 44 48 71 75 88 0
42 44 49 71 76 89 0
42 44 49 71 76 89 0
42 44 49 71 76 89 0
42 44 49 71 76 89 0
42 44 50 71 77 90 0
42 44 50 71 77 90 0
42 44 50 71 77 90 0
42 44 50 71 77 90 0
42 45 46 72 73 91 0
42 45 46 72 73 91 0
42 45 46 72 73 91 0
42 45 46 72 73 91 0
42 45 47 72 74 92 0
42 45 47 72 74 92 0
42 45 47 72 74 92 0
42 45 47 72 74 92 0
42 45 48 72 75 93 0
42 45 48 72 75 93 0
42 45 48 72 75 93 0
42 45 48 72 75 93 0
42 45 49 72 76 94 0
42 45 49 72 76 94 0
42 45 49 72 76 94 0
42 45 49 72 76 94 0
42 45 50 72 77 95 0
42 45 50 72 77 95 0
42 45 50 72 77 95 0
42 45 50 72 77 95 0
42 46 47 73 74 96 0
42 46 47 73 74 96 0
42 46 47 73 74 96 0
42 46 47 73 74 96 0
42 46 48 73 75 97 0
42 46 48 73 75 97 0
42 46 48 73 75 97 0
42 46 48 73 75 97 0
42 46 49 73 76 98 0
42 46 49 73 76 98 0
42 46 49 73 76 98 0
42 46 49 73 76 98 0
42 46 50 73 77 99 0
42 46 50 73 77 99 0
42 46 50 73 77 99 0
42 46 50 73 77 99 0
42 47 48 74 75 100 0
42 47 48 74 75 100 0
42 47 48 74 75 100 0
42 47 48 74 75 100 0
42 47 49 74 76 101 0
42 47 49 74 76 101 0
42 47 49 74 76 101 0
42 47 49 74 76 101 0
42 47 50 74 77 102 0
42 47 50 74 77 102 0
42 47 50 74 77 102 0
42 47 50 74 77 102 0
42 48 49 75 76 103 0
42 48 49 75 76 103 0
42 48 49 75 76 103 0
42 48 49 75 76 103 0
42 48 50 75 77 104 0
42 48 50 75 77 104 0
42 48 50 75 77 104 0
42 48 50 75 77 104 0
42 49 50 76 77 105 0
42 49 50 76 77 105 0
42 49 50 76 77 105 0
42 49 50 76 77 105 0
43 44 45 78 79 85 0
43 44 45 78 79 85 0
43 44 45 78 79 85 0
43 44 45 78 79 85 0
43 44 46 78 80 86 0
43 44 46 78 80 86 0
43 44 46 78 80 86 0
43 44 46 78 80 86 0
43 44 47 78 81 87 0
43 44 47 78 81 87 0
43 44 47 78 81 87 0
43 44 47 78 81 87 0
43 44 48 78 82 88 0
43 44 48 78 82 88 0
43 44 48 78 82 88 0
43 44 48 78 82 88 0
43 44 49 78 83 89 0
43 44 49 78 83 89 0
43 44 49 78 83 89 0
43 44 49 78 83 89 0
43 44 50 78 84 90 0
43 44 50 78 84 90 0
43 44 50 78 84 90 0
43 44 50 78 84 90 0
43 45 46 79 80 91 0
43 45 46 79 80 91 0
43 45 46 79 80 91 0
43 45 46 79 80 91 0
43 45 47 79 81 92 0
43 45 47 79 81 92 0
43 45 47 79 81 92 0
43 45 47 79 81 92 0
43 45 48 79 82 93 0
43 45 48 79 82 93 0
43 45 48 79 82 93 0
43 45 48 79 82 93 0
43 45 49 79 83 94 0
43 45 49 79 83 94 0
43 45 49 79 83 94 0
43 45 49 79 83 94 0
43 45 50 79 84 95 0
43 45 50 79 84 95 0
43 45 50 79 84 95 0
43 45 50 79 84 95 0
43 46 47 80 81 96 0
43 46 47 80 81 96 0
43 46 47 80 81 96 0
43 46 47 80 81 96 0
43 46 48 80 82 97 0
43 46 48 80 82 97 0
43 46 48 80 82 97 0
43 46 48 80 82 97 0
43 46 49 80 83 98 0
43 46 49 80 83 98 0
43 46 49 80 83 98 0
43 46 49 80 83 98 0
43 46 50 80 84 99 0
43 46 50 80 84 99 0
43 46 50 80 84 99 0
43 46 50 80 84 99 0
43 47 48 81 82 100 0
43 47 48 81 82 100 0
43 47 48 81 82 100 0
43 47 48 81 82 100 0
43 47 49 81 83 101 0
43 47 49 81 83 101 0
43 47 49 81 83 101 0
43 47 49 81 83 101 0
43 47 50 81 84 102 0
43 47 50 81 84 102 0
43 47 50 81 84 102 0
43 47 50 81 84 102 0
43 48 49 82 83 103 0
43 48 49 82 83 103 0
43 48 49 82 83 103 0
43 48 49 82 83 103 0
43 48 50 82 84 104 0
43 48 50 82 84 104 0
43 48 50 82 84 104 0
43 48 50 82 84 104 0
43 49 50 83 84 105 0
43 49 50 83 84 105 0
43 49 50 83 84 105 0
43 49 50 83 84 105 0
44 45 46 85 86 91 0
44 45 46 85 86 91 0
44 45 46 85 86 91 0
44 45 46 85 86 91 0
44 45 47 85 87 92 0
44 45 47 85 87 92 0
44 45 47 85 87 92 0
44 45 47 85 87 92 0
44 45 48 85 88 93 0
44 45 48 85 88 93 0
44 45 48 85 88 93 0
44 45 48 85 88 93 0
44 45 49 85 89 94 0
44 45 49 85 89 94 0
44 45 49 85 89 94 0
44 45 49 85 89 94 0
44 45 50 85 90 95 0
44 45 50 85 90 95 0
44 45 50 85 90 95 0
44 45 50 85 90 95 0
44 46 47 86 87 96 0
44 46 47 86 87 96 0
44 46 47 86 87 96 0
44 46 47 86 87 96 0
44 46 48 86 88 97 0
44 46 48 86 88 97 0
44 46 48 86 88 97 0
44 46 48 86 88 97 0
44 46 49 86 89 98 0
44 46 49 86 89 98 0
44 46 49 86 89 98 0
44 46 49 86 89 98 0
44 46 50 86 90 99 0
44 46 50 86 90 99 0
44 46 50 86 90 99 0
44 46 50 86 90 99 0
44 47 48 87 88 100 0
44 47 48 87 88 100 0
44 47 48 87 88 100 0
44 47 48 87 88 100 0
44 47 49 87 89 101 0
44 47 49 87 89 101 0
44 47 49 87 89 101 0
44 47 49 87 89 101 0
44 47 50 87 90 102 0
44 47 50 87 90 102 0
44 47 50 87 90 102 0
44 47 50 87 90 102 0
44 48 49 88 89 103 0
44 48 49 88 89 103 0
44 48 49 88 89 103 0
44 48 49 88 89 103 0
44 48 50 88 90 104 0
44 48 50 88 90 104 0
44 48 50 88 90 104 0
44 48 50 88 90 104 0
44 49 50 89 90 105 0
44 49 50 89 90 105 0
44 49 50 89 90 105 0
44 49 50 89 90 105 0
45 46 47 91 92 96 0
45 46 47 91 92 96 0
45 46 47 91 92 96 0
45 46 47 91 92 96 0
45 46 48 91 93 97 0
45 46 48 91 93 97 0
45 46 48 91 93 97 0
45 46 48 91 93 97 0
45 46 49 91 94 98 0
45 46 49 91 94 98 0
45 46 49 91 94 98 0
45 46 49 91 94 98 0
45 46 50 91 95 99 0
45 46 50 91 95 99 0
45 46 50 91 95 99 0
45 46 50 91 95 99 0
45 47 48 92 93 100 0
45 47 48 92 93 100 0
45 47 48 92 93 100 0
45 47 48 92 93 100 0
45 47 49 92 94 101 0
45 47 49 92 94 101 0
45 47 49 92 94 101 0
45 47 49 92 94 101 0
45 47 50 92 95 102 0
45 47 50 92 95 102 0
45 47 50 92 95 102 0
45 47 50 92 95 102 0
45 48 49 93 94 103 0
45 48 49 93 94 103 0
45 48 49 93 94 103 0
45 48 49 93 94 103 0
45 48 50 93 95 104 0
45 48 50 93 95 104 0
45 48 50 93 95 104 0
45 48 50 93 95 104 0
45 49 50 94 95 105 0
45 49 50 94 95 105 0
45 49 50 94 95 105 0
45 49 50 94 95 105 0
46 47 48 96 97 100 0
46 47 48 96 97 100 0
46 47 48 96 97 100 0
46 47 48 96 97 100 0
46 47 49 96 98 101 0
46 47 49 96 98 101 0
46 47 49 96 98 101 0
46 47 49 96 98 101 0
46 47 50 96 99 102 0
46 47 50 96 99 102 0
46 47 50 96 99 102 0
46 47 50 96 99 102 0
46 48 49 97 98 103 0
46 48 49 97 98 103 0
46 48 49 97 98 103 0
46 48 49 97 98 103 0
46 48 50 97 99 104 0
46 48 50 97 99 104 0
46 48 50 97 99 104 0
46 48 50 97 99 104 0
46 49 50 98 99 105 0
46 49 50 98 99 105 0
46 49 50 98 99 105 0
46 49 50 98 99 105 0
47 48 49 100 101 103 0
47 48 49 100 101 103 0
47 48 49 100 101 103 0
47 48 49 100 101 103 0
47 48 50 100 102 104 0
47 48 50 100 102 104 0
47 48 50 100 102 104 0
47 48 50 100 102 104 0
47 49 50 101 102 105 0
47 49 50 101 102 105 0
47 49 50 101 102 105 0
47 49 50 101 102 105 0
48 49 50 103 104 105 0
48 49 50 103 104 105 0
48 49 50 103 104 105 0
48 49 50 103 104 105 0
51 52 53 61 62 70 0
51 52 53 61 62 70 0
51 52 53 61 62 70 0
51 52 53 61 62 70 0
51 52 54 61 63 71 0
51 52 54 61 63 71 0
51 52 54 61 63 71 0
51 52 54 61 63 71 0
51 52 55 61 64 72 0
51 52 55 61 64 72 0
51 52 55 61 64 72 0
51 52 55 61 64 72 0
51 52 56 61 65 73 0
51 52 56 61 65 73 0
51 52 56 61 65 73 0
51 52 56 61 65 73 0
51 52 57 61 66 74 0
51 52 57 61 66 74 0
51 52 57 61 66 74 0
51 52 57 61 66 74 0
51 52 58 61 67 75 0
51 52 58 61 67 75 0
51 52 58 61 67 75 0
51 52 58 61 67 75 0
51 52 59 61 68 76 0
51 52 59 61 68 76 0
51 52 59 61 68 76 0
51 52 59 61 68 76 0
51 52 60 61 69 77 0
51 52 60 61 69 77 0
51 52 60 61 69 77 0
51 52 60 61 69 77 0
51 53 54 62 63 78 0
51 53 54 62 63 78 0
51 53 54 62 63 78 0
51 53 54 62 63 78 0
51 53 55 62 64 79 0
51 53 55 62 64 79 0
51 53 55 62 64 79 0
51 53 55 62 64 79 0
51 53 56 62 65 80 0
51 53 56 62 65 80 0
51 53 56 62 65 80 0
51 53 56 62 65 80 0
51 53 57 62 66 81 0
51 53 57 62 66 81 0
51 53 57 62 66 81 0
51 53 57 62 66 81 0
51 53 58 62 67 82 0
51 53 58 62 67 82 0
51 53 58 62 67 82 0
51 53 58 62 67 82 0
51 53 59 62 68 83 0
51 53 59 62 68 83 0
51 53 59 62 68 83 0
51 53 59 62 68 83 0
51 53 60 62 69 84 0
51 53 60 62 69 84 0
51 53 60 62 69 84 0
51 53 60 62 69 84 0
51 54 55 63 64 85 0
51 54 55 63 64 85 0
51 54 55 63 64 85 0
51 54 55 63 64 85 0
51 54 56 63 65 86 0
51 54 56 63 65 86 0
51 54 56 63 65 86 0
51 54 56 63 65 86 0
51 54 57 63 66 87 0
51 54 57 63 66 87 0
51 54 57 63 66 87 0
51 54 57 63 66 87 0
51 54 58 63 67 88 0
51 54 58 63 67 88 0
51 54 58 63 67 88 0
51 54 58 63 67 88 0
51 54 59 63 68 89 0
51 54 59 63 68 89 0
51 54 59 63 68 89 0
51 54 59 63 68 89 0
51 54 60 63 69 90 0
51 54 60 63 69 90 0
51 54 60 63 69 90 0
51 54 60 63 69 90 0
51 55 56 64 65 91 0
51 55 56 64 65 91 0
51 55 56 64 65 91 0
51 55 56 64 65 91 0
51 55 57 64 66 92 0
51 55 57 64 66 92 0
51 55 57 64 66 92 0
51 55 57 64 66 92 0
51 55 58 64 67 93 0
51 55 58 64 67 93 0
51 55 58 64 67 93 0
51 55 58 64 67 93 0
51 55 59 64 68 94 0
51 55 59 64 68 94 0
51 55 59 64 68 94 0
51 55 59 64 68 94 0
51 55 60 64 69 95 0
51 55 60 64 69 95 0
51 55 60 64 69 95 0
51 55 60 64 69 95 0
51 56 57 65 66 96 0
51 56 57 65 66 96 0
51 56 57 65 66 96 0
51 56 57 65 66 96 0
51 56 58 65 67 97 0
51 56 58 65 67 97 0
51 56 58 65 67 97 0
51 56 58 65 67 97 0
51 56 59 65 68 98 0
51 56 59 65 68 98 0
51 56 59 65 68 98 0
51 56 59 65 68 98 0
51 56 60 65 69 99 0
51 56 60 65 69 99 0
51 56 60 65 69 99 0
51 56 60 65 69 99 0
51 57 58 66 67 100 0
51 57 58 66 67 100 0
51 57 58 66 67 100 0
51 57 58 66 67 100 0
51 57 59 66 68 101 0
51 57 59 66 68 101 0
51 57 59 66 68 101 0
51 57 59 66 68 101 0
51 57 60 66 69 102 0
51 57 60 66 69 102 0
51 57 60 66 69 102 0
51 57 60 66 69 102 0
51 58 59 67 68 103 0
51 58 59 67 68 103 0
51 58 59 67 68 103 0
51 58 59 67 68 103 0
51 58 60 67 69 104 0
51 58 60 67 69 104 0
51 58 60 67 69 104 0
51 58 60 67 69 104 0
51 59 60 68 69 105 0
51 59 60 68 69 105 0
51 59 60 68 69 105 0
51 59 60 68 69 105 0
52 53 54 70 71 78 0
52 53 54 70 71 78 0
52 53 54 70 71 78 0
52 53 54 70 71 78 0
52 53 55 70 72 79 0
52 53 55 70 72 79 0
52 53 55 70 72 79 0
52 53 55 70 72 79 0
52 53 56 70 73 80 0
52 53 56 70 73 80 0
52 53 56 70 73 80 0
52 53 56 70 73 80 0
52 53 57 70 74 81 0
52 53 57 70 74 81 0
52 53 57 70 74 81 0
52 53 57 70 74 81 0
52 53 58 70 75 82 0
52 53 58 70 75 82 0
52 53 58 70 75 82 0
52 53 58 70 75 82 0
52 53 59 70 76 83 0
52 53 59 70 76 83 0
52 53 59 70 76 83 0
52 53 59 70 76 83 0
52 53 60 70 77 84 0
52 53 60 70 77 84 0
52 53 60 70 77 84 0
52 53 60 70 77 84 0
52 54 55 71 72 85 0
52 54 55 71 72 85 0
52 54 55 71 72 85 0
52 54 55 71 72 85 0
52 54 56 71 73 86 0
52 54 56 71 73 86 0
52 54 56 71 73 86 0
52 54 56 71 73 86 0
52 54 57 71 74 87 0
52 54 57 71 74 87 0
52 54 57 71 74 87 0
52 54 57 71 74 87 0
52 54 58 71 75 88 0
52 54 58 71 75 88 0
52 54 58 71 75 88 0
52 54 58 71 75 88 0
52 54 59 71 76 89 0
52 54 59 71 76 89 0
52 54 59 71 76 89 0
52 54 59 71 76 89 0
52 54 60 71 77 90 0
52 54 60 71 77 90 0
52 54 60 71 77 90 0
52 54 60 71 77 90 0
52 55 56 72 73 91 0
52 55 56 72 73 91 0
52 55 56 72 73 91 0
52 55 56 72 73 91 0
52 55 57 72 74 92 0
52 55 57 72 74 92 0
52 55 57 72 74 92 0
52 55 57 72 74 92 0
52 55 58 72 75 93 0
52 55 58 72 75 93 0
52 55 58 72 75 93 0
52 55 58 72 75 93 0
52 55 59 72 76 94 0
52 55 59 72 76 94 0
52 55 59 72 76 94 0
52 55 59 72 76 94 0
52 55 60 72 77 95 0
52 55 60 72 77 95 0
52 55 60 72 77 95 0
52 55 60 72 77 95 0
52 56 57 73 74 96 0
52 56 57 73 74 96 0
52 56 57 73 74 96 0
52 56 57 73 74 96 0
52 56 58 73 75 97 0
52 56 58 73 75 97 0
52 56 58 73 75 97 0
52 56 58 73 75 97 0
52 56 59 73 76 98 0
52 56 59 73 76 98 0
52 56 59 73 76 98 0
52 56 59 73 76 98 0
52 56 60 73 77 99 0
52 56 60 73 77 99 0
52 56 60 73 77 99 0
52 56 60 73 77 99 0
52 57 58 74 75 100 0
52 57 58 74 75 100 0
52 57 58 74 75 100 0
52 57 58 74 75 100 0
52 57 59 74 76 101 0
52 57 59 74 76 101 0
52 57 59 74 76 101 0
52 57 59 74 76 101 0
52 57 60 74 77 102 0
52 57 60 74 77 102 0
52 57 60 74 77 102 0
52 57 60 74 77 102 0
52 58 59 75 76 103 0
52 58 59 75 76 103 0
52 58 59 75 76 103 0
52 58 59 75 76 103 0
52 58 60 75 77 104 0
52 58 60 75 77 104 0
52 58 60 75 77 104 0
52 58 60 75 77 104 0
52 59 60 76 77 105 0
52 59 60 76 77 105 0
52 59 60 76 77 105 0
52 59 60 76 77 105 0
53 54 55 78 79 85 0
53 54 55 78 79 85 0
53 54 55 78 79 85 0
53 54 55 78 79 85 0
53 54 56 78 80 86 0
53 54 56 78 80 86 0
53 54 56 78 80 86 0
53 54 56 78 80 86 0
53 54 57 78 81 87 0
53 54 57 78 81 87 0
53 54 57 78 81 87 0
53 54 57 78 81 87 0
53 54 58 78 82 88 0
53 54 58 78 82 88 0
53 54 58 78 82 88 0
53 54 58 78 82 88 0
53 54 59 78 83 89 0
53 54 59 78 83 89 0
53 54 59 78 83 89 0
53 54 59 78 83 89 0
53 54 60 78 84 90 0
53 54 60 78 84 90 0
53 54 60 78 84 90 0
53 54 60 78 84 90 0
53 55 56 79 80 91 0
53 55 56 79 80 91 0
53 55 56 79 80 91 0
53 55 56 79 80 91 0
53 55 57 79 81 92 0
53 55 57 79 81 92 0
53 55 57 79 81 92 0
53 55 57 79 81 92 0
53 55 58 79 82 93 0
53 55 58 79 82 93 0
53 55 58 79 82 93 0
53 55 58 79 82 93 0
53 55 59 79 83 94 0
53 55 59 79 83 94 0
53 55 59 79 83 94 0
53 55 59 79 83 94 0
53 55 60 79 84 95 0
53 55 60 79 84 95 0
53 55 60 79 84 95 0
53 55 60 79 84 95 0
53 56 57 80 81 96 0
53 56 57 80 81 96 0
53 56 57 80 81 96 0
53 56 57 80 81 96 0
53 56 58 80 82 97 0
53 56 58 80 82 97 0
53 56 58 80 82 97 0
53 56 58 80 82 97 0
53 56 59 80 83 98 0
53 56 59 80 83 98 0
53 56 59 80 83 98 0
53 56 59 80 83 98 0
53 56 60 80 84 99 0
53 56 60 80 84 99 0
53 56 60 80 84 99 0
53 56 60 80 84 99 0
53 57 58 81 82 100 0
53 57 58 81 82 100 0
53 57 58 81 82 100 0
53 57 58 81 82 100 0
53 57 59 81 83 101 0
53 57 59 81 83 101 0
53 57 59 81 83 101 0
53 57 59 81 83 101 0
53 57 60 81 84 102 0
53 57 60 81 84 102 0
53 57 60 81 84 102 0
53 57 60 81 84 102 0
53 58 59 82 83 103 0
53 58 59 82 83 103 0
53 58 59 82 83 103 0
53 58 59 82 83 103 0
53 58 60 82 84 104 0
53 58 60 82 84 104 0
53 58 60 82 84 104 0
53 58 60 82 84 104 0
53 59 60 83 84 105 0
53 59 60 83 84 105 0
53 59 60 83 84 105 0
53 59 60 83 84 105 0
54 55 56 85 86 91 0
54 55 56 85 86 91 0
54 55 56 85 86 91 0
54 55 56 85 86 91 0
54 55 57 85 87 92 0
54 55 57 85 87 92 0
54 55 57 85 87 92 0
54 55 57 85 87 92 0
54 55 58 85 88 93 0
54 55 58 85 88 93 0
54 55 58 85 88 93 0
54 55 58 85 88 93 0
54 55 59 85 89 94 0
54 55 59 85 89 94 0
54 55 59 85 89 94 0
54 55 59 85 89 94 0
54 55 60 85 90 95 0
54 55 60 85 90 95 0
54 55 60 85 90 95 0
54 55 60 85 90 95 0
54 56 57 86 87 96 0
54 56 57 86 87 96 0
54 56 57 86 87 96 0
54 56 57 86 87 96 0
54 56 58 86 88 97 0
54 56 58 86 88 97 0
54 56 58 86 88 97 0
54 56 58 86 88 97 0
54 56 59 86 89 98 0
54 56 59 86 89 98 0
54 56 59 86 89 98 0
54 56 59 86 89 98 0
54 56 60 86 90 99 0
54 56 60 86 90 99 0
54 56 60 86 90 99 0
54 56 60 86 90 99 0
54 57 58 87 88 100 0
54 57 58 87 88 100 0
54 57 58 87 88 100 0
54 57 58 87 88 100 0
54 57 59 87 89 101 0
54 57 59 87 89 101 0
54 57 59 87 89 101 0
54 57 59 87 89 101 0
54 57 60 87 90 102 0
54 57 60 87 90 102 0
54 57 60 87 90 102 0
54 57 60 87 90 102 0
54 58 59 88 89 103 0
54 58 59 88 89 103 0
54 58 59 88 89 103 0
54 58 59 88 89 103 0
54 58 60 88 90 104 0
54 58 60 88 90 104 0
54 58 60 88 90 104 0
54 58 60 88 90 104 0
54 59 60 89 90 105 0
54 59 60 89 90 105 0
54 59 60 89 90 105 0
54 59 60 89 90 105 0
55 56 57 91 92 96 0
55 56 57 91 92 96 0
55 56 57 91 92 96 0
55 56 57 91 92 96 0
55 56 58 91 93 97 0
55 56 58 91 93 97 0
55 56 58 91 93 97 0
55 56 58 91 93 97 0
55 56 59 91 94 98 0
55 56 59 91 94 98 0
55 56 59 91 94 98 0
55 56 59 91 94 98 0
55 56 60 91 95 99 0
55 56 60 91 95 99 0
55 56 60 91 95 99 0
55 56 60 91 95 99 0
55 57 58 92 93 100 0
55 57 58 92 93 100 0
55 57 58 92 93 100 0
55 57 58 92 93 100 0
55 57 59 92 94 101 0
55 57 59 92 94 101 0
55 57 59 92 94 101 0
55 57 59 92 94 101 0
55 57 60 92 95 102 0
55 57 60 92 95 102 0
55 57 60 92 95 102 0
55 57 60 92 95 102 0
55 58 59 93 94 103 0
55 58 59 93 94 103 0
55 58 59 93 94 103 0
55 58 59 93 94 103 0
55 58 60 93 95 104 0
55 58 60 93 95 104 0
55 58 60 93 95 104 0
55 58 60 93 95 104 0
55 59 60 94 95 105 0
55 59 60 94 95 105 0
55 59 60 94 95 105 0
55 59 60 94 95 105 0
56 57 58 96 97 100 0
56 57 58 96 97 100 0
56 57 58 96 97 100 0
56 57 58 96 97 100 0
56 57 59 96 98 101 0
56 57 59 96 98 101 0
56 57 59 96 98 101 0
56 57 59 96 98 101 0
56 57 60 96 99 102 0
56 57 60 96 99 102 0
56 57 60 96 99 102 0
56 57 60 96 99 102 0
56 58 59 97 98 103 0
56 58 59 97 98 103 0
56 58 59 97 98 103 0
56 58 59 97 98 103 0
56 58 60 97 99 104 0
56 58 60 97 99 104 0
56 58 60 97 99 104 0
56 58 60 97 99 104 0
56 59 60 98 99 105 0
56 59 60 98 99 105 0
56 59 60 98 99 105 0
56 59 60 98 99 105 0
57 58 59 100 101 103 0
57 58 59 100 101 103 0
57 58 59 100 101 103 0
57 58 59 100 101 103 0
57 58 60 100 102 104 0
57 58 60 100 102 104 0
57 58 60 100 102 104 0
57 58 60 100 102 104 0
57 59 60 101 102 105 0
57 59 60 101 102 105 0
57 59 60 101 102 105 0
57 59 60 101 102 105 0
58 59 60 103 104 105 0
58 59 60 103 104 105 0
58 59 60 103 104 105 0
58 59 60 103 104 105 0
61 62 63 70 71 78 0
61 62 63 70 71 78 0
61 62 63 70 71 78 0
61 62 63 70 71 78 0
61 62 64 70 72 79 0
61 62 64 70 72 79 0
61 62 64 70 72 79 0
61 62 64 70 72 79 0
61 62 65 70 73 80 0
61 62 65 70 73 80 0
61 62 65 70 73 80 0
61 62 65 70 73 80 0
61 62 66 70 74 81 0
61 62 66 70 74 81 0
61 62 66 70 74 81 0
61 62 66 70 74 81 0
61 62 67 70 75 82 0
61 62 67 70 75 82 0
61 62 67 70 75 82 0
61 62 67 70 75 82 0
61 62 68 70 76 83 0
61 62 68 70 76 83 0
61 62 68 70 76 83 0
61 62 68 70 76 83 0
61 62 69 70 77 84 0
61 62 69 70 77 84 0
61 62 69 70 77 84 0
61 62 69 70 77 84 0
61 63 64 71 72 85 0
61 63 64 71 72 85 0
61 63 64 71 72 85 0
61 63 64 71 72 85 0
61 63 65 71 73 86 0
61 63 65 71 73 86 0
61 63 65 71 73 86 0
61 63 65 71 73 86 0
61 63 66 71 74 87 0
61 63 66 71 74 87 0
61 63 66 71 74 87 0
61 63 66 71 74 87 0
61 63 67 71 75 88 0
61 63 67 71 75 88 0
61 63 67 71 75 88 0
61 63 67 71 75 88 0
61 63 68 71 76 89 0
61 63 68 71 76 89 0
61 63 68 71 76 89 0
61 63 68 71 76 89 0
61 63 69 71 77 90 0
61 63 69 71 77 90 0
61 63 69 71 77 90 0
61 63 69 71 77 90 0
61 64 65 72 73 91 0
61 64 65 72 73 91 0
61 64 65 72 73 91 0
61 64 65 72 73 91 0
61 64 66 72 74 92 0
61 64 66 72 74 92 0
61 64 66 72 74 92 0
61 64 66 72 74 92 0
61 64 67 72 75 93 0
61 64 67 72 75 93 0
61 64 67 72 75 93 0
61 64 67 72 75 93 0
61 64 68 72 76 94 0
61 64 68 72 76 94 0
61 64 68 72 76 94 0
61 64 68 72 76 94 0
61 64 69 72 77 95 0
61 64 69 72 77 95 0
61 64 69 72 77 95 0
61 64 69 72 77 95 0
61 65 66 73 74 96 0
61 65 66 73 74 96 0
61 65 66 73 74 96 0
61 65 66 73 74 96 0
61 65 67 73 75 97 0
61 65 67 73 75 97 0
61 65 67 73 75 97 0
61 65 67 73 75 97 0
61 65 68 73 76 98 0
61 65 68 73 76 98 0
61 65 68 73 76 98 0
61 65 68 73 76 98 0
61 65 69 73 77 99 0
61 65 69 73 77 99 0
61 65 69 73 77 99 0
61 65 69 73 77 99 0
61 66 67 74 75 100 0
61 66 67 74 75 100 0
61 66 67 74 75 100 0
61 66 67 74 75 100 0
61 66 68 74 76 101 0
61 66 68 74 76 101 0
61 66 68 74 76 101 0
61 66 68 74 76 101 0
61 66 69 74 77 102 0
61 66 69 74 77 102 0
61 66 69 74 77 102 0
61 66 69 74 77 102 0
61 67 68 75 76 103 0
61 67 68 75 76 103 0
61 67 68 75 76 103 0
61 67 68 75 76 103 0
61 67 69 75 77 104 0
61 67 69 75 77 104 0
61 67 69 75 77 104 0
61 67 69 75 77 104 0
61 68 69 76 77 105 0
61 68 69 76 77 105 0
61 68 69 76 77 105 0
61 68 69 76 77 105 0
62 63 64 78 79 85 0
62 63 64 78 79 85 0
62 63 64 78 79 85 0
62 63 64 78 79 85 0
62 63 65 78 80 86 0
62 63 65 78 80 86 0
62 63 65 78 80 86 0
62 63 65 78 80 86 0
62 63 66 78 81 87 0
62 63 66 78 81 87 0
62 63 66 78 81 87 0
62 63 66 78 81 87 0
62 63 67 78 82 88 0
62 63 67 78 82 88 0
62 63 67 78 82 88 0
62 63 67 78 82 88 0
62 63 68 78 83 89 0
62 63 68 78 83 89 0
62 63 68 78 83 89 0
62 63 68 78 83 89 0
62 63 69 78 84 90 0
62 63 69 78 84 90 0
62 63 69 78 84 90 0
62 63 69 78 84 90 0
62 64 65 79 80 91 0
62 64 65 79 80 91 0
62 64 65 79 80 91 0
62 64 65 79 80 91 0
62 64 66 79 81 92 0
62 64 66 79 81 92 0
62 64 66 79 81 92 0
62 64 66 79 81 92 0
62 64 67 79 82 93 0
62 64 67 79 82 93 0
62 64 67 79 82 93 0
62 64 67 79 82 93 0
62 64 68 79 83 94 0
62 64 68 79 83 94 0
62 64 68 79 83 94 0
62 64 68 79 83 94 0
62 64 69 79 84 95 0
62 64 69 79 84 95 0
62 64 69 79 84 95 0
62 64 69 79 84 95 0
62 65 66 80 81 96 0
62 65 66 80 81 96 0
62 65 66 80 81 96 0
62 65 66 80 81 96 0
62 65 67 80 82 97 0
62 65 67 80 82 97 0
62 65 67 80 82 97 0
62 65 67 80 82 97 0
62 65 68 80 83 98 0
62 65 68 80 83 98 0
62 65 68 80 83 98 0
62 65 68 80 83 98 0
62 65 69 80 84 99 0
62 65 69 80 84 99 0
62 65 69 80 84 99 0
62 65 69 80 84 99 0
62 66 67 81 82 100 0
62 66 67 81 82 100 0
62 66 67 81 82 100 0
62 66 67 81 82 100 0
62 66 68 81 83 101 0
62 66 68 81 83 101 0
62 66 68 81 83 101 0
62 66 68 81 83 101 0
62 66 69 81 84 102 0
62 66 69 81 84 102 0
62 66 69 81 84 102 0
62 66 69 81 84 102 0
62 67 68 82 83 103 0
62 67 68 82 83 103 0
62 67 68 82 83 103 0
62 67 68 82 83 103 0
62 67 69 82 84 104 0
62 67 69 82 84 104 0
62 67 69 82 84 104 0
62 67 69 82 84 104 0
62 68 69 83 84 105 0
62 68 69 83 84 105 0
62 68 69 83 84 105 0
62 68 69 83 84 105 0
63 64 65 85 86 91 0
63 64 65 85 86 91 0
63 64 65 85 86 91 0
63 64 65 85 86 91 0
63 64 66 85 87 92 0
63 64 66 85 87 92 0
63 64 66 85 87 92 0
63 64 66 85 87 92 0
63 64 67 85 88 93 0
63 64 67 85 88 93 0
63 64 67 85 88 93 0
63 64 67 85 88 93 0
63 64 68 85 89 94 0
63 64 68 85 89 94 0
63 64 68 85 89 94 0
63 64 68 85 89 94 0
63 64 69 85 90 95 0
63 64 69 85 90 95 0
63 64 69 85 90 95 0
63 64 69 85 90 95 0
63 65 66 86 87 96 0
63 65 66 86 87 96 0
63 65 66 86 87 96 0
63 65 66 86 87 96 0
63 65 67 86 88 97 0
63 65 67 86 88 97 0
63 65 67 86 88 97 0
63 65 67 86 88 97 0
63 65 68 86 89 98 0
63 65 68 86 89 98 0
63 65 68 86 89 98 0
63 65 68 86 89 98 0
63 65 69 86 90 99 0
63 65 69 86 90 99 0
63 65 69 86 90 99 0
63 65 69 86 90 99 0
63 66 67 87 88 100 0
63 66 67 87 88 100 0
63 66 67 87 88 100 0
63 66 67 87 88 100 0
63 66 68 87 89 101 0
63 66 68 87 89 101 0
63 66 68 87 89 101 0
63 66 68 87 89 101 0
63 66 69 87 90 102 0
63 66 69 87 90 102 0
63 66 69 87 90 102 0
63 66 69 87 90 102 0
63 67 68 88 89 103 0
63 67 68 88 89 103 0
63 67 68 88 89 103 0
63 67 68 88 89 103 0
63 67 69 88 90 104 0
63 67 69 88 90 104 0
63 67 69 88 90 104 0
63 67 69 88 90 104 0
63 68 69 89 90 105 0
63 68 69 89 90 105 0
63 68 69 89 90 105 0
63 68 69 89 90 105 0
64 65 66 91 92 96 0
64 65 66 91 92 96 0
64 65 66 91 92 96 0
64 65 66 91 92 96 0
64 65 67 91 93 97 0
64 65 67 91 93 97 0
64 65 67 91 93 97 0
64 65 67 91 93 97 0
64 65 68 91 94 98 0
64 65 68 91 94 98 0
64 65 68 91 94 98 0
64 65 68 91 94 98 0
64 65 69 91 95 99 0
64 65 69 91 95 99 0
64 65 69 91 95 99 0
64 65 69 91 95 99 0
64 66 67 92 93 100 0
64 66 67 92 93 100 0
64 66 67 92 93 100 0
64 66 67 92 93 100 0
64 66 68 92 94 101 0
64 66 68 92 94 101 0
64 66 68 92 94 101 0
64 66 68 92 94 101 0
64 66 69 92 95 102 0
64 66 69 92 95 102 0
64 66 69 92 95 102 0
64 66 69 92 95 102 0
64 67 68 93 94 103 0
64 67 68 93 94 103 0
64 67 68 93 94 103 0
64 67 68 93 94 103 0
64 67 69 93 95 104 0
64 67 69 93 95 104 0
64 67 69 93 95 104 0
64 67 69 93 95 104 0
64 68 69 94 95 105 0
64 68 69 94 95 105 0
64 68 69 94 95 105 0
64 68 69 94 95 105 0
65 66 67 96 97 100 0
65 66 67 96 97 100 0
65 66 67 96 97 100 0
65 66 67 96 97 100 0
65 66 68 96 98 101 0
65 66 68 96 98 101 0
65 66 68 96 98 101 0
65 66 68 96 98 101 0
65 66 69 96 99 102 0
65 66 69 96 99 102 0
65 66 69 96 99 102 0
65 66 69 96 99 102 0
65 67 68 97 98 103 0
65 67 68 97 98 103 0
65 67 68 97 98 103 0
65 67 68 97 98 103 0
65 67 69 97 99 104 0
65 67 69 97 99 104 0
65 67 69 97 99 104 0
65 67 69 97 99 104 0
65 68 69 98 99 105 0
65 68 69 98 99 105 0
65 68 69 98 99 105 0
65 68 69 98 99 105 0
66 67 68 100 101 103 0
66 67 68 100 101 103 0
66 67 68 100 101 103 0
66 67 68 100 101 103 0
66 67 69 100 102 104 0
66 67 69 100 102 104 0
66 67 69 100 102 104 0
66 67 69 100 102 104 0
66 68 69 101 102 105 0
66 68 69 101 102 105 0
66 68 69 101 102 105 0
66 68 69 101 102 105 0
67 68 69 103 104 105 0
67 68 69 103 104 105 0
67 68 69 103 104 105 0
67 68 69 103 104 105 0
70 71 72 78 79 85 0
70 71 72 78 79 85 0
70 71 72 78 79 85 0
70 71 72 78 79 85 0
70 71 73 78 80 86 0
70 71 73 78 80 86 0
70 71 73 78 80 86 0
70 71 73 78 80 86 0
70 71 74 78 81 87 0
70 71 74 78 81 87 0
70 71 74 78 81 87 0
70 71 74 78 81 87 0
70 71 75 78 82 88 0
70 71 75 78 82 88 0
70 71 75 78 82 88 0
70 71 75 78 82 88 0
70 71 76 78 83 89 0
70 71 76 78 83 89 0
70 71 76 78 83 89 0
70 71 76 78 83 89 0
70 71 77 78 84 90 0
70 71 77 78 84 90 0
70 71 77 78 84 90 0
70 71 77 78 84 90 0
70 72 73 79 80 91 0
70 72 73 79 80 91 0
70 72 73 79 80 91 0
70 72 73 79 80 91 0
70 72 74 79 81 92 0
70 72 74 79 81 92 0
70 72 74 79 81 92 0
70 72 74 79 81 92 0
70 72 75 79 82 93 0
70 72 75 79 82 93 0
70 72 75 79 82 93 0
70 72 75 79 82 93 0
70 72 76 79 83 94 0
70 72 76 79 83 94 0
70 72 76 79 83 94 0
70 72 76 79 83 94 0
70 72 77 79 84 95 0
70 72 77 79 84 95 0
70 72 77 79 84 95 0
70 72 77 79 84 95 0
70 73 74 80 81 96 0
70 73 74 80 81 96 0
70 73 74 80 81 96 0
70 73 74 80 81 96 0
70 73 75 80 82 97 0
70 73 75 80 82 97 0
70 73 75 80 82 97 0
70 73 75 80 82 97 0
70 73 76 80 83 98 0
70 73 76 80 83 98 0
70 73 76 80 83 98 0
70 73 76 80 83 98 0
70 73 77 80 84 99 0
70 73 77 80 84 99 0
70 73 77 80 84 99 0
70 73 77 80 84 99 0
70 74 75 81 82 100 0
70 74 75 81 82 100 0
70 74 75 81 82 100 0
70 74 75 81 82 100 0
70 74 76 81 83 101 0
70 74 76 81 83 101 0
70 74 76 81 83 101 0
70 74 76 81 83 101 0
70 74 77 81 84 102 0
70 74 77 81 84 102 0
70 74 77 81 84 102 0
70 74 77 81 84 102 0
70 75 76 82 83 103 0
70 75 76 82 83 103 0
70 75 76 82 83 103 0
70 75 76 82 83 103 0
70 75 77 82 84 104 0
70 75 77 82 84 104 0
70 75 77 82 84 104 0
70 75 77 82 84 104 0
70 76 77 83 84 105 0
70 76 77 83 84 105 0
70 76 77 83 84 105 0
70 76 77 83 84 105 0
71 72 73 85 86 91 0
71 72 73 85 86 91 0
71 72 73 85 86 91 0
71 72 73 85 86 91 0
71 72 74 85 87 92 0
71 72 74 85 87 92 0
71 72 74 85 87 92 0
71 72 74 85 87 92 0
71 72 75 85 88 93 0
71 72 75 85 88 93 0
71 72 75 85 88 93 0
71 72 75 85 88 93 0
71 72 76 85 89 94 0
71 72 76 85 89 94 0
71 72 76 85 89 94 0
71 72 76 85 89 94 0
71 72 77 85 90 95 0
71 72 77 85 90 95 0
71 72 77 85 90 95 0
71 72 77 85 90 95 0
71 73 74 86 87 96 0
71 73 74 86 87 96 0
71 73 74 86 87 96 0
71 73 74 86 87 96 0
71 73 75 86 88 97 0
71 73 75 86 88 97 0
71 73 75 86 88 97 0
71 73 75 86 88 97 0
71 73 76 86 89 98 0
71 73 76 86 89 98 0
71 73 76 86 89 98 0
71 73 76 86 89 98 0
71 73 77 86 90 99 0
71 73 77 86 90 99 0
71 73 77 86 90 99 0
71 73 77 86 90 99 0
71 74 75 87 88 100 0
71 74 75 87 88 100 0
71 74 75 87 88 100 0
71 74 75 87 88 100 0
71 74 76 87 89 101 0
71 74 76 87 89 101 0
71 74 76 87 89 101 0
71 74 76 87 89 101 0
71 74 77 87 90 102 0
71 74 77 87 90 102 0
71 74 77 87 90 102 0
71 74 77 87 90 102 0
71 75 76 88 89 103 0
71 75 76 88 89 103 0
71 75 76 88 89 103 0
71 75 76 88 89 103 0
71 75 77 88 90 104 0
71 75 77 88 90 104 0
71 75 77 88 90 104 0
71 75 77 88 90 104 0
71 76 77 89 90 105 0
71 76 77 89 90 105 0
71 76 77 89 90 105 0
71 76 77 89 90 105 0
72 73 74 91 92 96 0
72 73 74 91 92 96 0
72 73 74 91 92 96 0
72 73 74 91 92 96 0
72 73 75 91 93 97 0
72 73 75 91 93 97 0
72 73 75 91 93 97 0
72 73 75 91 93 97 0
72 73 76 91 94 98 0
72 73 76 91 94 98 0
72 73 76 91 94 98 0
72 73 76 91 94 98 0
72 73 77 91 95 99 0
72 73 77 91 95 99 0
72 73 77 91 95 99 0
72 73 77 91 95 99 0
72 74 75 92 93 100 0
72 74 75 92 93 100 0
72 74 75 92 93 100 0
72 74 75 92 93 100 0
72 74 76 92 94 101 0
72 74 76 92 94 101 0
72 74 76 92 94 101 0
72 74 76 92 94 101 0
72 74 77 92 95 102 0
72 74 77 92 95 102 0
72 74 77 92 95 102 0
72 74 77 92 95 102 0
72 75 76 93 94 103 0
72 75 76 93 94 103 0
72 75 76 93 94 103 0
72 75 76 93 94 103 0
72 75 77 93 95 104 0
72 75 77 93 95 104 0
72 75 77 93 95 104 0
72 75 77 93 95 104 0
72 76 77 94 95 105 0
72 76 77 94 95 105 0
72 76 77 94 95 105 0
72 76 77 94 95 105 0
73 74 75 96 97 100 0
73 74 75 96 97 100 0
73 74 75 96 97 100 0
73 74 75 96 97 100 0
73 74 76 96 98 101 0
73 74 76 96 98 101 0
73 74 76 96 98 101 0
73 74 76 96 98 101 0
73 74 77 96 99 102 0
73 74 77 96 99 102 0
73 74 77 96 99 102 0
73 74 77 96 99 102 0
73 75 76 97 98 103 0
73 75 76 97 98 103 0
73 75 76 97 98 103 0
73 75 76 97 98 103 0
73 75 77 97 99 104 0
73 75 77 97 99 104 0
73 75 77 97 99 104 0
73 75 77 97 99 104 0
73 76 77 98 99 105 0
73 76 77 98 99 105 0
73 76 77 98 99 105 0
73 76 77 98 99 105 0
74 75 76 100 101 103 0
74 75 76 100 101 103 0
74 75 76 100 101 103 0
74 75 76 100 101 103 0
74 75 77 100 102 104 0
74 75 77 100 102 104 0
74 75 77 100 102 104 0
74 75 77 100 102 104 0
74 76 77 101 102 105 0
74 76 77 101 102 105 0
74 76 77 101 102 105 0
74 76 77 101 102 105 0
75 76 77 103 104 105 0
75 76 77 103 104 105 0
75 76 77 103 104 105 0
75 76 77 103 104 105 0
78 79 80 85 86 91 0
78 79 80 85 86 91 0
78 79 80 85 86 91 0
78 79 80 85 86 91 0
78 79 81 85 87 92 0
78 79 81 85 87 92 0
78 79 81 85 87 92 0
78 79 81 85 87 92 0
78 79 82 85 88 93 0
78 79 82 85 88 93 0
78 79 82 85 88 93 0
78 79 82 85 88 93 0
78 79 83 85 89 94 0
78 79 83 85 89 94 0
78 79 83 85 89 94 0
78 79 83 85 89 94 0
78 79 84 85 90 95 0
78 79 84 85 90 95 0
78 79 84 85 90 95 0
78 79 84 85 90 95 0
78 80 81 86 87 96 0
78 80 81 86 87 96 0
78 80 81 86 87 96 0
78 80 81 86 87 96 0
78 80 82 86 88 97 0
78 80 82 86 88 97 0
78 80 82 86 88 97 0
78 80 82 86 88 97 0
78 80 83 86 89 98 0
78 80 83 86 89 98 0
78 80 83 86 89 98 0
78 80 83 86 89 98 0
78 80 84 86 90 99 0
78 80 84 86 90 99 0
78 80 84 86 90 99 0
78 80 84 86 90 99 0
78 81 82 87 88 100 0
78 81 82 87 88 100 0
78 81 82 87 88 100 0
78 81 82 87 88 100 0
78 81 83 87 89 101 0
78 81 83 87 89 101 0
78 81 83 87 89 101 0
78 81 83 87 89 101 0
78 81 84 87 90 102 0
78 81 84 87 90 102 0
78 81 84 87 90 102 0
78 81 84 87 90 102 0
78 82 83 88 89 103 0
78 82 83 88 89 103 0
78 82 83 88 89 103 0
78 82 83 88 89 103 0
78 82 84 88 90 104 0
78 82 84 88 90 104 0
78 82 84 88 90 104 0
78 82 84 88 90 104 0
78 83 84 89 90 105 0
78 83 84 89 90 105 0
78 83 84 89 90 105 0
78 83 84 89 90 105 0
79 80 81 91 92 96 0
79 80 81 91 92 96 0
79 80 81 91 92 96 0
79 80 81 91 92 96 0
79 80 82 91 93 97 0
79 80 82 91 93 97 0
79 80 82 91 93 97 0
79 80 82 91 93 97 0
79 80 83 91 94 98 0
79 80 83 91 94 98 0
79 80 83 91 94 98 0
79 80 83 91 94 98 0
79 80 84 91 95 99 0
79 80 84 91 95 99 0
79 80 84 91 95 99 0
79 80 84 91 95 99 0
79 81 82 92 93 100 0
79 81 82 92 93 100 0
79 81 82 92 93 100 0
79 81 82 92 93 100 0
79 81 83 92 94 101 0
79 81 83 92 94 101 0
79 81 83 92 94 101 0
79 81 83 92 94 101 0
79 81 84 92 95 102 0
79 81 84 92 95 102 0
79 81 84 92 95 102 0
79 81 84 92 95 102 0
79 82 83 93 94 103 0
79 82 83 93 94 103 0
79 82 83 93 94 103 0
79 82 83 93 94 103 0
79 82 84 93 95 104 0
79 82 84 93 95 104 0
79 82 84 93 95 104 0
79 82 84 93 95 104 0
79 83 84 94 95 105 0
79 83 84 94 95 105 0
79 83 84 94 95 105 0
79 83 84 94 95 105 0
80 81 82 96 97 100 0
80 81 82 96 97 100 0
80 81 82 96 97 100 0
80 81 82 96 97 100 0
80 81 83 96 98 101 0
80 81 83 96 98 101 0
80 81 83 96 98 101 0
80 81 83 96 98 101 0
80 81 84 96 99 102 0
80 81 84 96 99 102 0
80 81 84 96 99 102 0
80 81 84 96 99 102 0
80 82 83 97 98 103 0
80 82 83 97 98 103 0
80 82 83 97 98 103 0
80 82 83 97 98 103 0
80 82 84 97 99 104 0
80 82 84 97 99 104 0
80 82 84 97 99 104 0
80 82 84 97 99 104 0
80 83 84 98 99 105 0
80 83 84 98 99 105 0
80 83 84 98 99 105 0
80 83 84 98 99 105 0
81 82 83 100 101 103 0
81 82 83 100 101 103 0
81 82 83 100 101 103 0
81 82 83 100 101 103 0
81 82 84 100 102 104 0
81 82 84 100 102 104 0
81 82 84 100 102 104 0
81 82 84 100 102 104 0
81 83 84 101 102 105 0
81 83 84 101 102 105 0
81 83 84 101 102 105 0
81 83 84 101 102 105 0
82 83 84 103 104 105 0
82 83 84 103 104 105 0
82 83 84 103 104 105 0
82 83 84 103 104 105 0
85 86 87 91 92 96 0
85 86 87 91 92 96 0
85 86 87 91 92 96 0
85 86 87 91 92 96 0
85 86 88 91 93 97 0
85 86 88 91 93 97 0
85 86 88 91 93 97 0
85 86 88 91 93 97 0
85 86 89 91 94 98 0
85 86 89 91 94 98 0
85 86 89 91 94 98 0
85 86 89 91 94 98 0
85 86 90 91 95 99 0
85 86 90 91 95 99 0
85 86 90 91 95 99 0
85 86 90 91 95 99 0
85 87 88 92 93 100 0
85 87 88 92 93 100 0
85 87 88 92 93 100 0
85 87 88 92 93 100 0
85 87 89 92 94 101 0
85 87 89 92 94 101 0
85 87 89 92 94 101 0
85 87 89 92 94 101 0
85 87 90 92 95 102 0
85 87 90 92 95 102 0
85 87 90 92 95 102 0
85 87 90 92 95 102 0
85 88 89 93 94 103 0
85 88 89 93 94 103 0
85 88 89 93 94 103 0
85 88 89 93 94 103 0
85 88 90 93 95 104 0
85 88 90 93 95 104 0
85 88 90 93 95 104 0
85 88 90 93 95 104 0
85 89 90 94 95 105 0
85 89 90 94 95 105 0
85 89 90 94 95 105 0
85 89 90 94 95 105 0
86 87 88 96 97 100 0
86 87 88 96 97 100 0
86 87 88 96 97 100 0
86 87 88 96 97 100 0
86 87 89 96 98 101 0
86 87 89 96 98 101 0
86 87 89 96 98 101 0
86 87 89 96 98 101 0
86 87 90 96 99 102 0
86 87 90 96 99 102 0
86 87 90 96 99 102 0
86 87 90 96 99 102 0
86 88 89 97 98 103 0
86 88 89 97 98 103 0
86 88 89 97 98 103 0
86 88 89 97 98 103 0
86 88 90 97 99 104 0
86 88 90 97 99 104 0
86 88 90 97 99 104 0
86 88 90 97 99 104 0
86 89 90 98 99 105 0
86 89 90 98 99 105 0
86 89 90 98 99 105 0
86 89 90 98 99 105 0
87 88 89 100 101 103 0
87 88 89 100 101 103 0
87 88 89 100 101 103 0
87 88 89 100 101 103 0
87 88 90 100 102 104 0
87 88 90 100 102 104 0
87 88 90 100 102 104 0
87 88 90 100 102 104 0
87 89 90 101 102 105 0
87 89 90 101 102 105 0
87 89 90 101 102 105 0
87 89 90 101 102 105 0
88 89 90 103 104 105 0
88 89 90 103 104 105 0
88 89 90 103 104 105 0
88 89 90 103 104 105 0
91 92 93 96 97 100 0
91 92 93 96 97 100 0
91 92 93 96 97 100 0
91 92 93 96 97 100 0
91 92 94 96 98 101 0
91 92 94 96 98 101 0
91 92 94 96 98 101 0
91 92 94 96 98 101 0
91 92 95 96 99 102 0
91 92 95 96 99 102 0
91 92 95 96 99 102 0
91 92 95 96 99 102 0
91 93 94 97 98 103 0
91 93 94 97 98 103 0
91 93 94 97 98 103 0
91 93 94 97 98 103 0
91 93 95 97 99 104 0
91 93 95 97 99 104 0
91 93 95 97 99 104 0
91 93 95 97 99 104 0
91 94 95 98 99 105 0
91 94 95 98 99 105 0
91 94 95 98 99 105 0
91 94 95 98 99 105 0
92 93 94 100 101 103 0
92 93 94 100 101 103 0
92 93 94 100 101 103 0
92 93 94 100 101 103 0
92 93 95 100 102 104 0
92 93 95 100 102 104 0
92 93 95 100 102 104 0
92 93 95 100 102 104 0
92 94 95 101 102 105 0
92 94 95 101 102 105 0
92 94 95 101 102 105 0
92 94 95 101 102 105 0
93 94 95 103 104 105 0
93 94 95 103 104 105 0
93 94 95 103 104 105 0
93 94 95 103 104 105 0
96 97 98 100 101 103 0
96 97 98 100 101 103 0
96 97 98 100 101 103 0
96 97 98 100 101 103 0
96 97 99 100 102 104 0
96 97 99 100 102 104 0
96 97 99 100 102 104 0
96 97 99 100 102 104 0
96 98 99 101 102 105 0
96 98 99 101 102 105 0
96 98 99 101 102 105 0
96 98 99 101 102 105 0
97 98 99 103 104 105 0
97 98 99 103 104 105 0
97 98 99 103 104 105 0
97 98 99 103 104 105 0
100 101 102 103 104 105 0
100 101 102 103 104 105 0
100 101 102 103 104 105 0
100 101 102 103 104 105 0
-5 -17 -18 -28 -29 0
-1 -2 -30 -40 -41 0
-3 -4 -15 -16 -51 0
-5 -17 -18 -28 -29 0
-1 -2 -30 -40 -41 0
-3 -4 -15 -16 -51 0
-6 -17 -19 -28 -29 0
-1 -2 -31 -40 -42 0
-3 -4 -15 -16 -52 0
-6 -17 -19 -28 -29 0
-1 -2 -31 -40 -42 0
-3 -4 -15 -16 -52 0
-7 -17 -20 -28 -29 0
-1 -2 -32 -40 -43 0
-3 -4 -15 -16 -53 0
-7 -17 -20 -28 -29 0
-1 -2 -32 -40 -43 0
-3 -4 -15 -16 -53 0
-8 -17 -21 -28 -29 0
-1 -2 -33 -40 -44 0
-3 -4 -15 -16 -54 0
-8 -17 -21 -28 -29 0
-1 -2 -33 -40 -44 0
-3 -4 -15 -16 -54 0
-9 -17 -22 -28 -29 0
-1 -2 -34 -40 -45 0
-3 -4 -15 -16 -55 0
-9 -17 -22 -28 -29 0
-1 -2 -34 -40 -45 0
-3 -4 -15 -16 -55 0
-10 -17 -23 -28 -29 0
-1 -2 -35 -40 -46 0
-3 -4 -15 -16 -56 0
-10 -17 -23 -28 -29 0
-1 -2 -35 -40 -46 0
-3 -4 -15 -16 -56 0
-11 -17 -24 -28 -29 0
-1 -2 -36 -40 -47 0
-3 -4 -15 -16 -57 0
-11 -17 -24 -28 -29 0
-1 -2 -36 -40 -47 0
-3 -4 -15 -16 -57 0
-12 -17 -25 -28 -29 0
-1 -2 -37 -40 -48 0
-3 -4 -15 -16 -58 0
-12 -17 -25 -28 -29 0
-1 -2 -37 -40 -48 0
-3 -4 -15 -16 -58 0
-13 -17 -26 -28 -29 0
-1 -2 -38 -40 -49 0
-3 -4 -15 -16 -59 0
-13 -17 -26 -28 -29 0
-1 -2 -38 -40 -49 0
-3 -4 -15 -16 -59 0
-14 -17 -27 -28 -29 0
-1 -2 -39 -40 -50 0
-3 -4 -15 -16 -60 0
-14 -17 -27 -28 -29 0
-1 -2 -39 -40 -50 0
-3 -4 -15 -16 -60 0
-6 -18 -19 -28 -30 0
-1 -2 -31 -41 -42 0
-3 -5 -15 -16 -61 0
-6 -18 -19 -28 -30 0
-1 -2 -31 -41 -42 0
-3 -5 -15 -16 -61 0
-7 -18 -20 -28 -30 0
-1 -2 -32 -41 -43 0
-3 -5 -15 -16 -62 0
-7 -18 -20 -28 -30 0
-1 -2 -32 -41 -43 0
-3 -5 -15 -16 -62 0
-8 -18 -21 -28 -30 0
-1 -2 -33 -41 -44 0
-3 -5 -15 -16 -63 0
-8 -18 -21 -28 -30 0
-1 -2 -33 -41 -44 0
-3 -5 -15 -16 -63 0
-9 -18 -22 -28 -30 0
-1 -2 -34 -41 -45 0
-3 -5 -15 -16 -64 0
-9 -18 -22 -28 -30 0
-1 -2 -34 -41 -45 0
-3 -5 -15 -16 -64 0
-10 -18 -23 -28 -30 0
-1 -2 -35 -41 -46 0
-3 -5 -15 -16 -65 0
-10 -18 -23 -28 -30 0
-1 -2 -35 -41 -46 0
-3 -5 -15 -16 -65 0
-11 -18 -24 -28 -30 0
-1 -2 -36 -41 -47 0
-3 -5 -15 -16 -66 0
-11 -18 -24 -28 -30 0
-1 -2 -36 -41 -47 0
-3 -5 -15 -16 -66 0
-12 -18 -25 -28 -30 0
-1 -2 -37 -41 -48 0
-3 -5 -15 -16 -67 0
-12 -18 -25 -28 -30 0
-1 -2 -37 -41 -48 0
-3 -5 -15 -16 -67 0
-13 -18 -26 -28 -30 0
-1 -2 -38 -41 -49 0
-3 -5 -15 -16 -68 0
-13 -18 -26 -28 -30 0
-1 -2 -38 -41 -49 0
-3 -5 -15 -16 -68 0
-14 -18 -27 -28 -30 0
-1 -2 -39 -41 -50 0
-3 -5 -15 -16 -69 0
-14 -18 -27 -28 -30 0
-1 -2 -39 -41 -50 0
-3 -5 -15 -16 -69 0
-7 -19 -20 -28 -31 0
-1 -2 -32 -42 -43 0
-3 -6 -15 -16 -70 0
-7 -19 -20 -28 -31 0
-1 -2 -32 -42 -43 0
-3 -6 -15 -16 -70 0
-8 -19 -21 -28 -31 0
-1 -2 -33 -42 -44 0
-3 -6 -15 -16 -71 0
-8 -19 -21 -28 -31 0
-1 -2 -33 -42 -44 0
-3 -6 -15 -16 -71 0
-9 -19 -22 -28 -31 0
-1 -2 -34 -42 -45 0
-3 -6 -15 -16 -72 0
-9 -19 -22 -28 -31 0
-1 -2 -34 -42 -45 0
-3 -6 -15 -16 -72 0
-10 -19 -23 -28 -31 0
-1 -2 -35 -42 -46 0
-3 -6 -15 -16 -73 0
-10 -19 -23 -28 -31 0
-1 -2 -35 -42 -46 0
-3 -6 -15 -16 -73 0
-11 -19 -24 -28 -31 0
-1 -2 -36 -42 -47 0
-3 -6 -15 -16 -74 0
-11 -19 -24 -28 -31 0
-1 -2 -36 -42 -47 0
-3 -6 -15 -16 -74 0
-12 -19 -25 -28 -31 0
-1 -2 -37 -42 -48 0
-3 -6 -15 -16 -75 0
-12 -19 -25 -28 -31 0
-1 -2 -37 -42 -48 0
-3 -6 -15 -16 -75 0
-13 -19 -26 -28 -31 0
-1 -2 -38 -42 -49 0
-3 -6 -15 -16 -76 0
-13 -19 -26 -28 -31 0
-1 -2 -38 -42 -49 0
-3 -6 -15 -16 -76 0
-14 -19 -27 -28 -31 0
-1 -2 -39 -42 -50 0
-3 -6 -15 -16 -77 0
-14 -19 -27 -28 -31 0
-1 -2 -39 -42 -50 0
-3 -6 -15 -16 -77 0
-8 -20 -21 -28 -32 0
-1 -2 -33 -43 -44 0
-3 -7 -15 -16 -78 0
-8 -20 -21 -28 -32 0
-1 -2 -33 -43 -44 0
-3 -7 -15 -16 -78 0
-9 -20 -22 -28 -32 0
-1 -2 -34 -43 -45 0
-3 -7 -15 -16 -79 0
-9 -20 -22 -28 -32 0
-1 -2 -34 -43 -45 0
-3 -7 -15 -16 -79 0
-10 -20 -23 -28 -32 0
-1 -2 -35 -43 -46 0
-3 -7 -15 -16 -80 0
-10 -20 -23 -28 -32 0
-1 -2 -35 -43 -46 0
-3 -7 -15 -16 -80 0
-11 -20 -24 -28 -32 0
-1 -2 -36 -43 -47 0
-3 -7 -15 -16 -81 0
-11 -20 -24 -28 -32 0
-1 -2 -36 -43 -47 0
-3 -7 -15 -16 -81 0
-12 -20 -25 -28 -32 0
-1 -2 -37 -43 -48 0
-3 -7 -15 -16 -82 0
-12 -20 -25 -28 -32 0
-1 -2 -37 -43 -48 0
-3 -7 -15 -16 -82 0
-13 -20 -26 -28 -32 0
-1 -2 -38 -43 -49 0
-3 -7 -15 -16 -83 0
-13 -20 -26 -28 -32 0
-1 -2 -38 -43 -49 0
-3 -7 -15 -16 -83 0
-14 -20 -27 -28 -32 0
-1 -2 -39 -43 -50 0
-3 -7 -15 -16 -84 0
-14 -20 -27 -28 -32 0
-1 -2 -39 -43 -50 0
-3 -7 -15 -16 -84 0
-9 -21 -22 -28 -33 0
-1 -2 -34 -44 -45 0
-3 -8 -15 -16 -85 0
-9 -21 -22 -28 -33 0
-1 -2 -34 -44 -45 0
-3 -8 -15 -16 -85 0
-10 -21 -23 -28 -33 0
-1 -2 -35 -44 -46 0
-3 -8 -15 -16 -86 0
-10 -21 -23 -28 -33 0
-1 -2 -35 -44 -46 0
-3 -8 -15 -16 -86 0
-11 -21 -24 -28 -33 0
-1 -2 -36 -44 -47 0
-3 -8 -15 -16 -87 0
-11 -21 -24 -28 -33 0
-1 -2 -36 -44 -47 0
-3 -8 -15 -16 -87 0
-12 -21 -25 -28 -33 0
-1 -2 -37 -44 -48 0
-3 -8 -15 -16 -88 0
-12 -21 -25 -28 -33 0
-1 -2 -37 -44 -48 0
-3 -8 -15 -16 -88 0
-13 -21 -26 -28 -33 0
-1 -2 -38 -44 -49 0
-3 -8 -15 -16 -89 0
-13 -21 -26 -28 -33 0
-1 -2 -38 -44 -49 0
-3 -8 -15 -16 -89 0
-14 -21 -27 -28 -33 0
-1 -2 -39 -44 -50 0
-3 -8 -15 -16 -90 0
-14 -21 -27 -28 -33 0
-1 -2 -39 -44 -50 0
-3 -8 -15 -16 -90 0
-10 -22 -23 -28 -34 0
-1 -2 -35 -45 -46 0
-3 -9 -15 -16 -91 0
-10 -22 -23 -28 -34 0
-1 -2 -35 -45 -46 0
-3 -9 -15 -16 -91 0
-11 -22 -24 -28 -34 0
-1 -2 -36 -45 -47 0
-3 -9 -15 -16 -92 0
-11 -22 -24 -28 -34 0
-1 -2 -36 -45 -47 0
-3 -9 -15 -16 -92 0
-12 -22 -25 -28 -34 0
-1 -2 -37 -45 -48 0
-3 -9 -15 -16 -93 0
-12 -22 -25 -28 -34 0
-1 -2 -37 -45 -48 0
-3 -9 -15 -16 -93 0
-13 -22 -26 -28 -34 0
-1 -2 -38 -45 -49 0
-3 -9 -15 -16 -94 0
-13 -22 -26 -28 -34 0
-1 -2 -38 -45 -49 0
-3 -9 -15 -16 -94 0
-14 -22 -27 -28 -34 0
-1 -2 -39 -45 -50 0
-3 -9 -15 -16 -95 0
-14 -22 -27 -28 -34 0
-1 -2 -39 -45 -50 0
-3 -9 -15 -16 -95 0
-11 -23 -24 -28 -35 0
-1 -2 -36 -46 -47 0
-3 -10 -15 -16 -96 0
-11 -23 -24 -28 -35 0
-1 -2 -36 -46 -47 0
-3 -10 -15 -16 -96 0
-12 -23 -25 -28 -35 0
-1 -2 -37 -46 -48 0
-3 -10 -15 -16 -97 0
-12 -23 -25 -28 -35 0
-1 -2 -37 -46 -48 0
-3 -10 -15 -16 -97 0
-13 -23 -26 -28 -35 0
-1 -2 -38 -46 -49 0
-3 -10 -15 -16 -98 0
-13 -23 -26 -28 -35 0
-1 -2 -38 -46 -49 0
-3 -10 -15 -16 -98 0
-14 -23 -27 -28 -35 0
-1 -2 -39 -46 -50 0
-3 -10 -15 -16 -99 0
-14 -23 -27 -28 -35 0
-1 -2 -39 -46 -50 0
-3 -10 -15 -16 -99 0
-12 -24 -25 -28 -36 0
-1 -2 -37 -47 -48 0
-3 -11 -15 -16 -100 0
-12 -24 -25 -28 -36 0
-1 -2 -37 -47 -48 0
-3 -11 -15 -16 -100 0
-13 -24 -26 -28 -36 0
-1 -2 -38 -47 -49 0
-3 -11 -15 -16 -101 0
-13 -24 -26 -28 -36 0
-1 -2 -38 -47 -49 0
-3 -11 -15 -16 -101 0
-14 -24 -27 -28 -36 0
-1 -2 -39 -47 -50 0
-3 -11 -15 -16 -102 0
-14 -24 -27 -28 -36 0
-1 -2 -39 -47 -50 0
-3 -11 -15 -16 -102 0
-13 -25 -26 -28 -37 0
-1 -2 -38 -48 -49 0
-3 -12 -15 -16 -103 0
-13 -25 -26 -28 -37 0
-1 -2 -38 -48 -49 0
-3 -12 -15 -16 -103 0
-14 -25 -27 -28 -37 0
-1 -2 -39 -48 -50 0
-3 -12 -15 -16 -104 0
-14 -25 -27 -28 -37 0
-1 -2 -39 -48 -50 0
-3 -12 -15 -16 -104 0
-14 -26 -27 -28 -38 0
-1 -2 -39 -49 -50 0
-3 -13 -15 -16 -105 0
-14 -26 -27 -28 -38 0
-1 -2 -39 -49 -50 0
-3 -13 -15 -16 -105 0
-6 -18 -19 -29 -30 0
-1 -2 -31 -51 -52 0
-4 -5 -15 -17 -61 0
-6 -18 -19 -29 -30 0
-1 -2 -31 -51 -52 0
-4 -5 -15 -17 -61 0
-7 -18 -20 -29 -30 0
-1 -2 -32 -51 -53 0
-4 -5 -15 -17 -62 0
-7 -18 -20 -29 -30 0
-1 -2 -32 -51 -53 0
-4 -5 -15 -17 -62 0
-8 -18 -21 -29 -30 0
-1 -2 -33 -51 -54 0
-4 -5 -15 -17 -63 0
-8 -18 -21 -29 -30 0
-1 -2 -33 -51 -54 0
-4 -5 -15 -17 -63 0
-9 -18 -22 -29 -30 0
-1 -2 -34 -51 -55 0
-4 -5 -15 -17 -64 0
-9 -18 -22 -29 -30 0
-1 -2 -34 -51 -55 0
-4 -5 -15 -17 -64 0
-10 -18 -23 -29 -30 0
-1 -2 -35 -51 -56 0
-4 -5 -15 -17 -65 0
-10 -18 -23 -29 -30 0
-1 -2 -35 -51 -56 0
-4 -5 -15 -17 -65 0
-11 -18 -24 -29 -30 0
-1 -2 -36 -51 -57 0
-4 -5 -15 -17 -66 0
-11 -18 -24 -29 -30 0
-1 -2 -36 -51 -57 0
-4 -5 -15 -17 -66 0
-12 -18 -25 -29 -30 0
-1 -2 -37 -51 -58 0
-4 -5 -15 -17 -67 0
-12 -18 -25 -29 -30 0
-1 -2 -37 -51 -58 0
-4 -5 -15 -17 -67 0
-13 -18 -26 -29 -30 0
-1 -2 -38 -51 -59 0
-4 -5 -15 -17 -68 0
-13 -18 -26 -29 -30 0
-1 -2 -38 -51 -59 0
-4 -5 -15 -17 -68 0
-14 -18 -27 -29 -30 0
-1 -2 -39 -51 -60 0
-4 -5 -15 -17 -69 0
-14 -18 -27 -29 -30 0
-1 -2 -39 -51 -60 0
-4 -5 -15 -17 -69 0
-7 -19 -20 -29 -31 0
-1 -2 -32 -52 -53 0
-4 -6 -15 -17 -70 0
-7 -19 -20 -29 -31 0
-1 -2 -32 -52 -53 0
-4 -6 -15 -17 -70 0
-8 -19 -21 -29 -31 0
-1 -2 -33 -52 -54 0
-4 -6 -15 -17 -71 0
-8 -19 -21 -29 -31 0
-1 -2 -33 -52 -54 0
-4 -6 -15 -17 -71 0
-9 -19 -22 -29 -31 0
-1 -2 -34 -52 -55 0
-4 -6 -15 -17 -72 0
-9 -19 -22 -29 -31 0
-1 -2 -34 -52 -55 0
-4 -6 -15 -17 -72 0
-10 -19 -23 -29 -31 0
-1 -2 -35 -52 -56 0
-4 -6 -15 -17 -73 0
-10 -19 -23 -29 -31 0
-1 -2 -35 -52 -56 0
-4 -6 -15 -17 -73 0
-11 -19 -24 -29 -31 0
-1 -2 -36 -52 -57 0
-4 -6 -15 -17 -74 0
-11 -19 -24 -29 -31 0
-1 -2 -36 -52 -57 0
-4 -6 -15 -17 -74 0
-12 -19 -25 -29 -31 0
-1 -2 -37 -52 -58 0
-4 -6 -15 -17 -75 0
-12 -19 -25 -29 -31 0
-1 -2 -37 -52 -58 0
-4 -6 -15 -17 -75 0
-13 -19 -26 -29 -31 0
-1 -2 -38 -52 -59 0
-4 -6 -15 -17 -76 0
-13 -19 -26 -29 -31 0
-1 -2 -38 -52 -59 0
-4 -6 -15 -17 -76 0
-14 -19 -27 -29 -31 0
-1 -2 -39 -52 -60 0
-4 -6 -15 -17 -77 0
-14 -19 -27 -29 -31 0
-1 -2 -39 -52 -60 0
-4 -6 -15 -17 -77 0
-8 -20 -21 -29 -32 0
-1 -2 -33 -53 -54 0
-4 -7 -15 -17 -78 0
-8 -20 -21 -29 -32 0
-1 -2 -33 -53 -54 0
-4 -7 -15 -17 -78 0
-9 -20 -22 -29 -32 0
-1 -2 -34 -53 -55 0
-4 -7 -15 -17 -79 0
-9 -20 -22 -29 -32 0
-1 -2 -34 -53 -55 0
-4 -7 -15 -17 -79 0
-10 -20 -23 -29 -32 0
-1 -2 -35 -53 -56 0
-4 -7 -15 -17 -80 0
-10 -20 -23 -29 -32 0
-1 -2 -35 -53 -56 0
-4 -7 -15 -17 -80 0
-11 -20 -24 -29 -32 0
-1 -2 -36 -53 -57 0
-4 -7 -15 -17 -81 0
-11 -20 -24 -29 -32 0
-1 -2 -36 -53 -57 0
-4 -7 -15 -17 -81 0
-12 -20 -25 -29 -32 0
-1 -2 -37 -53 -58 0
-4 -7 -15 -17 -82 0
-12 -20 -25 -29 -32 0
-1 -2 -37 -53 -58 0
-4 -7 -15 -17 -82 0
-13 -20 -26 -29 -32 0
-1 -2 -38 -53 -59 0
-4 -7 -15 -17 -83 0
-13 -20 -26 -29 -32 0
-1 -2 -38 -53 -59 0
-4 -7 -15 -17 -83 0
-14 -20 -27 -29 -32 0
-1 -2 -39 -53 -60 0
-4 -7 -15 -17 -84 0
-14 -20 -27 -29 -32 0
-1 -2 -39 -53 -60 0
-4 -7 -15 -17 -84 0
-9 -21 -22 -29 -33 0
-1 -2 -34 -54 -55 0
-4 -8 -15 -17 -85 0
-9 -21 -22 -29 -33 0
-1 -2 -34 -54 -55 0
-4 -8 -15 -17 -85 0
-10 -21 -23 -29 -33 0
-1 -2 -35 -54 -56 0
-4 -8 -15 -17 -86 0
-10 -21 -23 -29 -33 0
-1 -2 -35 -54 -56 0
-4 -8 -15 -17 -86 0
-11 -21 -24 -29 -33 0
-1 -2 -36 -54 -57 0
-4 -8 -15 -17 -87 0
-11 -21 -24 -29 -33 0
-1 -2 -36 -54 -57 0
-4 -8 -15 -17 -87 0
-12 -21 -25 -29 -33 0
-1 -2 -37 -54 -58 0
-4 -8 -15 -17 -88 0
-12 -21 -25 -29 -33 0
-1 -2 -37 -54 -58 0
-4 -8 -15 -17 -88 0
-13 -21 -26 -29 -33 0
-1 -2 -38 -54 -59 0
-4 -8 -15 -17 -89 0
-13 -21 -26 -29 -33 0
-1 -2 -38 -54 -59 0
-4 -8 -15 -17 -89 0
-14 -21 -27 -29 -33 0
-1 -2 -39 -54 -60 0
-4 -8 -15 -17 -90 0
-14 -21 -27 -29 -33 0
-1 -2 -39 -54 -60 0
-4 -8 -15 -17 -90 0
-10 -22 -23 -29 -34 0
-1 -2 -35 -55 -56 0
-4 -9 -15 -17 -91 0
-10 -22 -23 -29 -34 0
-1 -2 -35 -55 -56 0
-4 -9 -15 -17 -91 0
-11 -22 -24 -29 -34 0
-1 -2 -36 -55 -57 0
-4 -9 -15 -17 -92 0
-11 -22 -24 -29 -34 0
-1 -2 -36 -55 -57 0
-4 -9 -15 -17 -92 0
-12 -22 -25 -29 -34 0
-1 -2 -37 -55 -58 0
-4 -9 -15 -17 -93 0
-12 -22 -25 -29 -34 0
-1 -2 -37 -55 -58 0
-4 -9 -15 -17 -93 0
-13 -22 -26 -29 -34 0
-1 -2 -38 -55 -59 0
-4 -9 -15 -17 -94 0
-13 -22 -26 -29 -34 0
-1 -2 -38 -55 -59 0
-4 -9 -15 -17 -94 0
-14 -22 -27 -29 -34 0
-1 -2 -39 -55 -60 0
-4 -9 -15 -17 -95 0
-14 -22 -27 -29 -34 0
-1 -2 -39 -55 -60 0
-4 -9 -15 -17 -95 0
-11 -23 -24 -29 -35 0
-1 -2 -36 -56 -57 0
-4 -10 -15 -17 -96 0
-11 -23 -24 -29 -35 0
-1 -2 -36 -56 -57 0
-4 -10 -15 -17 -96 0
-12 -23 -25 -29 -35 0
-1 -2 -37 -56 -58 0
-4 -10 -15 -17 -97 0
-12 -23 -25 -29 -35 0
-1 -2 -37 -56 -58 0
-4 -10 -15 -17 -97 0
-13 -23 -26 -29 -35 0
-1 -2 -38 -56 -59 0
-4 -10 -15 -17 -98 0
-13 -23 -26 -29 -35 0
-1 -2 -38 -56 -59 0
-4 -10 -15 -17 -98 0
-14 -23 -27 -29 -35 0
-1 -2 -39 -56 -60 0
-4 -10 -15 -17 -99 0
-14 -23 -27 -29 -35 0
-1 -2 -39 -56 -60 0
-4 -10 -15 -17 -99 0
-12 -24 -25 -29 -36 0
-1 -2 -37 -57 -58 0
-4 -11 -15 -17 -100 0
-12 -24 -25 -29 -36 0
-1 -2 -37 -57 -58 0
-4 -11 -15 -17 -100 0
-13 -24 -26 -29 -36 0
-1 -2 -38 -57 -59 0
-4 -11 -15 -17 -101 0
-13 -24 -26 -29 -36 0
-1 -2 -38 -57 -59 0
-4 -11 -15 -17 -101 0
-14 -24 -27 -29 -36 0
-1 -2 -39 -57 -60 0
-4 -11 -15 -17 -102 0
-14 -24 -27 -29 -36 0
-1 -2 -39 -57 -60 0
-4 -11 -15 -17 -102 0
-13 -25 -26 -29 -37 0
-1 -2 -38 -58 -59 0
-4 -12 -15 -17 -103 0
-13 -25 -26 -29 -37 0
-1 -2 -38 -58 -59 0
-4 -12 -15 -17 -103 0
-14 -25 -27 -29 -37 0
-1 -2 -39 -58 -60 0
-4 -12 -15 -17 -104 0
-14 -25 -27 -29 -37 0
-1 -2 -39 -58 -60 0
-4 -12 -15 -17 -104 0
-14 -26 -27 -29 -38 0
-1 -2 -39 -59 -60 0
-4 -13 -15 -17 -105 0
-14 -26 -27 -29 -38 0
-1 -2 -39 -59 -60 0
-4 -13 -15 -17 -105 0
-7 -19 -20 -30 -31 0
-1 -2 -32 -61 -62 0
-5 -6 -15 -18 -70 0
-7 -19 -20 -30 -31 0
-1 -2 -32 -61 -62 0
-5 -6 -15 -18 -70 0
-8 -19 -21 -30 -31 0
-1 -2 -33 -61 -63 0
-5 -6 -15 -18 -71 0
-8 -19 -21 -30 -31 0
-1 -2 -33 -61 -63 0
-5 -6 -15 -18 -71 0
-9 -19 -22 -30 -31 0
-1 -2 -34 -61 -64 0
-5 -6 -15 -18 -72 0
-9 -19 -22 -30 -31 0
-1 -2 -34 -61 -64 0
-5 -6 -15 -18 -72 0
-10 -19 -23 -30 -31 0
-1 -2 -35 -61 -65 0
-5 -6 -15 -18 -73 0
-10 -19 -23 -30 -31 0
-1 -2 -35 -61 -65 0
-5 -6 -15 -18 -73 0
-11 -19 -24 -30 -31 0
-1 -2 -36 -61 -66 0
-5 -6 -15 -18 -74 0
-11 -19 -24 -30 -31 0
-1 -2 -36 -61 -66 0
-5 -6 -15 -18 -74 0
-12 -19 -25 -30 -31 0
-1 -2 -37 -61 -67 0
-5 -6 -15 -18 -75 0
-12 -19 -25 -30 -31 0
-1 -2 -37 -61 -67 0
-5 -6 -15 -18 -75 0
-13 -19 -26 -30 -31 0
-1 -2 -38 -61 -68 0
-5 -6 -15 -18 -76 0
-13 -19 -26 -30 -31 0
-1 -2 -38 -61 -68 0
-5 -6 -15 -18 -76 0
-14 -19 -27 -30 -31 0
-1 -2 -39 -61 -69 0
-5 -6 -15 -18 -77 0
-14 -19 -27 -30 -31 0
-1 -2 -39 -61 -69 0
-5 -6 -15 -18 -77 0
-8 -20 -21 -30 -32 0
-1 -2 -33 -62 -63 0
-5 -7 -15 -18 -78 0
-8 -20 -21 -30 -32 0
-1 -2 -33 -62 -63 0
-5 -7 -15 -18 -78 0
-9 -20 -22 -30 -32 0
-1 -2 -34 -62 -64 0
-5 -7 -15 -18 -79 0
-9 -20 -22 -30 -32 0
-1 -2 -34 -62 -64 0
-5 -7 -15 -18 -79 0
-10 -20 -23 -30 -32 0
-1 -2 -35 -62 -65 0
-5 -7 -15 -18 -80 0
-10 -20 -23 -30 -32 0
-1 -2 -35 -62 -65 0
-5 -7 -15 -18 -80 0
-11 -20 -24 -30 -32 0
-1 -2 -36 -62 -66 0
-5 -7 -15 -18 -81 0
-11 -20 -24 -30 -32 0
-1 -2 -36 -62 -66 0
-5 -7 -15 -18 -81 0
-12 -20 -25 -30 -32 0
-1 -2 -37 -62 -67 0
-5 -7 -15 -18 -82 0
-12 -20 -25 -30 -32 0
-1 -2 -37 -62 -67 0
-5 -7 -15 -18 -82 0
-13 -20 -26 -30 -32 0
-1 -2 -38 -62 -68 0
-5 -7 -15 -18 -83 0
-13 -20 -26 -30 -32 0
-1 -2 -38 -62 -68 0
-5 -7 -15 -18 -83 0
-14 -20 -27 -30 -32 0
-1 -2 -39 -62 -69 0
-5 -7 -15 -18 -84 0
-14 -20 -27 -30 -32 0
-1 -2 -39 -62 -69 0
-5 -7 -15 -18 -84 0
-9 -21 -22 -30 -33 0
-1 -2 -34 -63 -64 0
-5 -8 -15 -18 -85 0
-9 -21 -22 -30 -33 0
-1 -2 -34 -63 -64 0
-5 -8 -15 -18 -85 0
-10 -21 -23 -30 -33 0
-1 -2 -35 -63 -65 0
-5 -8 -15 -18 -86 0
-10 -21 -23 -30 -33 0
-1 -2 -35 -63 -65 0
-5 -8 -15 -18 -86 0
-11 -21 -24 -30 -33 0
-1 -2 -36 -63 -66 0
-5 -8 -15 -18 -87 0
-11 -21 -24 -30 -33 0
-1 -2 -36 -63 -66 0
-5 -8 -15 -18 -87 0
-12 -21 -25 -30 -33 0
-1 -2 -37 -63 -67 0
-5 -8 -15 -18 -88 0
-12 -21 -25 -30 -33 0
-1 -2 -37 -63 -67 0
-5 -8 -15 -18 -88 0
-13 -21 -26 -30 -33 0
-1 -2 -38 -63 -68 0
-5 -8 -15 -18 -89 0
-13 -21 -26 -30 -33 0
-1 -2 -38 -63 -68 0
-5 -8 -15 -18 -89 0
-14 -21 -27 -30 -33 0
-1 -2 -39 -63 -69 0
-5 -8 -15 -18 -90 0
-14 -21 -27 -30 -33 0
-1 -2 -39 -63 -69 0
-5 -8 -15 -18 -90 0
-10 -22 -23 -30 -34 0
-1 -2 -35 -64 -65 0
-5 -9 -15 -18 -91 0
-10 -22 -23 -30 -34 0
-1 -2 -35 -64 -65 0
-5 -9 -15 -18 -91 0
-11 -22 -24 -30 -34 0
-1 -2 -36 -64 -66 0
-5 -9 -15 -18 -92 0
-11 -22 -24 -30 -34 0
-1 -2 -36 -64 -66 0
-5 -9 -15 -18 -92 0
-12 -22 -25 -30 -34 0
-1 -2 -37 -64 -67 0
-5 -9 -15 -18 -93 0
-12 -22 -25 -30 -34 0
-1 -2 -37 -64 -67 0
-5 -9 -15 -18 -93 0
-13 -22 -26 -30 -34 0
-1 -2 -38 -64 -68 0
-5 -9 -15 -18 -94 0
-13 -22 -26 -30 -34 0
-1 -2 -38 -64 -68 0
-5 -9 -15 -18 -94 0
-14 -22 -27 -30 -34 0
-1 -2 -39 -64 -69 0
-5 -9 -15 -18 -95 0
-14 -22 -27 -30 -34 0
-1 -2 -39 -64 -69 0
-5 -9 -15 -18 -95 0
-11 -23 -24 -30 -35 0
-1 -2 -36 -65 -66 0
-5 -10 -15 -18 -96 0
-11 -23 -24 -30 -35 0
-1 -2 -36 -65 -66 0
-5 -10 -15 -18 -96 0
-12 -23 -25 -30 -35 0
-1 -2 -37 -65 -67 0
-5 -10 -15 -18 -97 0
-12 -23 -25 -30 -35 0
-1 -2 -37 -65 -67 0
-5 -10 -15 -18 -97 0
-13 -23 -26 -30 -35 0
-1 -2 -38 -65 -68 0
-5 -10 -15 -18 -98 0
-13 -23 -26 -30 -35 0
-1 -2 -38 -65 -68 0
-5 -10 -15 -18 -98 0
-14 -23 -27 -30 -35 0
-1 -2 -39 -65 -69 0
-5 -10 -15 -18 -99 0
-14 -23 -27 -30 -35 0
-1 -2 -39 -65 -69 0
-5 -10 -15 -18 -99 0
-12 -24 -25 -30 -36 0
-1 -2 -37 -66 -67 0
-5 -11 -15 -18 -100 0
-12 -24 -25 -30 -36 0
-1 -2 -37 -66 -67 0
-5 -11 -15 -18 -100 0
-13 -24 -26 -30 -36 0
-1 -2 -38 -66 -68 0
-5 -11 -15 -18 -101 0
-13 -24 -26 -30 -36 0
-1 -2 -38 -66 -68 0
-5 -11 -15 -18 -101 0
-14 -24 -27 -30 -36 0
-1 -2 -39 -66 -69 0
-5 -11 -15 -18 -102 0
-14 -24 -27 -30 -36 0
-1 -2 -39 -66 -69 0
-5 -11 -15 -18 -102 0
-13 -25 -26 -30 -37 0
-1 -2 -38 -67 -68 0
-5 -12 -15 -18 -103 0
-13 -25 -26 -30 -37 0
-1 -2 -38 -67 -68 0
-5 -12 -15 -18 -103 0
-14 -25 -27 -30 -37 0
-1 -2 -39 -67 -69 0
-5 -12 -15 -18 -104 0
-14 -25 -27 -30 -37 0
-1 -2 -39 -67 -69 0
-5 -12 -15 -18 -104 0
-14 -26 -27 -30 -38 0
-1 -2 -39 -68 -69 0
-5 -13 -15 -18 -105 0
-14 -26 -27 -30 -38 0
-1 -2 -39 -68 -69 0
-5 -13 -15 -18 -105 0
-8 -20 -21 -31 -32 0
-1 -2 -33 -70 -71 0
-6 -7 -15 -19 -78 0
-8 -20 -21 -31 -32 0
-1 -2 -33 -70 -71 0
-6 -7 -15 -19 -78 0
-9 -20 -22 -31 -32 0
-1 -2 -34 -70 -72 0
-6 -7 -15 -19 -79 0
-9 -20 -22 -31 -32 0
-1 -2 -34 -70 -72 0
-6 -7 -15 -19 -79 0
-10 -20 -23 -31 -32 0
-1 -2 -35 -70 -73 0
-6 -7 -15 -19 -80 0
-10 -20 -23 -31 -32 0
-1 -2 -35 -70 -73 0
-6 -7 -15 -19 -80 0
-11 -20 -24 -31 -32 0
-1 -2 -36 -70 -74 0
-6 -7 -15 -19 -81 0
-11 -20 -24 -31 -32 0
-1 -2 -36 -70 -74 0
-6 -7 -15 -19 -81 0
-12 -20 -25 -31 -32 0
-1 -2 -37 -70 -75 0
-6 -7 -15 -19 -82 0
-12 -20 -25 -31 -32 0
-1 -2 -37 -70 -75 0
-6 -7 -15 -19 -82 0
-13 -20 -26 -31 -32 0
-1 -2 -38 -70 -76 0
-6 -7 -15 -19 -83 0
-13 -20 -26 -31 -32 0
-1 -2 -38 -70 -76 0
-6 -7 -15 -19 -83 0
-14 -20 -27 -31 -32 0
-1 -2 -39 -70 -77 0
-6 -7 -15 -19 -84 0
-14 -20 -27 -31 -32 0
-1 -2 -39 -70 -77 0
-6 -7 -15 -19 -84 0
-9 -21 -22 -31 -33 0
-1 -2 -34 -71 -72 0
-6 -8 -15 -19 -85 0
-9 -21 -22 -31 -33 0
-1 -2 -34 -71 -72 0
-6 -8 -15 -19 -85 0
-10 -21 -23 -31 -33 0
-1 -2 -35 -71 -73 0
-6 -8 -15 -19 -86 0
-10 -21 -23 -31 -33 0
-1 -2 -35 -71 -73 0
-6 -8 -15 -19 -86 0
-11 -21 -24 -31 -33 0
-1 -2 -36 -71 -74 0
-6 -8 -15 -19 -87 0
-11 -21 -24 -31 -33 0
-1 -2 -36 -71 -74 0
-6 -8 -15 -19 -87 0
-12 -21 -25 -31 -33 0
-1 -2 -37 -71 -75 0
-6 -8 -15 -19 -88 0
-12 -21 -25 -31 -33 0
-1 -2 -37 -71 -75 0
-6 -8 -15 -19 -88 0
-13 -21 -26 -31 -33 0
-1 -2 -38 -71 -76 0
-6 -8 -15 -19 -89 0
-13 -21 -26 -31 -33 0
-1 -2 -38 -71 -76 0
-6 -8 -15 -19 -89 0
-14 -21 -27 -31 -33 0
-1 -2 -39 -71 -77 0
-6 -8 -15 -19 -90 0
-14 -21 -27 -31 -33 0
-1 -2 -39 -71 -77 0
-6 -8 -15 -19 -90 0
-10 -22 -23 -31 -34 0
-1 -2 -35 -72 -73 0
-6 -9 -15 -19 -91 0
-10 -22 -23 -31 -34 0
-1 -2 -35 -72 -73 0
-6 -9 -15 -19 -91 0
-11 -22 -24 -31 -34 0
-1 -2 -36 -72 -74 0
-6 -9 -15 -19 -92 0
-11 -22 -24 -31 -34 0
-1 -2 -36 -72 -74 0
-6 -9 -15 -19 -92 0
-12 -22 -25 -31 -34 0
-1 -2 -37 -72 -75 0
-6 -9 -15 -19 -93 0
-12 -22 -25 -31 -34 0
-1 -2 -37 -72 -75 0
-6 -9 -15 -19 -93 0
-13 -22 -26 -31 -34 0
-1 -2 -38 -72 -76 0
-6 -9 -15 -19 -94 0
-13 -22 -26 -31 -34 0
-1 -2 -38 -72 -76 0
-6 -9 -15 -19 -94 0
-14 -22 -27 -31 -34 0
-1 -2 -39 -72 -77 0
-6 -9 -15 -19 -95 0
-14 -22 -27 -31 -34 0
-1 -2 -39 -72 -77 0
-6 -9 -15 -19 -95 0
-11 -23 -24 -31 -35 0
-1 -2 -36 -73 -74 0
-6 -10 -15 -19 -96 0
-11 -23 -24 -31 -35 0
-1 -2 -36 -73 -74 0
-6 -10 -15 -19 -96 0
-12 -23 -25 -31 -35 0
-1 -2 -37 -73 -75 0
-6 -10 -15 -19 -97 0
-12 -23 -25 -31 -35 0
-1 -2 -37 -73 -75 0
-6 -10 -15 -19 -97 0
-13 -23 -26 -31 -35 0
-1 -2 -38 -73 -76 0
-6 -10 -15 -19 -98 0
-13 -23 -26 -31 -35 0
-1 -2 -38 -73 -76 0
-6 -10 -15 -19 -98 0
-14 -23 -27 -31 -35 0
-1 -2 -39 -73 -77 0
-6 -10 -15 -19 -99 0
-14 -23 -27 -31 -35 0
-1 -2 -39 -73 -77 0
-6 -10 -15 -19 -99 0
-12 -24 -25 -31 -36 0
-1 -2 -37 -74 -75 0
-6 -11 -15 -19 -100 0
-12 -24 -25 -31 -36 0
-1 -2 -37 -74 -75 0
-6 -11 -15 -19 -100 0
-13 -24 -26 -31 -36 0
-1 -2 -38 -74 -76 0
-6 -11 -15 -19 -101 0
-13 -24 -26 -31 -36 0
-1 -2 -38 -74 -76 0
-6 -11 -15 -19 -101 0
-14 -24 -27 -31 -36 0
-1 -2 -39 -74 -77 0
-6 -11 -15 -19 -102 0
-14 -24 -27 -31 -36 0
-1 -2 -39 -74 -77 0
-6 -11 -15 -19 -102 0
-13 -25 -26 -31 -37 0
-1 -2 -38 -75 -76 0
-6 -12 -15 -19 -103 0
-13 -25 -26 -31 -37 0
-1 -2 -38 -75 -76 0
-6 -12 -15 -19 -103 0
-14 -25 -27 -31 -37 0
-1 -2 -39 -75 -77 0
-6 -12 -15 -19 -104 0
-14 -25 -27 -31 -37 0
-1 -2 -39 -75 -77 0
-6 -12 -15 -19 -104 0
-14 -26 -27 -31 -38 0
-1 -2 -39 -76 -77 0
-6 -13 -15 -19 -105 0
-14 -26 -27 -31 -38 0
-1 -2 -39 -76 -77 0
-6 -13 -15 -19 -105 0
-9 -21 -22 -32 -33 0
-1 -2 -34 -78 -79 0
-7 -8 -15 -20 -85 0
-9 -21 -22 -32 -33 0
-1 -2 -34 -78 -79 0
-7 -8 -15 -20 -85 0
-10 -21 -23 -32 -33 0
-1 -2 -35 -78 -80 0
-7 -8 -15 -20 -86 0
-10 -21 -23 -32 -33 0
-1 -2 -35 -78 -80 0
-7 -8 -15 -20 -86 0
-11 -21 -24 -32 -33 0
-1 -2 -36 -78 -81 0
-7 -8 -15 -20 -87 0
-11 -21 -24 -32 -33 0
-1 -2 -36 -78 -81 0
-7 -8 -15 -20 -87 0
-12 -21 -25 -32 -33 0
-1 -2 -37 -78 -82 0
-7 -8 -15 -20 -88 0
-12 -21 -25 -32 -33 0
-1 -2 -37 -78 -82 0
-7 -8 -15 -20 -88 0
-13 -21 -26 -32 -33 0
-1 -2 -38 -78 -83 0
-7 -8 -15 -20 -89 0
-13 -21 -26 -32 -33 0
-1 -2 -38 -78 -83 0
-7 -8 -15 -20 -89 0
-14 -21 -27 -32 -33 0
-1 -2 -39 -78 -84 0
-7 -8 -15 -20 -90 0
-14 -21 -27 -32 -33 0
-1 -2 -39 -78 -84 0
-7 -8 -15 -20 -90 0
-10 -22 -23 -32 -34 0
-1 -2 -35 -79 -80 0
-7 -9 -15 -20 -91 0
-10 -22 -23 -32 -34 0
-1 -2 -35 -79 -80 0
-7 -9 -15 -20 -91 0
-11 -22 -24 -32 -34 0
-1 -2 -36 -79 -81 0
-7 -9 -15 -20 -92 0
-11 -22 -24 -32 -34 0
-1 -2 -36 -79 -81 0
-7 -9 -15 -20 -92 0
-12 -22 -25 -32 -34 0
-1 -2 -37 -79 -82 0
-7 -9 -15 -20 -93 0
-12 -22 -25 -32 -34 0
-1 -2 -37 -79 -82 0
-7 -9 -15 -20 -93 0
-13 -22 -26 -32 -34 0
-1 -2 -38 -79 -83 0
-7 -9 -15 -20 -94 0
-13 -22 -26 -32 -34 0
-1 -2 -38 -79 -83 0
-7 -9 -15 -20 -94 0
-14 -22 -27 -32 -34 0
-1 -2 -39 -79 -84 0
-7 -9 -15 -20 -95 0
-14 -22 -27 -32 -34 0
-1 -2 -39 -79 -84 0
-7 -9 -15 -20 -95 0
-11 -23 -24 -32 -35 0
-1 -2 -36 -80 -81 0
-7 -10 -15 -20 -96 0
-11 -23 -24 -32 -35 0
-1 -2 -36 -80 -81 0
-7 -10 -15 -20 -96 0
-12 -23 -25 -32 -35 0
-1 -2 -37 -80 -82 0
-7 -10 -15 -20 -97 0
-12 -23 -25 -32 -35 0
-1 -2 -37 -80 -82 0
-7 -10 -15 -20 -97 0
-13 -23 -26 -32 -35 0
-1 -2 -38 -80 -83 0
-7 -10 -15 -20 -98 0
-13 -23 -26 -32 -35 0
-1 -2 -38 -80 -83 0
-7 -10 -15 -20 -98 0
-14 -23 -27 -32 -35 0
-1 -2 -39 -80 -84 0
-7 -10 -15 -20 -99 0
-14 -23 -27 -32 -35 0
-1 -2 -39 -80 -84 0
-7 -10 -15 -20 -99 0
-12 -24 -25 -32 -36 0
-1 -2 -37 -81 -82 0
-7 -11 -15 -20 -100 0
-12 -24 -25 -32 -36 0
-1 -2 -37 -81 -82 0
-7 -11 -15 -20 -100 0
-13 -24 -26 -32 -36 0
-1 -2 -38 -81 -83 0
-7 -11 -15 -20 -101 0
-13 -24 -26 -32 -36 0
-1 -2 -38 -81 -83 0
-7 -11 -15 -20 -101 0
-14 -24 -27 -32 -36 0
-1 -2 -39 -81 -84 0
-7 -11 -15 -20 -102 0
-14 -24 -27 -32 -36 0
-1 -2 -39 -81 -84 0
-7 -11 -15 -20 -102 0
-13 -25 -26 -32 -37 0
-1 -2 -38 -82 -83 0
-7 -12 -15 -20 -103 0
-13 -25 -26 -32 -37 0
-1 -2 -38 -82 -83 0
-7 -12 -15 -20 -103 0
-14 -25 -27 -32 -37 0
-1 -2 -39 -82 -84 0
-7 -12 -15 -20 -104 0
-14 -25 -27 -32 -37 0
-1 -2 -39 -82 -84 0
-7 -12 -15 -20 -104 0
-14 -26 -27 -32 -38 0
-1 -2 -39 -83 -84 0
-7 -13 -15 -20 -105 0
-14 -26 -27 -32 -38 0
-1 -2 -39 -83 -84 0
-7 -13 -15 -20 -105 0
-10 -22 -23 -33 -34 0
-1 -2 -35 -85 -86 0
-8 -9 -15 -21 -91 0
-10 -22 -23 -33 -34 0
-1 -2 -35 -85 -86 0
-8 -9 -15 -21 -91 0
-11 -22 -24 -33 -34 0
-1 -2 -36 -85 -87 0
-8 -9 -15 -21 -92 0
-11 -22 -24 -33 -34 0
-1 -2 -36 -85 -87 0
-8 -9 -15 -21 -92 0
-12 -22 -25 -33 -34 0
-1 -2 -37 -85 -88 0
-8 -9 -15 -21 -93 0
-12 -22 -25 -33 -34 0
-1 -2 -37 -85 -88 0
-8 -9 -15 -21 -93 0
-13 -22 -26 -33 -34 0
-1 -2 -38 -85 -89 0
-8 -9 -15 -21 -94 0
-13 -22 -26 -33 -34 0
-1 -2 -38 -85 -89 0
-8 -9 -15 -21 -94 0
-14 -22 -27 -33 -34 0
-1 -2 -39 -85 -90 0
-8 -9 -15 -21 -95 0
-14 -22 -27 -33 -34 0
-1 -2 -39 -85 -90 0
-8 -9 -15 -21 -95 0
-11 -23 -24 -33 -35 0
-1 -2 -36 -86 -87 0
-8 -10 -15 -21 -96 0
-11 -23 -24 -33 -35 0
-1 -2 -36 -86 -87 0
-8 -10 -15 -21 -96 0
-12 -23 -25 -33 -35 0
-1 -2 -37 -86 -88 0
-8 -10 -15 -21 -97 0
-12 -23 -25 -33 -35 0
-1 -2 -37 -86 -88 0
-8 -10 -15 -21 -97 0
-13 -23 -26 -33 -35 0
-1 -2 -38 -86 -89 0
-8 -10 -15 -21 -98 0
-13 -23 -26 -33 -35 0
-1 -2 -38 -86 -89 0
-8 -10 -15 -21 -98 0
-14 -23 -27 -33 -35 0
-1 -2 -39 -86 -90 0
-8 -10 -15 -21 -99 0
-14 -23 -27 -33 -35 0
-1 -2 -39 -86 -90 0
-8 -10 -15 -21 -99 0
-12 -24 -25 -33 -36 0
-1 -2 -37 -87 -88 0
-8 -11 -15 -21 -100 0
-12 -24 -25 -33 -36 0
-1 -2 -37 -87 -88 0
-8 -11 -15 -21 -100 0
-13 -24 -26 -33 -36 0
-1 -2 -38 -87 -89 0
-8 -11 -15 -21 -101 0
-13 -24 -26 -33 -36 0
-1 -2 -38 -87 -89 0
-8 -11 -15 -21 -101 0
-14 -24 -27 -33 -36 0
-1 -2 -39 -87 -90 0
-8 -11 -15 -21 -102 0
-14 -24 -27 -33 -36 0
-1 -2 -39 -87 -90 0
-8 -11 -15 -21 -102 0
-13 -25 -26 -33 -37 0
-1 -2 -38 -88 -89 0
-8 -12 -15 -21 -103 0
-13 -25 -26 -33 -37 0
-1 -2 -38 -88 -89 0
-8 -12 -15 -21 -103 0
-14 -25 -27 -33 -37 0
-1 -2 -39 -88 -90 0
-8 -12 -15 -21 -104 0
-14 -25 -27 -33 -37 0
-1 -2 -39 -88 -90 0
-8 -12 -15 -21 -104 0
-14 -26 -27 -33 -38 0
-1 -2 -39 -89 -90 0
-8 -13 -15 -21 -105 0
-14 -26 -27 -33 -38 0
-1 -2 -39 -89 -90 0
-8 -13 -15 -21 -105 0
-11 -23 -24 -34 -35 0
-1 -2 -36 -91 -92 0
-9 -10 -15 -22 -96 0
-11 -23 -24 -34 -35 0
-1 -2 -36 -91 -92 0
-9 -10 -15 -22 -96 0
-12 -23 -25 -34 -35 0
-1 -2 -37 -91 -93 0
-9 -10 -15 -22 -97 0
-12 -23 -25 -34 -35 0
-1 -2 -37 -91 -93 0
-9 -10 -15 -22 -97 0
-13 -23 -26 -34 -35 0
-1 -2 -38 -91 -94 0
-9 -10 -15 -22 -98 0
-13 -23 -26 -34 -35 0
-1 -2 -38 -91 -94 0
-9 -10 -15 -22 -98 0
-14 -23 -27 -34 -35 0
-1 -2 -39 -91 -95 0
-9 -10 -15 -22 -99 0
-14 -23 -27 -34 -35 0
-1 -2 -39 -91 -95 0
-9 -10 -15 -22 -99 0
-12 -24 -25 -34 -36 0
-1 -2 -37 -92 -93 0
-9 -11 -15 -22 -100 0
-12 -24 -25 -34 -36 0
-1 -2 -37 -92 -93 0
-9 -11 -15 -22 -100 0
-13 -24 -26 -34 -36 0
-1 -2 -38 -92 -94 0
-9 -11 -15 -22 -101 0
-13 -24 -26 -34 -36 0
-1 -2 -38 -92 -94 0
-9 -11 -15 -22 -101 0
-14 -24 -27 -34 -36 0
-1 -2 -39 -92 -95 0
-9 -11 -15 -22 -102 0
-14 -24 -27 -34 -36 0
-1 -2 -39 -92 -95 0
-9 -11 -15 -22 -102 0
-13 -25 -26 -34 -37 0
-1 -2 -38 -93 -94 0
-9 -12 -15 -22 -103 0
-13 -25 -26 -34 -37 0
-1 -2 -38 -93 -94 0
-9 -12 -15 -22 -103 0
-14 -25 -27 -34 -37 0
-1 -2 -39 -93 -95 0
-9 -12 -15 -22 -104 0
-14 -25 -27 -34 -37 0
-1 -2 -39 -93 -95 0
-9 -12 -15 -22 -104 0
-14 -26 -27 -34 -38 0
-1 -2 -39 -94 -95 0
-9 -13 -15 -22 -105 0
-14 -26 -27 -34 -38 0
-1 -2 -39 -94 -95 0
-9 -13 -15 -22 -105 0
-12 -24 -25 -35 -36 0
-1 -2 -37 -96 -97 0
-10 -11 -15 -23 -100 0
-12 -24 -25 -35 -36 0
-1 -2 -37 -96 -97 0
-10 -11 -15 -23 -100 0
-13 -24 -26 -35 -36 0
-1 -2 -38 -96 -98 0
-10 -11 -15 -23 -101 0
-13 -24 -26 -35 -36 0
-1 -2 -38 -96 -98 0
-10 -11 -15 -23 -101 0
-14 -24 -27 -35 -36 0
-1 -2 -39 -96 -99 0
-10 -11 -15 -23 -102 0
-14 -24 -27 -35 -36 0
-1 -2 -39 -96 -99 0
-10 -11 -15 -23 -102 0
-13 -25 -26 -35 -37 0
-1 -2 -38 -97 -98 0
-10 -12 -15 -23 -103 0
-13 -25 -26 -35 -37 0
-1 -2 -38 -97 -98 0
-10 -12 -15 -23 -103 0
-14 -25 -27 -35 -37 0
-1 -2 -39 -97 -99 0
-10 -12 -15 -23 -104 0
-14 -25 -27 -35 -37 0
-1 -2 -39 -97 -99 0
-10 -12 -15 -23 -104 0
-14 -26 -27 -35 -38 0
-1 -2 -39 -98 -99 0
-10 -13 -15 -23 -105 0
-14 -26 -27 -35 -38 0
-1 -2 -39 -98 -99 0
-10 -13 -15 -23 -105 0
-13 -25 -26 -36 -37 0
-1 -2 -38 -100 -101 0
-11 -12 -15 -24 -103 0
-13 -25 -26 -36 -37 0
-1 -2 -38 -100 -101 0
-11 -12 -15 -24 -103 0
-14 -25 -27 -36 -37 0
-1 -2 -39 -100 -102 0
-11 -12 -15 -24 -104 0
-14 -25 -27 -36 -37 0
-1 -2 -39 -100 -102 0
-11 -12 -15 -24 -104 0
-14 -26 -27 -36 -38 0
-1 -2 -39 -101 -102 0
-11 -13 -15 -24 -105 0
-14 -26 -27 -36 -38 0
-1 -2 -39 -101 -102 0
-11 -13 -15 -24 -105 0
-14 -26 -27 -37 -38 0
-1 -2 -39 -103 -104 0
-12 -13 -15 -25 -105 0
-14 -26 -27 -37 -38 0
-1 -2 -39 -103 -104 0
-12 -13 -15 -25 -105 0
-6 -18 -19 -40 -41 0
-1 -3 -42 -51 -52 0
-4 -5 -16 -17 -61 0
-6 -18 -19 -40 -41 0
-1 -3 -42 -51 -52 0
-4 -5 -16 -17 -61 0
-7 -18 -20 -40 -41 0
-1 -3 -43 -51 -53 0
-4 -5 -16 -17 -62 0
-7 -18 -20 -40 -41 0
-1 -3 -43 -51 -53 0
-4 -5 -16 -17 -62 0
-8 -18 -21 -40 -41 0
-1 -3 -44 -51 -54 0
-4 -5 -16 -17 -63 0
-8 -18 -21 -40 -41 0
-1 -3 -44 -51 -54 0
-4 -5 -16 -17 -63 0
-9 -18 -22 -40 -41 0
-1 -3 -45 -51 -55 0
-4 -5 -16 -17 -64 0
-9 -18 -22 -40 -41 0
-1 -3 -45 -51 -55 0
-4 -5 -16 -17 -64 0
-10 -18 -23 -40 -41 0
-1 -3 -46 -51 -56 0
-4 -5 -16 -17 -65 0
-10 -18 -23 -40 -41 0
-1 -3 -46 -51 -56 0
-4 -5 -16 -17 -65 0
-11 -18 -24 -40 -41 0
-1 -3 -47 -51 -57 0
-4 -5 -16 -17 -66 0
-11 -18 -24 -40 -41 0
-1 -3 -47 -51 -57 0
-4 -5 -16 -17 -66 0
-12 -18 -25 -40 -41 0
-1 -3 -48 -51 -58 0
-4 -5 -16 -17 -67 0
-12 -18 -25 -40 -41 0
-1 -3 -48 -51 -58 0
-4 -5 -16 -17 -67 0
-13 -18 -26 -40 -41 0
-1 -3 -49 -51 -59 0
-4 -5 -16 -17 -68 0
-13 -18 -26 -40 -41 0
-1 -3 -49 -51 -59 0
-4 -5 -16 -17 -68 0
-14 -18 -27 -40 -41 0
-1 -3 -50 -51 -60 0
-4 -5 -16 -17 -69 0
-14 -18 -27 -40 -41 0
-1 -3 -50 -51 -60 0
-4 -5 -16 -17 -69 0
-7 -19 -20 -40 -42 0
-1 -3 -43 -52 -53 0
-4 -6 -16 -17 -70 0
-7 -19 -20 -40 -42 0
-1 -3 -43 -52 -53 0
-4 -6 -16 -17 -70 0
-8 -19 -21 -40 -42 0
-1 -3 -44 -52 -54 0
-4 -6 -16 -17 -71 0
-8 -19 -21 -40 -42 0
-1 -3 -44 -52 -54 0
-4 -6 -16 -17 -71 0
-9 -19 -22 -40 -42 0
-1 -3 -45 -52 -55 0
-4 -6 -16 -17 -72 0
-9 -19 -22 -40 -42 0
-1 -3 -45 -52 -55 0
-4 -6 -16 -17 -72 0
-10 -19 -23 -40 -42 0
-1 -3 -46 -52 -56 0
-4 -6 -16 -17 -73 0
-10 -19 -23 -40 -42 0
-1 -3 -46 -52 -56 0
-4 -6 -16 -17 -73 0
-11 -19 -24 -40 -42 0
-1 -3 -47 -52 -57 0
-4 -6 -16 -17 -74 0
-11 -19 -24 -40 -42 0
-1 -3 -47 -52 -57 0
-4 -6 -16 -17 -74 0
-12 -19 -25 -40 -42 0
-1 -3 -48 -52 -58 0
-4 -6 -16 -17 -75 0
-12 -19 -25 -40 -42 0
-1 -3 -48 -52 -58 0
-4 -6 -16 -17 -75 0
-13 -19 -26 -40 -42 0
-1 -3 -49 -52 -59 0
-4 -6 -16 -17 -76 0
-13 -19 -26 -40 -42 0
-1 -3 -49 -52 -59 0
-4 -6 -16 -17 -76 0
-14 -19 -27 -40 -42 0
-1 -3 -50 -52 -60 0
-4 -6 -16 -17 -77 0
-14 -19 -27 -40 -42 0
-1 -3 -50 -52 -60 0
-4 -6 -16 -17 -77 0
-8 -20 -21 -40 -43 0
-1 -3 -44 -53 -54 0
-4 -7 -16 -17 -78 0
-8 -20 -21 -40 -43 0
-1 -3 -44 -53 -54 0
-4 -7 -16 -17 -78 0
-9 -20 -22 -40 -43 0
-1 -3 -45 -53 -55 0
-4 -7 -16 -17 -79 0
-9 -20 -22 -40 -43 0
-1 -3 -45 -53 -55 0
-4 -7 -16 -17 -79 0
-10 -20 -23 -40 -43 0
-1 -3 -46 -53 -56 0
-4 -7 -16 -17 -80 0
-10 -20 -23 -40 -43 0
-1 -3 -46 -53 -56 0
-4 -7 -16 -17 -80 0
-11 -20 -24 -40 -43 0
-1 -3 -47 -53 -57 0
-4 -7 -16 -17 -81 0
-11 -20 -24 -40 -43 0
-1 -3 -47 -53 -57 0
-4 -7 -16 -17 -81 0
-12 -20 -25 -40 -43 0
-1 -3 -48 -53 -58 0
-4 -7 -16 -17 -82 0
-12 -20 -25 -40 -43 0
-1 -3 -48 -53 -58 0
-4 -7 -16 -17 -82 0
-13 -20 -26 -40 -43 0
-1 -3 -49 -53 -59 0
-4 -7 -16 -17 -83 0
-13 -20 -26 -40 -43 0
-1 -3 -49 -53 -59 0
-4 -7 -16 -17 -83 0
-14 -20 -27 -40 -43 0
-1 -3 -50 -53 -60 0
-4 -7 -16 -17 -84 0
-14 -20 -27 -40 -43 0
-1 -3 -50 -53 -60 0
-4 -7 -16 -17 -84 0
-9 -21 -22 -40 -44 0
-1 -3 -45 -54 -55 0
-4 -8 -16 -17 -85 0
-9 -21 -22 -40 -44 0
-1 -3 -45 -54 -55 0
-4 -8 -16 -17 -85 0
-10 -21 -23 -40 -44 0
-1 -3 -46 -54 -56 0
-4 -8 -16 -17 -86 0
-10 -21 -23 -40 -44 0
-1 -3 -46 -54 -56 0
-4 -8 -16 -17 -86 0
-11 -21 -24 -40 -44 0
-1 -3 -47 -54 -57 0
-4 -8 -16 -17 -87 0
-11 -21 -24 -40 -44 0
-1 -3 -47 -54 -57 0
-4 -8 -16 -17 -87 0
-12 -21 -25 -40 -44 0
-1 -3 -48 -54 -58 0
-4 -8 -16 -17 -88 0
-12 -21 -25 -40 -44 0
-1 -3 -48 -54 -58 0
-4 -8 -16 -17 -88 0
-13 -21 -26 -40 -44 0
-1 -3 -49 -54 -59 0
-4 -8 -16 -17 -89 0
-13 -21 -26 -40 -44 0
-1 -3 -49 -54 -59 0
-4 -8 -16 -17 -89 0
-14 -21 -27 -40 -44 0
-1 -3 -50 -54 -60 0
-4 -8 -16 -17 -90 0
-14 -21 -27 -40 -44 0
-1 -3 -50 -54 -60 0
-4 -8 -16 -17 -90 0
-10 -22 -23 -40 -45 0
-1 -3 -46 -55 -56 0
-4 -9 -16 -17 -91 0
-10 -22 -23 -40 -45 0
-1 -3 -46 -55 -56 0
-4 -9 -16 -17 -91 0
-11 -22 -24 -40 -45 0
-1 -3 -47 -55 -57 0
-4 -9 -16 -17 -92 0
-11 -22 -24 -40 -45 0
-1 -3 -47 -55 -57 0
-4 -9 -16 -17 -92 0
-12 -22 -25 -40 -45 0
-1 -3 -48 -55 -58 0
-4 -9 -16 -17 -93 0
-12 -22 -25 -40 -45 0
-1 -3 -48 -55 -58 0
-4 -9 -16 -17 -93 0
-13 -22 -26 -40 -45 0
-1 -3 -49 -55 -59 0
-4 -9 -16 -17 -94 0
-13 -22 -26 -40 -45 0
-1 -3 -49 -55 -59 0
-4 -9 -16 -17 -94 0
-14 -22 -27 -40 -45 0
-1 -3 -50 -55 -60 0
-4 -9 -16 -17 -95 0
-14 -22 -27 -40 -45 0
-1 -3 -50 -55 -60 0
-4 -9 -16 -17 -95 0
-11 -23 -24 -40 -46 0
-1 -3 -47 -56 -57 0
-4 -10 -16 -17 -96 0
-11 -23 -24 -40 -46 0
-1 -3 -47 -56 -57 0
-4 -10 -16 -17 -96 0
-12 -23 -25 -40 -46 0
-1 -3 -48 -56 -58 0
-4 -10 -16 -17 -97 0
-12 -23 -25 -40 -46 0
-1 -3 -48 -56 -58 0
-4 -10 -16 -17 -97 0
-13 -23 -26 -40 -46 0
-1 -3 -49 -56 -59 0
-4 -10 -16 -17 -98 0
-13 -23 -26 -40 -46 0
-1 -3 -49 -56 -59 0
-4 -10 -16 -17 -98 0
-14 -23 -27 -40 -46 0
-1 -3 -50 -56 -60 0
-4 -10 -16 -17 -99 0
-14 -23 -27 -40 -46 0
-1 -3 -50 -56 -60 0
-4 -10 -16 -17 -99 0
-12 -24 -25 -40 -47 0
-1 -3 -48 -57 -58 0
-4 -11 -16 -17 -100 0
-12 -24 -25 -40 -47 0
-1 -3 -48 -57 -58 0
-4 -11 -16 -17 -100 0
-13 -24 -26 -40 -47 0
-1 -3 -49 -57 -59 0
-4 -11 -16 -17 -101 0
-13 -24 -26 -40 -47 0
-1 -3 -49 -57 -59 0
-4 -11 -16 -17 -101 0
-14 -24 -27 -40 -47 0
-1 -3 -50 -57 -60 0
-4 -11 -16 -17 -102 0
-14 -24 -27 -40 -47 0
-1 -3 -50 -57 -60 0
-4 -11 -16 -17 -102 0
-13 -25 -26 -40 -48 0
-1 -3 -49 -58 -59 0
-4 -12 -16 -17 -103 0
-13 -25 -26 -40 -48 0
-1 -3 -49 -58 -59 0
-4 -12 -16 -17 -103 0
-14 -25 -27 -40 -48 0
-1 -3 -50 -58 -60 0
-4 -12 -16 -17 -104 0
-14 -25 -27 -40 -48 0
-1 -3 -50 -58 -60 0
-4 -12 -16 -17 -104 0
-14 -26 -27 -40 -49 0
-1 -3 -50 -59 -60 0
-4 -13 -16 -17 -105 0
-14 -26 -27 -40 -49 0
-1 -3 -50 -59 -60 0
-4 -13 -16 -17 -105 0
-7 -19 -20 -41 -42 0
-1 -3 -43 -61 -62 0
-5 -6 -16 -18 -70 0
-7 -19 -20 -41 -42 0
-1 -3 -43 -61 -62 0
-5 -6 -16 -18 -70 0
-8 -19 -21 -41 -42 0
-1 -3 -44 -61 -63 0
-5 -6 -16 -18 -71 0
-8 -19 -21 -41 -42 0
-1 -3 -44 -61 -63 0
-5 -6 -16 -18 -71 0
-9 -19 -22 -41 -42 0
-1 -3 -45 -61 -64 0
-5 -6 -16 -18 -72 0
-9 -19 -22 -41 -42 0
-1 -3 -45 -61 -64 0
-5 -6 -16 -18 -72 0
-10 -19 -23 -41 -42 0
-1 -3 -46 -61 -65 0
-5 -6 -16 -18 -73 0
-10 -19 -23 -41 -42 0
-1 -3 -46 -61 -65 0
-5 -6 -16 -18 -73 0
-11 -19 -24 -41 -42 0
-1 -3 -47 -61 -66 0
-5 -6 -16 -18 -74 0
-11 -19 -24 -41 -42 0
-1 -3 -47 -61 -66 0
-5 -6 -16 -18 -74 0
-12 -19 -25 -41 -42 0
-1 -3 -48 -61 -67 0
-5 -6 -16 -18 -75 0
-12 -19 -25 -41 -42 0
-1 -3 -48 -61 -67 0
-5 -6 -16 -18 -75 0
-13 -19 -26 -41 -42 0
-1 -3 -49 -61 -68 0
-5 -6 -16 -18 -76 0
-13 -19 -26 -41 -42 0
-1 -3 -49 -61 -68 0
-5 -6 -16 -18 -76 0
-14 -19 -27 -41 -42 0
-1 -3 -50 -61 -69 0
-5 -6 -16 -18 -77 0
-14 -19 -27 -41 -42 0
-1 -3 -50 -61 -69 0
-5 -6 -16 -18 -77 0
-8 -20 -21 -41 -43 0
-1 -3 -44 -62 -63 0
-5 -7 -16 -18 -78 0
-8 -20 -21 -41 -43 0
-1 -3 -44 -62 -63 0
-5 -7 -16 -18 -78 0
-9 -20 -22 -41 -43 0
-1 -3 -45 -62 -64 0
-5 -7 -16 -18 -79 0
-9 -20 -22 -41 -43 0
-1 -3 -45 -62 -64 0
-5 -7 -16 -18 -79 0
-10 -20 -23 -41 -43 0
-1 -3 -46 -62 -65 0
-5 -7 -16 -18 -80 0
-10 -20 -23 -41 -43 0
-1 -3 -46 -62 -65 0
-5 -7 -16 -18 -80 0
-11 -20 -24 -41 -43 0
-1 -3 -47 -62 -66 0
-5 -7 -16 -18 -81 0
-11 -20 -24 -41 -43 0
-1 -3 -47 -62 -66 0
-5 -7 -16 -18 -81 0
-12 -20 -25 -41 -43 0
-1 -3 -48 -62 -67 0
-5 -7 -16 -18 -82 0
-12 -20 -25 -41 -43 0
-1 -3 -48 -62 -67 0
-5 -7 -16 -18 -82 0
-13 -20 -26 -41 -43 0
-1 -3 -49 -62 -68 0
-5 -7 -16 -18 -83 0
-13 -20 -26 -41 -43 0
-1 -3 -49 -62 -68 0
-5 -7 -16 -18 -83 0
-14 -20 -27 -41 -43 0
-1 -3 -50 -62 -69 0
-5 -7 -16 -18 -84 0
-14 -20 -27 -41 -43 0
-1 -3 -50 -62 -69 0
-5 -7 -16 -18 -84 0
-9 -21 -22 -41 -44 0
-1 -3 -45 -63 -64 0
-5 -8 -16 -18 -85 0
-9 -21 -22 -41 -44 0
-1 -3 -45 -63 -64 0
-5 -8 -16 -18 -85 0
-10 -21 -23 -41 -44 0
-1 -3 -46 -63 -65 0
-5 -8 -16 -18 -86 0
-10 -21 -23 -41 -44 0
-1 -3 -46 -63 -65 0
-5 -8 -16 -18 -86 0
-11 -21 -24 -41 -44 0
-1 -3 -47 -63 -66 0
-5 -8 -16 -18 -87 0
-11 -21 -24 -41 -44 0
-1 -3 -47 -63 -66 0
-5 -8 -16 -18 -87 0
-12 -21 -25 -41 -44 0
-1 -3 -48 -63 -67 0
-5 -8 -16 -18 -88 0
-12 -21 -25 -41 -44 0
-1 -3 -48 -63 -67 0
-5 -8 -16 -18 -88 0
-13 -21 -26 -41 -44 0
-1 -3 -49 -63 -68 0
-5 -8 -16 -18 -89 0
-13 -21 -26 -41 -44 0
-1 -3 -49 -63 -68 0
-5 -8 -16 -18 -89 0
-14 -21 -27 -41 -44 0
-1 -3 -50 -63 -69 0
-5 -8 -16 -18 -90 0
-14 -21 -27 -41 -44 0
-1 -3 -50 -63 -69 0
-5 -8 -16 -18 -90 0
-10 -22 -23 -41 -45 0
-1 -3 -46 -64 -65 0
-5 -9 -16 -18 -91 0
-10 -22 -23 -41 -45 0
-1 -3 -46 -64 -65 0
-5 -9 -16 -18 -91 0
-11 -22 -24 -41 -45 0
-1 -3 -47 -64 -66 0
-5 -9 -16 -18 -92 0
-11 -22 -24 -41 -45 0
-1 -3 -47 -64 -66 0
-5 -9 -16 -18 -92 0
-12 -22 -25 -41 -45 0
-1 -3 -48 -64 -67 0
-5 -9 -16 -18 -93 0
-12 -22 -25 -41 -45 0
-1 -3 -48 -64 -67 0
-5 -9 -16 -18 -93 0
-13 -22 -26 -41 -45 0
-1 -3 -49 -64 -68 0
-5 -9 -16 -18 -94 0
-13 -22 -26 -41 -45 0
-1 -3 -49 -64 -68 0
-5 -9 -16 -18 -94 0
-14 -22 -27 -41 -45 0
-1 -3 -50 -64 -69 0
-5 -9 -16 -18 -95 0
-14 -22 -27 -41 -45 0
-1 -3 -50 -64 -69 0
-5 -9 -16 -18 -95 0
-11 -23 -24 -41 -46 0
-1 -3 -47 -65 -66 0
-5 -10 -16 -18 -96 0
-11 -23 -24 -41 -46 0
-1 -3 -47 -65 -66 0
-5 -10 -16 -18 -96 0
-12 -23 -25 -41 -46 0
-1 -3 -48 -65 -67 0
-5 -10 -16 -18 -97 0
-12 -23 -25 -41 -46 0
-1 -3 -48 -65 -67 0
-5 -10 -16 -18 -97 0
-13 -23 -26 -41 -46 0
-1 -3 -49 -65 -68 0
-5 -10 -16 -18 -98 0
-13 -23 -26 -41 -46 0
-1 -3 -49 -65 -68 0
-5 -10 -16 -18 -98 0
-14 -23 -27 -41 -46 0
-1 -3 -50 -65 -69 0
-5 -10 -16 -18 -99 0
-14 -23 -27 -41 -46 0
-1 -3 -50 -65 -69 0
-5 -10 -16 -18 -99 0
-12 -24 -25 -41 -47 0
-1 -3 -48 -66 -67 0
-5 -11 -16 -18 -100 0
-12 -24 -25 -41 -47 0
-1 -3 -48 -66 -67 0
-5 -11 -16 -18 -100 0
-13 -24 -26 -41 -47 0
-1 -3 -49 -66 -68 0
-5 -11 -16 -18 -101 0
-13 -24 -26 -41 -47 0
-1 -3 -49 -66 -68 0
-5 -11 -16 -18 -101 0
-14 -24 -27 -41 -47 0
-1 -3 -50 -66 -69 0
-5 -11 -16 -18 -102 0
-14 -24 -27 -41 -47 0
-1 -3 -50 -66 -69 0
-5 -11 -16 -18 -102 0
-13 -25 -26 -41 -48 0
-1 -3 -49 -67 -68 0
-5 -12 -16 -18 -103 0
-13 -25 -26 -41 -48 0
-1 -3 -49 -67 -68 0
-5 -12 -16 -18 -103 0
-14 -25 -27 -41 -48 0
-1 -3 -50 -67 -69 0
-5 -12 -16 -18 -104 0
-14 -25 -27 -41 -48 0
-1 -3 -50 -67 -69 0
-5 -12 -16 -18 -104 0
-14 -26 -27 -41 -49 0
-1 -3 -50 -68 -69 0
-5 -13 -16 -18 -105 0
-14 -26 -27 -41 -49 0
-1 -3 -50 -68 -69 0
-5 -13 -16 -18 -105 0
-8 -20 -21 -42 -43 0
-1 -3 -44 -70 -71 0
-6 -7 -16 -19 -78 0
-8 -20 -21 -42 -43 0
-1 -3 -44 -70 -71 0
-6 -7 -16 -19 -78 0
-9 -20 -22 -42 -43 0
-1 -3 -45 -70 -72 0
-6 -7 -16 -19 -79 0
-9 -20 -22 -42 -43 0
-1 -3 -45 -70 -72 0
-6 -7 -16 -19 -79 0
-10 -20 -23 -42 -43 0
-1 -3 -46 -70 -73 0
-6 -7 -16 -19 -80 0
-10 -20 -23 -42 -43 0
-1 -3 -46 -70 -73 0
-6 -7 -16 -19 -80 0
-11 -20 -24 -42 -43 0
-1 -3 -47 -70 -74 0
-6 -7 -16 -19 -81 0
-11 -20 -24 -42 -43 0
-1 -3 -47 -70 -74 0
-6 -7 -16 -19 -81 0
-12 -20 -25 -42 -43 0
-1 -3 -48 -70 -75 0
-6 -7 -16 -19 -82 0
-12 -20 -25 -42 -43 0
-1 -3 -48 -70 -75 0
-6 -7 -16 -19 -82 0
-13 -20 -26 -42 -43 0
-1 -3 -49 -70 -76 0
-6 -7 -16 -19 -83 0
-13 -20 -26 -42 -43 0
-1 -3 -49 -70 -76 0
-6 -7 -16 -19 -83 0
-14 -20 -27 -42 -43 0
-1 -3 -50 -70 -77 0
-6 -7 -16 -19 -84 0
-14 -20 -27 -42 -43 0
-1 -3 -50 -70 -77 0
-6 -7 -16 -19 -84 0
-9 -21 -22 -42 -44 0
-1 -3 -45 -71 -72 0
-6 -8 -16 -19 -85 0
-9 -21 -22 -42 -44 0
-1 -3 -45 -71 -72 0
-6 -8 -16 -19 -85 0
-10 -21 -23 -42 -44 0
-1 -3 -46 -71 -73 0
-6 -8 -16 -19 -86 0
-10 -21 -23 -42 -44 0
-1 -3 -46 -71 -73 0
-6 -8 -16 -19 -86 0
-11 -21 -24 -42 -44 0
-1 -3 -47 -71 -74 0
-6 -8 -16 -19 -87 0
-11 -21 -24 -42 -44 0
-1 -3 -47 -71 -74 0
-6 -8 -16 -19 -87 0
-12 -21 -25 -42 -44 0
-1 -3 -48 -71 -75 0
-6 -8 -16 -19 -88 0
-12 -21 -25 -42 -44 0
-1 -3 -48 -71 -75 0
-6 -8 -16 -19 -88 0
-13 -21 -26 -42 -44 0
-1 -3 -49 -71 -76 0
-6 -8 -16 -19 -89 0
-13 -21 -26 -42 -44 0
-1 -3 -49 -71 -76 0
-6 -8 -16 -19 -89 0
-14 -21 -27 -42 -44 0
-1 -3 -50 -71 -77 0
-6 -8 -16 -19 -90 0
-14 -21 -27 -42 -44 0
-1 -3 -50 -71 -77 0
-6 -8 -16 -19 -90 0
-10 -22 -23 -42 -45 0
-1 -3 -46 -72 -73 0
-6 -9 -16 -19 -91 0
-10 -22 -23 -42 -45 0
-1 -3 -46 -72 -73 0
-6 -9 -16 -19 -91 0
-11 -22 -24 -42 -45 0
-1 -3 -47 -72 -74 0
-6 -9 -16 -19 -92 0
-11 -22 -24 -42 -45 0
-1 -3 -47 -72 -74 0
-6 -9 -16 -19 -92 0
-12 -22 -25 -42 -45 0
-1 -3 -48 -72 -75 0
-6 -9 -16 -19 -93 0
-12 -22 -25 -42 -45 0
-1 -3 -48 -72 -75 0
-6 -9 -16 -19 -93 0
-13 -22 -26 -42 -45 0
-1 -3 -49 -72 -76 0
-6 -9 -16 -19 -94 0
-13 -22 -26 -42 -45 0
-1 -3 -49 -72 -76 0
-6 -9 -16 -19 -94 0
-14 -22 -27 -42 -45 0
-1 -3 -50 -72 -77 0
-6 -9 -16 -19 -95 0
-14 -22 -27 -42 -45 0
-1 -3 -50 -72 -77 0
-6 -9 -16 -19 -95 0
-11 -23 -24 -42 -46 0
-1 -3 -47 -73 -74 0
-6 -10 -16 -19 -96 0
-11 -23 -24 -42 -46 0
-1 -3 -47 -73 -74 0
-6 -10 -16 -19 -96 0
-12 -23 -25 -42 -46 0
-1 -3 -48 -73 -75 0
-6 -10 -16 -19 -97 0
-12 -23 -25 -42 -46 0
-1 -3 -48 -73 -75 0
-6 -10 -16 -19 -97 0
-13 -23 -26 -42 -46 0
-1 -3 -49 -73 -76 0
-6 -10 -16 -19 -98 0
-13 -23 -26 -42 -46 0
-1 -3 -49 -73 -76 0
-6 -10 -16 -19 -98 0
-14 -23 -27 -42 -46 0
-1 -3 -50 -73 -77 0
-6 -10 -16 -19 -99 0
-14 -23 -27 -42 -46 0
-1 -3 -50 -73 -77 0
-6 -10 -16 -19 -99 0
-12 -24 -25 -42 -47 0
-1 -3 -48 -74 -75 0
-6 -11 -16 -19 -100 0
-12 -24 -25 -42 -47 0
-1 -3 -48 -74 -75 0
-6 -11 -16 -19 -100 0
-13 -24 -26 -42 -47 0
-1 -3 -49 -74 -76 0
-6 -11 -16 -19 -101 0
-13 -24 -26 -42 -47 0
-1 -3 -49 -74 -76 0
-6 -11 -16 -19 -101 0
-14 -24 -27 -42 -47 0
-1 -3 -50 -74 -77 0
-6 -11 -16 -19 -102 0
-14 -24 -27 -42 -47 0
-1 -3 -50 -74 -77 0
-6 -11 -16 -19 -102 0
-13 -25 -26 -42 -48 0
-1 -3 -49 -75 -76 0
-6 -12 -16 -19 -103 0
-13 -25 -26 -42 -48 0
-1 -3 -49 -75 -76 0
-6 -12 -16 -19 -103 0
-14 -25 -27 -42 -48 0
-1 -3 -50 -75 -77 0
-6 -12 -16 -19 -104 0
-14 -25 -27 -42 -48 0
-1 -3 -50 -75 -77 0
-6 -12 -16 -19 -104 0
-14 -26 -27 -42 -49 0
-1 -3 -50 -76 -77 0
-6 -13 -16 -19 -105 0
-14 -26 -27 -42 -49 0
-1 -3 -50 -76 -77 0
-6 -13 -16 -19 -105 0
-9 -21 -22 -43 -44 0
-1 -3 -45 -78 -79 0
-7 -8 -16 -20 -85 0
-9 -21 -22 -43 -44 0
-1 -3 -45 -78 -79 0
-7 -8 -16 -20 -85 0
-10 -21 -23 -43 -44 0
-1 -3 -46 -78 -80 0
-7 -8 -16 -20 -86 0
-10 -21 -23 -43 -44 0
-1 -3 -46 -78 -80 0
-7 -8 -16 -20 -86 0
-11 -21 -24 -43 -44 0
-1 -3 -47 -78 -81 0
-7 -8 -16 -20 -87 0
-11 -21 -24 -43 -44 0
-1 -3 -47 -78 -81 0
-7 -8 -16 -20 -87 0
-12 -21 -25 -43 -44 0
-1 -3 -48 -78 -82 0
-7 -8 -16 -20 -88 0
-12 -21 -25 -43 -44 0
-1 -3 -48 -78 -82 0
-7 -8 -16 -20 -88 0
-13 -21 -26 -43 -44 0
-1 -3 -49 -78 -83 0
-7 -8 -16 -20 -89 0
-13 -21 -26 -43 -44 0
-1 -3 -49 -78 -83 0
-7 -8 -16 -20 -89 0
-14 -21 -27 -43 -44 0
-1 -3 -50 -78 -84 0
-7 -8 -16 -20 -90 0
-14 -21 -27 -43 -44 0
-1 -3 -50 -78 -84 0
-7 -8 -16 -20 -90 0
-10 -22 -23 -43 -45 0
-1 -3 -46 -79 -80 0
-7 -9 -16 -20 -91 0
-10 -22 -23 -43 -45 0
-1 -3 -46 -79 -80 0
-7 -9 -16 -20 -91 0
-11 -22 -24 -43 -45 0
-1 -3 -47 -79 -81 0
-7 -9 -16 -20 -92 0
-11 -22 -24 -43 -45 0
-1 -3 -47 -79 -81 0
-7 -9 -16 -20 -92 0
-12 -22 -25 -43 -45 0
-1 -3 -48 -79 -82 0
-7 -9 -16 -20 -93 0
-12 -22 -25 -43 -45 0
-1 -3 -48 -79 -82 0
-7 -9 -16 -20 -93 0
-13 -22 -26 -43 -45 0
-1 -3 -49 -79 -83 0
-7 -9 -16 -20 -94 0
-13 -22 -26 -43 -45 0
-1 -3 -49 -79 -83 0
-7 -9 -16 -20 -94 0
-14 -22 -27 -43 -45 0
-1 -3 -50 -79 -84 0
-7 -9 -16 -20 -95 0
-14 -22 -27 -43 -45 0
-1 -3 -50 -79 -84 0
-7 -9 -16 -20 -95 0
-11 -23 -24 -43 -46 0
-1 -3 -47 -80 -81 0
-7 -10 -16 -20 -96 0
-11 -23 -24 -43 -46 0
-1 -3 -47 -80 -81 0
-7 -10 -16 -20 -96 0
-12 -23 -25 -43 -46 0
-1 -3 -48 -80 -82 0
-7 -10 -16 -20 -97 0
-12 -23 -25 -43 -46 0
-1 -3 -48 -80 -82 0
-7 -10 -16 -20 -97 0
-13 -23 -26 -43 -46 0
-1 -3 -49 -80 -83 0
-7 -10 -16 -20 -98 0
-13 -23 -26 -43 -46 0
-1 -3 -49 -80 -83 0
-7 -10 -16 -20 -98 0
-14 -23 -27 -43 -46 0
-1 -3 -50 -80 -84 0
-7 -10 -16 -20 -99 0
-14 -23 -27 -43 -46 0
-1 -3 -50 -80 -84 0
-7 -10 -16 -20 -99 0
-12 -24 -25 -43 -47 0
-1 -3 -48 -81 -82 0
-7 -11 -16 -20 -100 0
-12 -24 -25 -43 -47 0
-1 -3 -48 -81 -82 0
-7 -11 -16 -20 -100 0
-13 -24 -26 -43 -47 0
-1 -3 -49 -81 -83 0
-7 -11 -16 -20 -101 0
-13 -24 -26 -43 -47 0
-1 -3 -49 -81 -83 0
-7 -11 -16 -20 -101 0
-14 -24 -27 -43 -47 0
-1 -3 -50 -81 -84 0
-7 -11 -16 -20 -102 0
-14 -24 -27 -43 -47 0
-1 -3 -50 -81 -84 0
-7 -11 -16 -20 -102 0
-13 -25 -26 -43 -48 0
-1 -3 -49 -82 -83 0
-7 -12 -16 -20 -103 0
-13 -25 -26 -43 -48 0
-1 -3 -49 -82 -83 0
-7 -12 -16 -20 -103 0
-14 -25 -27 -43 -48 0
-1 -3 -50 -82 -84 0
-7 -12 -16 -20 -104 0
-14 -25 -27 -43 -48 0
-1 -3 -50 -82 -84 0
-7 -12 -16 -20 -104 0
-14 -26 -27 -43 -49 0
-1 -3 -50 -83 -84 0
-7 -13 -16 -20 -105 0
-14 -26 -27 -43 -49 0
-1 -3 -50 -83 -84 0
-7 -13 -16 -20 -105 0
-10 -22 -23 -44 -45 0
-1 -3 -46 -85 -86 0
-8 -9 -16 -21 -91 0
-10 -22 -23 -44 -45 0
-1 -3 -46 -85 -86 0
-8 -9 -16 -21 -91 0
-11 -22 -24 -44 -45 0
-1 -3 -47 -85 -87 0
-8 -9 -16 -21 -92 0
-11 -22 -24 -44 -45 0
-1 -3 -47 -85 -87 0
-8 -9 -16 -21 -92 0
-12 -22 -25 -44 -45 0
-1 -3 -48 -85 -88 0
-8 -9 -16 -21 -93 0
-12 -22 -25 -44 -45 0
-1 -3 -48 -85 -88 0
-8 -9 -16 -21 -93 0
-13 -22 -26 -44 -45 0
-1 -3 -49 -85 -89 0
-8 -9 -16 -21 -94 0
-13 -22 -26 -44 -45 0
-1 -3 -49 -85 -89 0
-8 -9 -16 -21 -94 0
-14 -22 -27 -44 -45 0
-1 -3 -50 -85 -90 0
-8 -9 -16 -21 -95 0
-14 -22 -27 -44 -45 0
-1 -3 -50 -85 -90 0
-8 -9 -16 -21 -95 0
-11 -23 -24 -44 -46 0
-1 -3 -47 -86 -87 0
-8 -10 -16 -21 -96 0
-11 -23 -24 -44 -46 0
-1 -3 -47 -86 -87 0
-8 -10 -16 -21 -96 0
-12 -23 -25 -44 -46 0
-1 -3 -48 -86 -88 0
-8 -10 -16 -21 -97 0
-12 -23 -25 -44 -46 0
-1 -3 -48 -86 -88 0
-8 -10 -16 -21 -97 0
-13 -23 -26 -44 -46 0
-1 -3 -49 -86 -89 0
-8 -10 -16 -21 -98 0
-13 -23 -26 -44 -46 0
-1 -3 -49 -86 -89 0
-8 -10 -16 -21 -98 0
-14 -23 -27 -44 -46 0
-1 -3 -50 -86 -90 0
-8 -10 -16 -21 -99 0
-14 -23 -27 -44 -46 0
-1 -3 -50 -86 -90 0
-8 -10 -16 -21 -99 0
-12 -24 -25 -44 -47 0
-1 -3 -48 -87 -88 0
-8 -11 -16 -21 -100 0
-12 -24 -25 -44 -47 0
-1 -3 -48 -87 -88 0
-8 -11 -16 -21 -100 0
-13 -24 -26 -44 -47 0
-1 -3 -49 -87 -89 0
-8 -11 -16 -21 -101 0
-13 -24 -26 -44 -47 0
-1 -3 -49 -87 -89 0
-8 -11 -16 -21 -101 0
-14 -24 -27 -44 -47 0
-1 -3 -50 -87 -90 0
-8 -11 -16 -21 -102 0
-14 -24 -27 -44 -47 0
-1 -3 -50 -87 -90 0
-8 -11 -16 -21 -102 0
-13 -25 -26 -44 -48 0
-1 -3 -49 -88 -89 0
-8 -12 -16 -21 -103 0
-13 -25 -26 -44 -48 0
-1 -3 -49 -88 -89 0
-8 -12 -16 -21 -103 0
-14 -25 -27 -44 -48 0
-1 -3 -50 -88 -90 0
-8 -12 -16 -21 -104 0
-14 -25 -27 -44 -48 0
-1 -3 -50 -88 -90 0
-8 -12 -16 -21 -104 0
-14 -26 -27 -44 -49 0
-1 -3 -50 -89 -90 0
-8 -13 -16 -21 -105 0
-14 -26 -27 -44 -49 0
-1 -3 -50 -89 -90 0
-8 -13 -16 -21 -105 0
-11 -23 -24 -45 -46 0
-1 -3 -47 -91 -92 0
-9 -10 -16 -22 -96 0
-11 -23 -24 -45 -46 0
-1 -3 -47 -91 -92 0
-9 -10 -16 -22 -96 0
-12 -23 -25 -45 -46 0
-1 -3 -48 -91 -93 0
-9 -10 -16 -22 -97 0
-12 -23 -25 -45 -46 0
-1 -3 -48 -91 -93 0
-9 -10 -16 -22 -97 0
-13 -23 -26 -45 -46 0
-1 -3 -49 -91 -94 0
-9 -10 -16 -22 -98 0
-13 -23 -26 -45 -46 0
-1 -3 -49 -91 -94 0
-9 -10 -16 -22 -98 0
-14 -23 -27 -45 -46 0
-1 -3 -50 -91 -95 0
-9 -10 -16 -22 -99 0
-14 -23 -27 -45 -46 0
-1 -3 -50 -91 -95 0
-9 -10 -16 -22 -99 0
-12 -24 -25 -45 -47 0
-1 -3 -48 -92 -93 0
-9 -11 -16 -22 -100 0
-12 -24 -25 -45 -47 0
-1 -3 -48 -92 -93 0
-9 -11 -16 -22 -100 0
-13 -24 -26 -45 -47 0
-1 -3 -49 -92 -94 0
-9 -11 -16 -22 -101 0
-13 -24 -26 -45 -47 0
-1 -3 -49 -92 -94 0
-9 -11 -16 -22 -101 0
-14 -24 -27 -45 -47 0
-1 -3 -50 -92 -95 0
-9 -11 -16 -22 -102 0
-14 -24 -27 -45 -47 0
-1 -3 -50 -92 -95 0
-9 -11 -16 -22 -102 0
-13 -25 -26 -45 -48 0
-1 -3 -49 -93 -94 0
-9 -12 -16 -22 -103 0
-13 -25 -26 -45 -48 0
-1 -3 -49 -93 -94 0
-9 -12 -16 -22 -103 0
-14 -25 -27 -45 -48 0
-1 -3 -50 -93 -95 0
-9 -12 -16 -22 -104 0
-14 -25 -27 -45 -48 0
-1 -3 -50 -93 -95 0
-9 -12 -16 -22 -104 0
-14 -26 -27 -45 -49 0
-1 -3 -50 -94 -95 0
-9 -13 -16 -22 -105 0
-14 -26 -27 -45 -49 0
-1 -3 -50 -94 -95 0
-9 -13 -16 -22 -105 0
-12 -24 -25 -46 -47 0
-1 -3 -48 -96 -97 0
-10 -11 -16 -23 -100 0
-12 -24 -25 -46 -47 0
-1 -3 -48 -96 -97 0
-10 -11 -16 -23 -100 0
-13 -24 -26 -46 -47 0
-1 -3 -49 -96 -98 0
-10 -11 -16 -23 -101 0
-13 -24 -26 -46 -47 0
-1 -3 -49 -96 -98 0
-10 -11 -16 -23 -101 0
-14 -24 -27 -46 -47 0
-1 -3 -50 -96 -99 0
-10 -11 -16 -23 -102 0
-14 -24 -27 -46 -47 0
-1 -3 -50 -96 -99 0
-10 -11 -16 -23 -102 0
-13 -25 -26 -46 -48 0
-1 -3 -49 -97 -98 0
-10 -12 -16 -23 -103 0
-13 -25 -26 -46 -48 0
-1 -3 -49 -97 -98 0
-10 -12 -16 -23 -103 0
-14 -25 -27 -46 -48 0
-1 -3 -50 -97 -99 0
-10 -12 -16 -23 -104 0
-14 -25 -27 -46 -48 0
-1 -3 -50 -97 -99 0
-10 -12 -16 -23 -104 0
-14 -26 -27 -46 -49 0
-1 -3 -50 -98 -99 0
-10 -13 -16 -23 -105 0
-14 -26 -27 -46 -49 0
-1 -3 -50 -98 -99 0
-10 -13 -16 -23 -105 0
-13 -25 -26 -47 -48 0
-1 -3 -49 -100 -101 0
-11 -12 -16 -24 -103 0
-13 -25 -26 -47 -48 0
-1 -3 -49 -100 -101 0
-11 -12 -16 -24 -103 0
-14 -25 -27 -47 -48 0
-1 -3 -50 -100 -102 0
-11 -12 -16 -24 -104 0
-14 -25 -27 -47 -48 0
-1 -3 -50 -100 -102 0
-11 -12 -16 -24 -104 0
-14 -26 -27 -47 -49 0
-1 -3 -50 -101 -102 0
-11 -13 -16 -24 -105 0
-14 -26 -27 -47 -49 0
-1 -3 -50 -101 -102 0
-11 -13 -16 -24 -105 0
-14 -26 -27 -48 -49 0
-1 -3 -50 -103 -104 0
-12 -13 -16 -25 -105 0
-14 -26 -27 -48 -49 0
-1 -3 -50 -103 -104 0
-12 -13 -16 -25 -105 0
-7 -19 -20 -51 -52 0
-1 -4 -53 -61 -62 0
-5 -6 -17 -18 -70 0
-7 -19 -20 -51 -52 0
-1 -4 -53 -61 -62 0
-5 -6 -17 -18 -70 0
-8 -19 -21 -51 -52 0
-1 -4 -54 -61 -63 0
-5 -6 -17 -18 -71 0
-8 -19 -21 -51 -52 0
-1 -4 -54 -61 -63 0
-5 -6 -17 -18 -71 0
-9 -19 -22 -51 -52 0
-1 -4 -55 -61 -64 0
-5 -6 -17 -18 -72 0
-9 -19 -22 -51 -52 0
-1 -4 -55 -61 -64 0
-5 -6 -17 -18 -72 0
-10 -19 -23 -51 -52 0
-1 -4 -56 -61 -65 0
-5 -6 -17 -18 -73 0
-10 -19 -23 -51 -52 0
-1 -4 -56 -61 -65 0
-5 -6 -17 -18 -73 0
-11 -19 -24 -51 -52 0
-1 -4 -57 -61 -66 0
-5 -6 -17 -18 -74 0
-11 -19 -24 -51 -52 0
-1 -4 -57 -61 -66 0
-5 -6 -17 -18 -74 0
-12 -19 -25 -51 -52 0
-1 -4 -58 -61 -67 0
-5 -6 -17 -18 -75 0
-12 -19 -25 -51 -52 0
-1 -4 -58 -61 -67 0
-5 -6 -17 -18 -75 0
-13 -19 -26 -51 -52 0
-1 -4 -59 -61 -68 0
-5 -6 -17 -18 -76 0
-13 -19 -26 -51 -52 0
-1 -4 -59 -61 -68 0
-5 -6 -17 -18 -76 0
-14 -19 -27 -51 -52 0
-1 -4 -60 -61 -69 0
-5 -6 -17 -18 -77 0
-14 -19 -27 -51 -52 0
-1 -4 -60 -61 -69 0
-5 -6 -17 -18 -77 0
-8 -20 -21 -51 -53 0
-1 -4 -54 -62 -63 0
-5 -7 -17 -18 -78 0
-8 -20 -21 -51 -53 0
-1 -4 -54 -62 -63 0
-5 -7 -17 -18 -78 0
-9 -20 -22 -51 -53 0
-1 -4 -55 -62 -64 0
-5 -7 -17 -18 -79 0
-9 -20 -22 -51 -53 0
-1 -4 -55 -62 -64 0
-5 -7 -17 -18 -79 0
-10 -20 -23 -51 -53 0
-1 -4 -56 -62 -65 0
-5 -7 -17 -18 -80 0
-10 -20 -23 -51 -53 0
-1 -4 -56 -62 -65 0
-5 -7 -17 -18 -80 0
-11 -20 -24 -51 -53 0
-1 -4 -57 -62 -66 0
-5 -7 -17 -18 -81 0
-11 -20 -24 -51 -53 0
-1 -4 -57 -62 -66 0
-5 -7 -17 -18 -81 0
-12 -20 -25 -51 -53 0
-1 -4 -58 -62 -67 0
-5 -7 -17 -18 -82 0
-12 -20 -25 -51 -53 0
-1 -4 -58 -62 -67 0
-5 -7 -17 -18 -82 0
-13 -20 -26 -51 -53 0
-1 -4 -59 -62 -68 0
-5 -7 -17 -18 -83 0
-13 -20 -26 -51 -53 0
-1 -4 -59 -62 -68 0
-5 -7 -17 -18 -83 0
-14 -20 -27 -51 -53 0
-1 -4 -60 -62 -69 0
-5 -7 -17 -18 -84 0
-14 -20 -27 -51 -53 0
-1 -4 -60 -62 -69 0
-5 -7 -17 -18 -84 0
-9 -21 -22 -51 -54 0
-1 -4 -55 -63 -64 0
-5 -8 -17 -18 -85 0
-9 -21 -22 -51 -54 0
-1 -4 -55 -63 -64 0
-5 -8 -17 -18 -85 0
-10 -21 -23 -51 -54 0
-1 -4 -56 -63 -65 0
-5 -8 -17 -18 -86 0
-10 -21 -23 -51 -54 0
-1 -4 -56 -63 -65 0
-5 -8 -17 -18 -86 0
-11 -21 -24 -51 -54 0
-1 -4 -57 -63 -66 0
-5 -8 -17 -18 -87 0
-11 -21 -24 -51 -54 0
-1 -4 -57 -63 -66 0
-5 -8 -17 -18 -87 0
-12 -21 -25 -51 -54 0
-1 -4 -58 -63 -67 0
-5 -8 -17 -18 -88 0
-12 -21 -25 -51 -54 0
-1 -4 -58 -63 -67 0
-5 -8 -17 -18 -88 0
-13 -21 -26 -51 -54 0
-1 -4 -59 -63 -68 0
-5 -8 -17 -18 -89 0
-13 -21 -26 -51 -54 0
-1 -4 -59 -63 -68 0
-5 -8 -17 -18 -89 0
-14 -21 -27 -51 -54 0
-1 -4 -60 -63 -69 0
-5 -8 -17 -18 -90 0
-14 -21 -27 -51 -54 0
-1 -4 -60 -63 -69 0
-5 -8 -17 -18 -90 0
-10 -22 -23 -51 -55 0
-1 -4 -56 -64 -65 0
-5 -9 -17 -18 -91 0
-10 -22 -23 -51 -55 0
-1 -4 -56 -64 -65 0
-5 -9 -17 -18 -91 0
-11 -22 -24 -51 -55 0
-1 -4 -57 -64 -66 0
-5 -9 -17 -18 -92 0
-11 -22 -24 -51 -55 0
-1 -4 -57 -64 -66 0
-5 -9 -17 -18 -92 0
-12 -22 -25 -51 -55 0
-1 -4 -58 -64 -67 0
-5 -9 -17 -18 -93 0
-12 -22 -25 -51 -55 0
-1 -4 -58 -64 -67 0
-5 -9 -17 -18 -93 0
-13 -22 -26 -51 -55 0
-1 -4 -59 -64 -68 0
-5 -9 -17 -18 -94 0
-13 -22 -26 -51 -55 0
-1 -4 -59 -64 -68 0
-5 -9 -17 -18 -94 0
-14 -22 -27 -51 -55 0
-1 -4 -60 -64 -69 0
-5 -9 -17 -18 -95 0
-14 -22 -27 -51 -55 0
-1 -4 -60 -64 -69 0
-5 -9 -17 -18 -95 0
-11 -23 -24 -51 -56 0
-1 -4 -57 -65 -66 0
-5 -10 -17 -18 -96 0
-11 -23 -24 -51 -56 0
-1 -4 -57 -65 -66 0
-5 -10 -17 -18 -96 0
-12 -23 -25 -51 -56 0
-1 -4 -58 -65 -67 0
-5 -10 -17 -18 -97 0
-12 -23 -25 -51 -56 0
-1 -4 -58 -65 -67 0
-5 -10 -17 -18 -97 0
-13 -23 -26 -51 -56 0
-1 -4 -59 -65 -68 0
-5 -10 -17 -18 -98 0
-13 -23 -26 -51 -56 0
-1 -4 -59 -65 -68 0
-5 -10 -17 -18 -98 0
-14 -23 -27 -51 -56 0
-1 -4 -60 -65 -69 0
-5 -10 -17 -18 -99 0
-14 -23 -27 -51 -56 0
-1 -4 -60 -65 -69 0
-5 -10 -17 -18 -99 0
-12 -24 -25 -51 -57 0
-1 -4 -58 -66 -67 0
-5 -11 -17 -18 -100 0
-12 -24 -25 -51 -57 0
-1 -4 -58 -66 -67 0
-5 -11 -17 -18 -100 0
-13 -24 -26 -51 -57 0
-1 -4 -59 -66 -68 0
-5 -11 -17 -18 -101 0
-13 -24 -26 -51 -57 0
-1 -4 -59 -66 -68 0
-5 -11 -17 -18 -101 0
-14 -24 -27 -51 -57 0
-1 -4 -60 -66 -69 0
-5 -11 -17 -18 -102 0
-14 -24 -27 -51 -57 0
-1 -4 -60 -66 -69 0
-5 -11 -17 -18 -102 0
-13 -25 -26 -51 -58 0
-1 -4 -59 -67 -68 0
-5 -12 -17 -18 -103 0
-13 -25 -26 -51 -58 0
-1 -4 -59 -67 -68 0
-5 -12 -17 -18 -103 0
-14 -25 -27 -51 -58 0
-1 -4 -60 -67 -69 0
-5 -12 -17 -18 -104 0
-14 -25 -27 -51 -58 0
-1 -4 -60 -67 -69 0
-5 -12 -17 -18 -104 0
-14 -26 -27 -51 -59 0
-1 -4 -60 -68 -69 0
-5 -13 -17 -18 -105 0
-14 -26 -27 -51 -59 0
-1 -4 -60 -68 -69 0
-5 -13 -17 -18 -105 0
-8 -20 -21 -52 -53 0
-1 -4 -54 -70 -71 0
-6 -7 -17 -19 -78 0
-8 -20 -21 -52 -53 0
-1 -4 -54 -70 -71 0
-6 -7 -17 -19 -78 0
-9 -20 -22 -52 -53 0
-1 -4 -55 -70 -72 0
-6 -7 -17 -19 -79 0
-9 -20 -22 -52 -53 0
-1 -4 -55 -70 -72 0
-6 -7 -17 -19 -79 0
-10 -20 -23 -52 -53 0
-1 -4 -56 -70 -73 0
-6 -7 -17 -19 -80 0
-10 -20 -23 -52 -53 0
-1 -4 -56 -70 -73 0
-6 -7 -17 -19 -80 0
-11 -20 -24 -52 -53 0
-1 -4 -57 -70 -74 0
-6 -7 -17 -19 -81 0
-11 -20 -24 -52 -53 0
-1 -4 -57 -70 -74 0
-6 -7 -17 -19 -81 0
-12 -20 -25 -52 -53 0
-1 -4 -58 -70 -75 0
-6 -7 -17 -19 -82 0
-12 -20 -25 -52 -53 0
-1 -4 -58 -70 -75 0
-6 -7 -17 -19 -82 0
-13 -20 -26 -52 -53 0
-1 -4 -59 -70 -76 0
-6 -7 -17 -19 -83 0
-13 -20 -26 -52 -53 0
-1 -4 -59 -70 -76 0
-6 -7 -17 -19 -83 0
-14 -20 -27 -52 -53 0
-1 -4 -60 -70 -77 0
-6 -7 -17 -19 -84 0
-14 -20 -27 -52 -53 0
-1 -4 -60 -70 -77 0
-6 -7 -17 -19 -84 0
-9 -21 -22 -52 -54 0
-1 -4 -55 -71 -72 0
-6 -8 -17 -19 -85 0
-9 -21 -22 -52 -54 0
-1 -4 -55 -71 -72 0
-6 -8 -17 -19 -85 0
-10 -21 -23 -52 -54 0
-1 -4 -56 -71 -73 0
-6 -8 -17 -19 -86 0
-10 -21 -23 -52 -54 0
-1 -4 -56 -71 -73 0
-6 -8 -17 -19 -86 0
-11 -21 -24 -52 -54 0
-1 -4 -57 -71 -74 0
-6 -8 -17 -19 -87 0
-11 -21 -24 -52 -54 0
-1 -4 -57 -71 -74 0
-6 -8 -17 -19 -87 0
-12 -21 -25 -52 -54 0
-1 -4 -58 -71 -75 0
-6 -8 -17 -19 -88 0
-12 -21 -25 -52 -54 0
-1 -4 -58 -71 -75 0
-6 -8 -17 -19 -88 0
-13 -21 -26 -52 -54 0
-1 -4 -59 -71 -76 0
-6 -8 -17 -19 -89 0
-13 -21 -26 -52 -54 0
-1 -4 -59 -71 -76 0
-6 -8 -17 -19 -89 0
-14 -21 -27 -52 -54 0
-1 -4 -60 -71 -77 0
-6 -8 -17 -19 -90 0
-14 -21 -27 -52 -54 0
-1 -4 -60 -71 -77 0
-6 -8 -17 -19 -90 0
-10 -22 -23 -52 -55 0
-1 -4 -56 -72 -73 0
-6 -9 -17 -19 -91 0
-10 -22 -23 -52 -55 0
-1 -4 -56 -72 -73 0
-6 -9 -17 -19 -91 0
-11 -22 -24 -52 -55 0
-1 -4 -57 -72 -74 0
-6 -9 -17 -19 -92 0
-11 -22 -24 -52 -55 0
-1 -4 -57 -72 -74 0
-6 -9 -17 -19 -92 0
-12 -22 -25 -52 -55 0
-1 -4 -58 -72 -75 0
-6 -9 -17 -19 -93 0
-12 -22 -25 -52 -55 0
-1 -4 -58 -72 -75 0
-6 -9 -17 -19 -93 0
-13 -22 -26 -52 -55 0
-1 -4 -59 -72 -76 0
-6 -9 -17 -19 -94 0
-13 -22 -26 -52 -55 0
-1 -4 -59 -72 -76 0
-6 -9 -17 -19 -94 0
-14 -22 -27 -52 -55 0
-1 -4 -60 -72 -77 0
-6 -9 -17 -19 -95 0
-14 -22 -27 -52 -55 0
-1 -4 -60 -72 -77 0
-6 -9 -17 -19 -95 0
-11 -23 -24 -52 -56 0
-1 -4 -57 -73 -74 0
-6 -10 -17 -19 -96 0
-11 -23 -24 -52 -56 0
-1 -4 -57 -73 -74 0
-6 -10 -17 -19 -96 0
-12 -23 -25 -52 -56 0
-1 -4 -58 -73 -75 0
-6 -10 -17 -19 -97 0
-12 -23 -25 -52 -56 0
-1 -4 -58 -73 -75 0
-6 -10 -17 -19 -97 0
-13 -23 -26 -52 -56 0
-1 -4 -59 -73 -76 0
-6 -10 -17 -19 -98 0
-13 -23 -26 -52 -56 0
-1 -4 -59 -73 -76 0
-6 -10 -17 -19 -98 0
-14 -23 -27 -52 -56 0
-1 -4 -60 -73 -77 0
-6 -10 -17 -19 -99 0
-14 -23 -27 -52 -56 0
-1 -4 -60 -73 -77 0
-6 -10 -17 -19 -99 0
-12 -24 -25 -52 -57 0
-1 -4 -58 -74 -75 0
-6 -11 -17 -19 -100 0
-12 -24 -25 -52 -57 0
-1 -4 -58 -74 -75 0
-6 -11 -17 -19 -100 0
-13 -24 -26 -52 -57 0
-1 -4 -59 -74 -76 0
-6 -11 -17 -19 -101 0
-13 -24 -26 -52 -57 0
-1 -4 -59 -74 -76 0
-6 -11 -17 -19 -101 0
-14 -24 -27 -52 -57 0
-1 -4 -60 -74 -77 0
-6 -11 -17 -19 -102 0
-14 -24 -27 -52 -57 0
-1 -4 -60 -74 -77 0
-6 -11 -17 -19 -102 0
-13 -25 -26 -52 -58 0
-1 -4 -59 -75 -76 0
-6 -12 -17 -19 -103 0
-13 -25 -26 -52 -58 0
-1 -4 -59 -75 -76 0
-6 -12 -17 -19 -103 0
-14 -25 -27 -52 -58 0
-1 -4 -60 -75 -77 0
-6 -12 -17 -19 -104 0
-14 -25 -27 -52 -58 0
-1 -4 -60 -75 -77 0
-6 -12 -17 -19 -104 0
-14 -26 -27 -52 -59 0
-1 -4 -60 -76 -77 0
-6 -13 -17 -19 -105 0
-14 -26 -27 -52 -59 0
-1 -4 -60 -76 -77 0
-6 -13 -17 -19 -105 0
-9 -21 -22 -53 -54 0
-1 -4 -55 -78 -79 0
-7 -8 -17 -20 -85 0
-9 -21 -22 -53 -54 0
-1 -4 -55 -78 -79 0
-7 -8 -17 -20 -85 0
-10 -21 -23 -53 -54 0
-1 -4 -56 -78 -80 0
-7 -8 -17 -20 -86 0
-10 -21 -23 -53 -54 0
-1 -4 -56 -78 -80 0
-7 -8 -17 -20 -86 0
-11 -21 -24 -53 -54 0
-1 -4 -57 -78 -81 0
-7 -8 -17 -20 -87 0
-11 -21 -24 -53 -54 0
-1 -4 -57 -78 -81 0
-7 -8 -17 -20 -87 0
-12 -21 -25 -53 -54 0
-1 -4 -58 -78 -82 0
-7 -8 -17 -20 -88 0
-12 -21 -25 -53 -54 0
-1 -4 -58 -78 -82 0
-7 -8 -17 -20 -88 0
-13 -21 -26 -53 -54 0
-1 -4 -59 -78 -83 0
-7 -8 -17 -20 -89 0
-13 -21 -26 -53 -54 0
-1 -4 -59 -78 -83 0
-7 -8 -17 -20 -89 0
-14 -21 -27 -53 -54 0
-1 -4 -60 -78 -84 0
-7 -8 -17 -20 -90 0
-14 -21 -27 -53 -54 0
-1 -4 -60 -78 -84 0
-7 -8 -17 -20 -90 0
-10 -22 -23 -53 -55 0
-1 -4 -56 -79 -80 0
-7 -9 -17 -20 -91 0
-10 -22 -23 -53 -55 0
-1 -4 -56 -79 -80 0
-7 -9 -17 -20 -91 0
-11 -22 -24 -53 -55 0
-1 -4 -57 -79 -81 0
-7 -9 -17 -20 -92 0
-11 -22 -24 -53 -55 0
-1 -4 -57 -79 -81 0
-7 -9 -17 -20 -92 0
-12 -22 -25 -53 -55 0
-1 -4 -58 -79 -82 0
-7 -9 -17 -20 -93 0
-12 -22 -25 -53 -55 0
-1 -4 -58 -79 -82 0
-7 -9 -17 -20 -93 0
-13 -22 -26 -53 -55 0
-1 -4 -59 -79 -83 0
-7 -9 -17 -20 -94 0
-13 -22 -26 -53 -55 0
-1 -4 -59 -79 -83 0
-7 -9 -17 -20 -94 0
-14 -22 -27 -53 -55 0
-1 -4 -60 -79 -84 0
-7 -9 -17 -20 -95 0
-14 -22 -27 -53 -55 0
-1 -4 -60 -79 -84 0
-7 -9 -17 -20 -95 0
-11 -23 -24 -53 -56 0
-1 -4 -57 -80 -81 0
-7 -10 -17 -20 -96 0
-11 -23 -24 -53 -56 0
-1 -4 -57 -80 -81 0
-7 -10 -17 -20 -96 0
-12 -23 -25 -53 -56 0
-1 -4 -58 -80 -82 0
-7 -10 -17 -20 -97 0
-12 -23 -25 -53 -56 0
-1 -4 -58 -80 -82 0
-7 -10 -17 -20 -97 0
-13 -23 -26 -53 -56 0
-1 -4 -59 -80 -83 0
-7 -10 -17 -20 -98 0
-13 -23 -26 -53 -56 0
-1 -4 -59 -80 -83 0
-7 -10 -17 -20 -98 0
-14 -23 -27 -53 -56 0
-1 -4 -60 -80 -84 0
-7 -10 -17 -20 -99 0
-14 -23 -27 -53 -56 0
-1 -4 -60 -80 -84 0
-7 -10 -17 -20 -99 0
-12 -24 -25 -53 -57 0
-1 -4 -58 -81 -82 0
-7 -11 -17 -20 -100 0
-12 -24 -25 -53 -57 0
-1 -4 -58 -81 -82 0
-7 -11 -17 -20 -100 0
-13 -24 -26 -53 -57 0
-1 -4 -59 -81 -83 0
-7 -11 -17 -20 -101 0
-13 -24 -26 -53 -57 0
-1 -4 -59 -81 -83 0
-7 -11 -17 -20 -101 0
-14 -24 -27 -53 -57 0
-1 -4 -60 -81 -84 0
-7 -11 -17 -20 -102 0
-14 -24 -27 -53 -57 0
-1 -4 -60 -81 -84 0
-7 -11 -17 -20 -102 0
-13 -25 -26 -53 -58 0
-1 -4 -59 -82 -83 0
-7 -12 -17 -20 -103 0
-13 -25 -26 -53 -58 0
-1 -4 -59 -82 -83 0
-7 -12 -17 -20 -103 0
-14 -25 -27 -53 -58 0
-1 -4 -60 -82 -84 0
-7 -12 -17 -20 -104 0
-14 -25 -27 -53 -58 0
-1 -4 -60 -82 -84 0
-7 -12 -17 -20 -104 0
-14 -26 -27 -53 -59 0
-1 -4 -60 -83 -84 0
-7 -13 -17 -20 -105 0
-14 -26 -27 -53 -59 0
-1 -4 -60 -83 -84 0
-7 -13 -17 -20 -105 0
-10 -22 -23 -54 -55 0
-1 -4 -56 -85 -86 0
-8 -9 -17 -21 -91 0
-10 -22 -23 -54 -55 0
-1 -4 -56 -85 -86 0
-8 -9 -17 -21 -91 0
-11 -22 -24 -54 -55 0
-1 -4 -57 -85 -87 0
-8 -9 -17 -21 -92 0
-11 -22 -24 -54 -55 0
-1 -4 -57 -85 -87 0
-8 -9 -17 -21 -92 0
-12 -22 -25 -54 -55 0
-1 -4 -58 -85 -88 0
-8 -9 -17 -21 -93 0
-12 -22 -25 -54 -55 0
-1 -4 -58 -85 -88 0
-8 -9 -17 -21 -93 0
-13 -22 -26 -54 -55 0
-1 -4 -59 -85 -89 0
-8 -9 -17 -21 -94 0
-13 -22 -26 -54 -55 0
-1 -4 -59 -85 -89 0
-8 -9 -17 -21 -94 0
-14 -22 -27 -54 -55 0
-1 -4 -60 -85 -90 0
-8 -9 -17 -21 -95 0
-14 -22 -27 -54 -55 0
-1 -4 -60 -85 -90 0
-8 -9 -17 -21 -95 0
-11 -23 -24 -54 -56 0
-1 -4 -57 -86 -87 0
-8 -10 -17 -21 -96 0
-11 -23 -24 -54 -56 0
-1 -4 -57 -86 -87 0
-8 -10 -17 -21 -96 0
-12 -23 -25 -54 -56 0
-1 -4 -58 -86 -88 0
-8 -10 -17 -21 -97 0
-12 -23 -25 -54 -56 0
-1 -4 -58 -86 -88 0
-8 -10 -17 -21 -97 0
-13 -23 -26 -54 -56 0
-1 -4 -59 -86 -89 0
-8 -10 -17 -21 -98 0
-13 -23 -26 -54 -56 0
-1 -4 -59 -86 -89 0
-8 -10 -17 -21 -98 0
-14 -23 -27 -54 -56 0
-1 -4 -60 -86 -90 0
-8 -10 -17 -21 -99 0
-14 -23 -27 -54 -56 0
-1 -4 -60 -86 -90 0
-8 -10 -17 -21 -99 0
-12 -24 -25 -54 -57 0
-1 -4 -58 -87 -88 0
-8 -11 -17 -21 -100 0
-12 -24 -25 -54 -57 0
-1 -4 -58 -87 -88 0
-8 -11 -17 -21 -100 0
-13 -24 -26 -54 -57 0
-1 -4 -59 -87 -89 0
-8 -11 -17 -21 -101 0
-13 -24 -26 -54 -57 0
-1 -4 -59 -87 -89 0
-8 -11 -17 -21 -101 0
-14 -24 -27 -54 -57 0
-1 -4 -60 -87 -90 0
-8 -11 -17 -21 -102 0
-14 -24 -27 -54 -57 0
-1 -4 -60 -87 -90 0
-8 -11 -17 -21 -102 0
-13 -25 -26 -54 -58 0
-1 -4 -59 -88 -89 0
-8 -12 -17 -21 -103 0
-13 -25 -26 -54 -58 0
-1 -4 -59 -88 -89 0
-8 -12 -17 -21 -103 0
-14 -25 -27 -54 -58 0
-1 -4 -60 -88 -90 0
-8 -12 -17 -21 -104 0
-14 -25 -27 -54 -58 0
-1 -4 -60 -88 -90 0
-8 -12 -17 -21 -104 0
-14 -26 -27 -54 -59 0
-1 -4 -60 -89 -90 0
-8 -13 -17 -21 -105 0
-14 -26 -27 -54 -59 0
-1 -4 -60 -89 -90 0
-8 -13 -17 -21 -105 0
-11 -23 -24 -55 -56 0
-1 -4 -57 -91 -92 0
-9 -10 -17 -22 -96 0
-11 -23 -24 -55 -56 0
-1 -4 -57 -91 -92 0
-9 -10 -17 -22 -96 0
-12 -23 -25 -55 -56 0
-1 -4 -58 -91 -93 0
-9 -10 -17 -22 -97 0
-12 -23 -25 -55 -56 0
-1 -4 -58 -91 -93 0
-9 -10 -17 -22 -97 0
-13 -23 -26 -55 -56 0
-1 -4 -59 -91 -94 0
-9 -10 -17 -22 -98 0
-13 -23 -26 -55 -56 0
-1 -4 -59 -91 -94 0
-9 -10 -17 -22 -98 0
-14 -23 -27 -55 -56 0
-1 -4 -60 -91 -95 0
-9 -10 -17 -22 -99 0
-14 -23 -27 -55 -56 0
-1 -4 -60 -91 -95 0
-9 -10 -17 -22 -99 0
-12 -24 -25 -55 -57 0
-1 -4 -58 -92 -93 0
-9 -11 -17 -22 -100 0
-12 -24 -25 -55 -57 0
-1 -4 -58 -92 -93 0
-9 -11 -17 -22 -100 0
-13 -24 -26 -55 -57 0
-1 -4 -59 -92 -94 0
-9 -11 -17 -22 -101 0
-13 -24 -26 -55 -57 0
-1 -4 -59 -92 -94 0
-9 -11 -17 -22 -101 0
-14 -24 -27 -55 -57 0
-1 -4 -60 -92 -95 0
-9 -11 -17 -22 -102 0
-14 -24 -27 -55 -57 0
-1 -4 -60 -92 -95 0
-9 -11 -17 -22 -102 0
-13 -25 -26 -55 -58 0
-1 -4 -59 -93 -94 0
-9 -12 -17 -22 -103 0
-13 -25 -26 -55 -58 0
-1 -4 -59 -93 -94 0
-9 -12 -17 -22 -103 0
-14 -25 -27 -55 -58 0
-1 -4 -60 -93 -95 0
-9 -12 -17 -22 -104 0
-14 -25 -27 -55 -58 0
-1 -4 -60 -93 -95 0
-9 -12 -17 -22 -104 0
-14 -26 -27 -55 -59 0
-1 -4 -60 -94 -95 0
-9 -13 -17 -22 -105 0
-14 -26 -27 -55 -59 0
-1 -4 -60 -94 -95 0
-9 -13 -17 -22 -105 0
-12 -24 -25 -56 -57 0
-1 -4 -58 -96 -97 0
-10 -11 -17 -23 -100 0
-12 -24 -25 -56 -57 0
-1 -4 -58 -96 -97 0
-10 -11 -17 -23 -100 0
-13 -24 -26 -56 -57 0
-1 -4 -59 -96 -98 0
-10 -11 -17 -23 -101 0
-13 -24 -26 -56 -57 0
-1 -4 -59 -96 -98 0
-10 -11 -17 -23 -101 0
-14 -24 -27 -56 -57 0
-1 -4 -60 -96 -99 0
-10 -11 -17 -23 -102 0
-14 -24 -27 -56 -57 0
-1 -4 -60 -96 -99 0
-10 -11 -17 -23 -102 0
-13 -25 -26 -56 -58 0
-1 -4 -59 -97 -98 0
-10 -12 -17 -23 -103 0
-13 -25 -26 -56 -58 0
-1 -4 -59 -97 -98 0
-10 -12 -17 -23 -103 0
-14 -25 -27 -56 -58 0
-1 -4 -60 -97 -99 0
-10 -12 -17 -23 -104 0
-14 -25 -27 -56 -58 0
-1 -4 -60 -97 -99 0
-10 -12 -17 -23 -104 0
-14 -26 -27 -56 -59 0
-1 -4 -60 -98 -99 0
-10 -13 -17 -23 -105 0
-14 -26 -27 -56 -59 0
-1 -4 -60 -98 -99 0
-10 -13 -17 -23 -105 0
-13 -25 -26 -57 -58 0
-1 -4 -59 -100 -101 0
-11 -12 -17 -24 -103 0
-13 -25 -26 -57 -58 0
-1 -4 -59 -100 -101 0
-11 -12 -17 -24 -103 0
-14 -25 -27 -57 -58 0
-1 -4 -60 -100 -102 0
-11 -12 -17 -24 -104 0
-14 -25 -27 -57 -58 0
-1 -4 -60 -100 -102 0
-11 -12 -17 -24 -104 0
-14 -26 -27 -57 -59 0
-1 -4 -60 -101 -102 0
-11 -13 -17 -24 -105 0
-14 -26 -27 -57 -59 0
-1 -4 -60 -101 -102 0
-11 -13 -17 -24 -105 0
-14 -26 -27 -58 -59 0
-1 -4 -60 -103 -104 0
-12 -13 -17 -25 -105 0
-14 -26 -27 -58 -59 0
-1 -4 -60 -103 -104 0
-12 -13 -17 -25 -105 0
-8 -20 -21 -61 -62 0
-1 -5 -63 -70 -71 0
-6 -7 -18 -19 -78 0
-8 -20 -21 -61 -62 0
-1 -5 -63 -70 -71 0
-6 -7 -18 -19 -78 0
-9 -20 -22 -61 -62 0
-1 -5 -64 -70 -72 0
-6 -7 -18 -19 -79 0
-9 -20 -22 -61 -62 0
-1 -5 -64 -70 -72 0
-6 -7 -18 -19 -79 0
-10 -20 -23 -61 -62 0
-1 -5 -65 -70 -73 0
-6 -7 -18 -19 -80 0
-10 -20 -23 -61 -62 0
-1 -5 -65 -70 -73 0
-6 -7 -18 -19 -80 0
-11 -20 -24 -61 -62 0
-1 -5 -66 -70 -74 0
-6 -7 -18 -19 -81 0
-11 -20 -24 -61 -62 0
-1 -5 -66 -70 -74 0
-6 -7 -18 -19 -81 0
-12 -20 -25 -61 -62 0
-1 -5 -67 -70 -75 0
-6 -7 -18 -19 -82 0
-12 -20 -25 -61 -62 0
-1 -5 -67 -70 -75 0
-6 -7 -18 -19 -82 0
-13 -20 -26 -61 -62 0
-1 -5 -68 -70 -76 0
-6 -7 -18 -19 -83 0
-13 -20 -26 -61 -62 0
-1 -5 -68 -70 -76 0
-6 -7 -18 -19 -83 0
-14 -20 -27 -61 -62 0
-1 -5 -69 -70 -77 0
-6 -7 -18 -19 -84 0
-14 -20 -27 -61 -62 0
-1 -5 -69 -70 -77 0
-6 -7 -18 -19 -84 0
-9 -21 -22 -61 -63 0
-1 -5 -64 -71 -72 0
-6 -8 -18 -19 -85 0
-9 -21 -22 -61 -63 0
-1 -5 -64 -71 -72 0
-6 -8 -18 -19 -85 0
-10 -21 -23 -61 -63 0
-1 -5 -65 -71 -73 0
-6 -8 -18 -19 -86 0
-10 -21 -23 -61 -63 0
-1 -5 -65 -71 -73 0
-6 -8 -18 -19 -86 0
-11 -21 -24 -61 -63 0
-1 -5 -66 -71 -74 0
-6 -8 -18 -19 -87 0
-11 -21 -24 -61 -63 0
-1 -5 -66 -71 -74 0
-6 -8 -18 -19 -87 0
-12 -21 -25 -61 -63 0
-1 -5 -67 -71 -75 0
-6 -8 -18 -19 -88 0
-12 -21 -25 -61 -63 0
-1 -5 -67 -71 -75 0
-6 -8 -18 -19 -88 0
-13 -21 -26 -61 -63 0
-1 -5 -68 -71 -76 0
-6 -8 -18 -19 -89 0
-13 -21 -26 -61 -63 0
-1 -5 -68 -71 -76 0
-6 -8 -18 -19 -89 0
-14 -21 -27 -61 -63 0
-1 -5 -69 -71 -77 0
-6 -8 -18 -19 -90 0
-14 -21 -27 -61 -63 0
-1 -5 -69 -71 -77 0
-6 -8 -18 -19 -90 0
-10 -22 -23 -61 -64 0
-1 -5 -65 -72 -73 0
-6 -9 -18 -19 -91 0
-10 -22 -23 -61 -64 0
-1 -5 -65 -72 -73 0
-6 -9 -18 -19 -91 0
-11 -22 -24 -61 -64 0
-1 -5 -66 -72 -74 0
-6 -9 -18 -19 -92 0
-11 -22 -24 -61 -64 0
-1 -5 -66 -72 -74 0
-6 -9 -18 -19 -92 0
-12 -22 -25 -61 -64 0
-1 -5 -67 -72 -75 0
-6 -9 -18 -19 -93 0
-12 -22 -25 -61 -64 0
-1 -5 -67 -72 -75 0
-6 -9 -18 -19 -93 0
-13 -22 -26 -61 -64 0
-1 -5 -68 -72 -76 0
-6 -9 -18 -19 -94 0
-13 -22 -26 -61 -64 0
-1 -5 -68 -72 -76 0
-6 -9 -18 -19 -94 0
-14 -22 -27 -61 -64 0
-1 -5 -69 -72 -77 0
-6 -9 -18 -19 -95 0
-14 -22 -27 -61 -64 0
-1 -5 -69 -72 -77 0
-6 -9 -18 -19 -95 0
-11 -23 -24 -61 -65 0
-1 -5 -66 -73 -74 0
-6 -10 -18 -19 -96 0
-11 -23 -24 -61 -65 0
-1 -5 -66 -73 -74 0
-6 -10 -18 -19 -96 0
-12 -23 -25 -61 -65 0
-1 -5 -67 -73 -75 0
-6 -10 -18 -19 -97 0
-12 -23 -25 -61 -65 0
-1 -5 -67 -73 -75 0
-6 -10 -18 -19 -97 0
-13 -23 -26 -61 -65 0
-1 -5 -68 -73 -76 0
-6 -10 -18 -19 -98 0
-13 -23 -26 -61 -65 0
-1 -5 -68 -73 -76 0
-6 -10 -18 -19 -98 0
-14 -23 -27 -61 -65 0
-1 -5 -69 -73 -77 0
-6 -10 -18 -19 -99 0
-14 -23 -27 -61 -65 0
-1 -5 -69 -73 -77 0
-6 -10 -18 -19 -99 0
-12 -24 -25 -61 -66 0
-1 -5 -67 -74 -75 0
-6 -11 -18 -19 -100 0
-12 -24 -25 -61 -66 0
-1 -5 -67 -74 -75 0
-6 -11 -18 -19 -100 0
-13 -24 -26 -61 -66 0
-1 -5 -68 -74 -76 0
-6 -11 -18 -19 -101 0
-13 -24 -26 -61 -66 0
-1 -5 -68 -74 -76 0
-6 -11 -18 -19 -101 0
-14 -24 -27 -61 -66 0
-1 -5 -69 -74 -77 0
-6 -11 -18 -19 -102 0
-14 -24 -27 -61 -66 0
-1 -5 -69 -74 -77 0
-6 -11 -18 -19 -102 0
-13 -25 -26 -61 -67 0
-1 -5 -68 -75 -76 0
-6 -12 -18 -19 -103 0
-13 -25 -26 -61 -67 0
-1 -5 -68 -75 -76 0
-6 -12 -18 -19 -103 0
-14 -25 -27 -61 -67 0
-1 -5 -69 -75 -77 0
-6 -12 -18 -19 -104 0
-14 -25 -27 -61 -67 0
-1 -5 -69 -75 -77 0
-6 -12 -18 -19 -104 0
-14 -26 -27 -61 -68 0
-1 -5 -69 -76 -77 0
-6 -13 -18 -19 -105 0
-14 -26 -27 -61 -68 0
-1 -5 -69 -76 -77 0
-6 -13 -18 -19 -105 0
-9 -21 -22 -62 -63 0
-1 -5 -64 -78 -79 0
-7 -8 -18 -20 -85 0
-9 -21 -22 -62 -63 0
-1 -5 -64 -78 -79 0
-7 -8 -18 -20 -85 0
-10 -21 -23 -62 -63 0
-1 -5 -65 -78 -80 0
-7 -8 -18 -20 -86 0
-10 -21 -23 -62 -63 0
-1 -5 -65 -78 -80 0
-7 -8 -18 -20 -86 0
-11 -21 -24 -62 -63 0
-1 -5 -66 -78 -81 0
-7 -8 -18 -20 -87 0
-11 -21 -24 -62 -63 0
-1 -5 -66 -78 -81 0
-7 -8 -18 -20 -87 0
-12 -21 -25 -62 -63 0
-1 -5 -67 -78 -82 0
-7 -8 -18 -20 -88 0
-12 -21 -25 -62 -63 0
-1 -5 -67 -78 -82 0
-7 -8 -18 -20 -88 0
-13 -21 -26 -62 -63 0
-1 -5 -68 -78 -83 0
-7 -8 -18 -20 -89 0
-13 -21 -26 -62 -63 0
-1 -5 -68 -78 -83 0
-7 -8 -18 -20 -89 0
-14 -21 -27 -62 -63 0
-1 -5 -69 -78 -84 0
-7 -8 -18 -20 -90 0
-14 -21 -27 -62 -63 0
-1 -5 -69 -78 -84 0
-7 -8 -18 -20 -90 0
-10 -22 -23 -62 -64 0
-1 -5 -65 -79 -80 0
-7 -9 -18 -20 -91 0
-10 -22 -23 -62 -64 0
-1 -5 -65 -79 -80 0
-7 -9 -18 -20 -91 0
-11 -22 -24 -62 -64 0
-1 -5 -66 -79 -81 0
-7 -9 -18 -20 -92 0
-11 -22 -24 -62 -64 0
-1 -5 -66 -79 -81 0
-7 -9 -18 -20 -92 0
-12 -22 -25 -62 -64 0
-1 -5 -67 -79 -82 0
-7 -9 -18 -20 -93 0
-12 -22 -25 -62 -64 0
-1 -5 -67 -79 -82 0
-7 -9 -18 -20 -93 0
-13 -22 -26 -62 -64 0
-1 -5 -68 -79 -83 0
-7 -9 -18 -20 -94 0
-13 -22 -26 -62 -64 0
-1 -5 -68 -79 -83 0
-7 -9 -18 -20 -94 0
-14 -22 -27 -62 -64 0
-1 -5 -69 -79 -84 0
-7 -9 -18 -20 -95 0
-14 -22 -27 -62 -64 0
-1 -5 -69 -79 -84 0
-7 -9 -18 -20 -95 0
-11 -23 -24 -62 -65 0
-1 -5 -66 -80 -81 0
-7 -10 -18 -20 -96 0
-11 -23 -24 -62 -65 0
-1 -5 -66 -80 -81 0
-7 -10 -18 -20 -96 0
-12 -23 -25 -62 -65 0
-1 -5 -67 -80 -82 0
-7 -10 -18 -20 -97 0
-12 -23 -25 -62 -65 0
-1 -5 -67 -80 -82 0
-7 -10 -18 -20 -97 0
-13 -23 -26 -62 -65 0
-1 -5 -68 -80 -83 0
-7 -10 -18 -20 -98 0
-13 -23 -26 -62 -65 0
-1 -5 -68 -80 -83 0
-7 -10 -18 -20 -98 0
-14 -23 -27 -62 -65 0
-1 -5 -69 -80 -84 0
-7 -10 -18 -20 -99 0
-14 -23 -27 -62 -65 0
-1 -5 -69 -80 -84 0
-7 -10 -18 -20 -99 0
-12 -24 -25 -62 -66 0
-1 -5 -67 -81 -82 0
-7 -11 -18 -20 -100 0
-12 -24 -25 -62 -66 0
-1 -5 -67 -81 -82 0
-7 -11 -18 -20 -100 0
-13 -24 -26 -62 -66 0
-1 -5 -68 -81 -83 0
-7 -11 -18 -20 -101 0
-13 -24 -26 -62 -66 0
-1 -5 -68 -81 -83 0
-7 -11 -18 -20 -101 0
-14 -24 -27 -62 -66 0
-1 -5 -69 -81 -84 0
-7 -11 -18 -20 -102 0
-14 -24 -27 -62 -66 0
-1 -5 -69 -81 -84 0
-7 -11 -18 -20 -102 0
-13 -25 -26 -62 -67 0
-1 -5 -68 -82 -83 0
-7 -12 -18 -20 -103 0
-13 -25 -26 -62 -67 0
-1 -5 -68 -82 -83 0
-7 -12 -18 -20 -103 0
-14 -25 -27 -62 -67 0
-1 -5 -69 -82 -84 0
-7 -12 -18 -20 -104 0
-14 -25 -27 -62 -67 0
-1 -5 -69 -82 -84 0
-7 -12 -18 -20 -104 0
-14 -26 -27 -62 -68 0
-1 -5 -69 -83 -84 0
-7 -13 -18 -20 -105 0
-14 -26 -27 -62 -68 0
-1 -5 -69 -83 -84 0
-7 -13 -18 -20 -105 0
-10 -22 -23 -63 -64 0
-1 -5 -65 -85 -86 0
-8 -9 -18 -21 -91 0
-10 -22 -23 -63 -64 0
-1 -5 -65 -85 -86 0
-8 -9 -18 -21 -91 0
-11 -22 -24 -63 -64 0
-1 -5 -66 -85 -87 0
-8 -9 -18 -21 -92 0
-11 -22 -24 -63 -64 0
-1 -5 -66 -85 -87 0
-8 -9 -18 -21 -92 0
-12 -22 -25 -63 -64 0
-1 -5 -67 -85 -88 0
-8 -9 -18 -21 -93 0
-12 -22 -25 -63 -64 0
-1 -5 -67 -85 -88 0
-8 -9 -18 -21 -93 0
-13 -22 -26 -63 -64 0
-1 -5 -68 -85 -89 0
-8 -9 -18 -21 -94 0
-13 -22 -26 -63 -64 0
-1 -5 -68 -85 -89 0
-8 -9 -18 -21 -94 0
-14 -22 -27 -63 -64 0
-1 -5 -69 -85 -90 0
-8 -9 -18 -21 -95 0
-14 -22 -27 -63 -64 0
-1 -5 -69 -85 -90 0
-8 -9 -18 -21 -95 0
-11 -23 -24 -63 -65 0
-1 -5 -66 -86 -87 0
-8 -10 -18 -21 -96 0
-11 -23 -24 -63 -65 0
-1 -5 -66 -86 -87 0
-8 -10 -18 -21 -96 0
-12 -23 -25 -63 -65 0
-1 -5 -67 -86 -88 0
-8 -10 -18 -21 -97 0
-12 -23 -25 -63 -65 0
-1 -5 -67 -86 -88 0
-8 -10 -18 -21 -97 0
-13 -23 -26 -63 -65 0
-1 -5 -68 -86 -89 0
-8 -10 -18 -21 -98 0
-13 -23 -26 -63 -65 0
-1 -5 -68 -86 -89 0
-8 -10 -18 -21 -98 0
-14 -23 -27 -63 -65 0
-1 -5 -69 -86 -90 0
-8 -10 -18 -21 -99 0
-14 -23 -27 -63 -65 0
-1 -5 -69 -86 -90 0
-8 -10 -18 -21 -99 0
-12 -24 -25 -63 -66 0
-1 -5 -67 -87 -88 0
-8 -11 -18 -21 -100 0
-12 -24 -25 -63 -66 0
-1 -5 -67 -87 -88 0
-8 -11 -18 -21 -100 0
-13 -24 -26 -63 -66 0
-1 -5 -68 -87 -89 0
-8 -11 -18 -21 -101 0
-13 -24 -26 -63 -66 0
-1 -5 -68 -87 -89 0
-8 -11 -18 -21 -101 0
-14 -24 -27 -63 -66 0
-1 -5 -69 -87 -90 0
-8 -11 -18 -21 -102 0
-14 -24 -27 -63 -66 0
-1 -5 -69 -87 -90 0
-8 -11 -18 -21 -102 0
-13 -25 -26 -63 -67 0
-1 -5 -68 -88 -89 0
-8 -12 -18 -21 -103 0
-13 -25 -26 -63 -67 0
-1 -5 -68 -88 -89 0
-8 -12 -18 -21 -103 0
-14 -25 -27 -63 -67 0
-1 -5 -69 -88 -90 0
-8 -12 -18 -21 -104 0
-14 -25 -27 -63 -67 0
-1 -5 -69 -88 -90 0
-8 -12 -18 -21 -104 0
-14 -26 -27 -63 -68 0
-1 -5 -69 -89 -90 0
-8 -13 -18 -21 -105 0
-14 -26 -27 -63 -68 0
-1 -5 -69 -89 -90 0
-8 -13 -18 -21 -105 0
-11 -23 -24 -64 -65 0
-1 -5 -66 -91 -92 0
-9 -10 -18 -22 -96 0
-11 -23 -24 -64 -65 0
-1 -5 -66 -91 -92 0
-9 -10 -18 -22 -96 0
-12 -23 -25 -64 -65 0
-1 -5 -67 -91 -93 0
-9 -10 -18 -22 -97 0
-12 -23 -25 -64 -65 0
-1 -5 -67 -91 -93 0
-9 -10 -18 -22 -97 0
-13 -23 -26 -64 -65 0
-1 -5 -68 -91 -94 0
-9 -10 -18 -22 -98 0
-13 -23 -26 -64 -65 0
-1 -5 -68 -91 -94 0
-9 -10 -18 -22 -98 0
-14 -23 -27 -64 -65 0
-1 -5 -69 -91 -95 0
-9 -10 -18 -22 -99 0
-14 -23 -27 -64 -65 0
-1 -5 -69 -91 -95 0
-9 -10 -18 -22 -99 0
-12 -24 -25 -64 -66 0
-1 -5 -67 -92 -93 0
-9 -11 -18 -22 -100 0
-12 -24 -25 -64 -66 0
-1 -5 -67 -92 -93 0
-9 -11 -18 -22 -100 0
-13 -24 -26 -64 -66 0
-1 -5 -68 -92 -94 0
-9 -11 -18 -22 -101 0
-13 -24 -26 -64 -66 0
-1 -5 -68 -92 -94 0
-9 -11 -18 -22 -101 0
-14 -24 -27 -64 -66 0
-1 -5 -69 -92 -95 0
-9 -11 -18 -22 -102 0
-14 -24 -27 -64 -66 0
-1 -5 -69 -92 -95 0
-9 -11 -18 -22 -102 0
-13 -25 -26 -64 -67 0
-1 -5 -68 -93 -94 0
-9 -12 -18 -22 -103 0
-13 -25 -26 -64 -67 0
-1 -5 -68 -93 -94 0
-9 -12 -18 -22 -103 0
-14 -25 -27 -64 -67 0
-1 -5 -69 -93 -95 0
-9 -12 -18 -22 -104 0
-14 -25 -27 -64 -67 0
-1 -5 -69 -93 -95 0
-9 -12 -18 -22 -104 0
-14 -26 -27 -64 -68 0
-1 -5 -69 -94 -95 0
-9 -13 -18 -22 -105 0
-14 -26 -27 -64 -68 0
-1 -5 -69 -94 -95 0
-9 -13 -18 -22 -105 0
-12 -24 -25 -65 -66 0
-1 -5 -67 -96 -97 0
-10 -11 -18 -23 -100 0
-12 -24 -25 -65 -66 0
-1 -5 -67 -96 -97 0
-10 -11 -18 -23 -100 0
-13 -24 -26 -65 -66 0
-1 -5 -68 -96 -98 0
-10 -11 -18 -23 -101 0
-13 -24 -26 -65 -66 0
-1 -5 -68 -96 -98 0
-10 -11 -18 -23 -101 0
-14 -24 -27 -65 -66 0
-1 -5 -69 -96 -99 0
-10 -11 -18 -23 -102 0
-14 -24 -27 -65 -66 0
-1 -5 -69 -96 -99 0
-10 -11 -18 -23 -102 0
-13 -25 -26 -65 -67 0
-1 -5 -68 -97 -98 0
-10 -12 -18 -23 -103 0
-13 -25 -26 -65 -67 0
-1 -5 -68 -97 -98 0
-10 -12 -18 -23 -103 0
-14 -25 -27 -65 -67 0
-1 -5 -69 -97 -99 0
-10 -12 -18 -23 -104 0
-14 -25 -27 -65 -67 0
-1 -5 -69 -97 -99 0
-10 -12 -18 -23 -104 0
-14 -26 -27 -65 -68 0
-1 -5 -69 -98 -99 0
-10 -13 -18 -23 -105 0
-14 -26 -27 -65 -68 0
-1 -5 -69 -98 -99 0
-10 -13 -18 -23 -105 0
-13 -25 -26 -66 -67 0
-1 -5 -68 -100 -101 0
-11 -12 -18 -24 -103 0
-13 -25 -26 -66 -67 0
-1 -5 -68 -100 -101 0
-11 -12 -18 -24 -103 0
-14 -25 -27 -66 -67 0
-1 -5 -69 -100 -102 0
-11 -12 -18 -24 -104 0
-14 -25 -27 -66 -67 0
-1 -5 -69 -100 -102 0
-11 -12 -18 -24 -104 0
-14 -26 -27 -66 -68 0
-1 -5 -69 -101 -102 0
-11 -13 -18 -24 -105 0
-14 -26 -27 -66 -68 0
-1 -5 -69 -101 -102 0
-11 -13 -18 -24 -105 0
-14 -26 -27 -67 -68 0
-1 -5 -69 -103 -104 0
-12 -13 -18 -25 -105 0
-14 -26 -27 -67 -68 0
-1 -5 -69 -103 -104 0
-12 -13 -18 -25 -105 0
-9 -21 -22 -70 -71 0
-1 -6 -72 -78 -79 0
-7 -8 -19 -20 -85 0
-9 -21 -22 -70 -71 0
-1 -6 -72 -78 -79 0
-7 -8 -19 -20 -85 0
-10 -21 -23 -70 -71 0
-1 -6 -73 -78 -80 0
-7 -8 -19 -20 -86 0
-10 -21 -23 -70 -71 0
-1 -6 -73 -78 -80 0
-7 -8 -19 -20 -86 0
-11 -21 -24 -70 -71 0
-1 -6 -74 -78 -81 0
-7 -8 -19 -20 -87 0
-11 -21 -24 -70 -71 0
-1 -6 -74 -78 -81 0
-7 -8 -19 -20 -87 0
-12 -21 -25 -70 -71 0
-1 -6 -75 -78 -82 0
-7 -8 -19 -20 -88 0
-12 -21 -25 -70 -71 0
-1 -6 -75 -78 -82 0
-7 -8 -19 -20 -88 0
-13 -21 -26 -70 -71 0
-1 -6 -76 -78 -83 0
-7 -8 -19 -20 -89 0
-13 -21 -26 -70 -71 0
-1 -6 -76 -78 -83 0
-7 -8 -19 -20 -89 0
-14 -21 -27 -70 -71 0
-1 -6 -77 -78 -84 0
-7 -8 -19 -20 -90 0
-14 -21 -27 -70 -71 0
-1 -6 -77 -78 -84 0
-7 -8 -19 -20 -90 0
-10 -22 -23 -70 -72 0
-1 -6 -73 -79 -80 0
-7 -9 -19 -20 -91 0
-10 -22 -23 -70 -72 0
-1 -6 -73 -79 -80 0
-7 -9 -19 -20 -91 0
-11 -22 -24 -70 -72 0
-1 -6 -74 -79 -81 0
-7 -9 -19 -20 -92 0
-11 -22 -24 -70 -72 0
-1 -6 -74 -79 -81 0
-7 -9 -19 -20 -92 0
-12 -22 -25 -70 -72 0
-1 -6 -75 -79 -82 0
-7 -9 -19 -20 -93 0
-12 -22 -25 -70 -72 0
-1 -6 -75 -79 -82 0
-7 -9 -19 -20 -93 0
-13 -22 -26 -70 -72 0
-1 -6 -76 -79 -83 0
-7 -9 -19 -20 -94 0
-13 -22 -26 -70 -72 0
-1 -6 -76 -79 -83 0
-7 -9 -19 -20 -94 0
-14 -22 -27 -70 -72 0
-1 -6 -77 -79 -84 0
-7 -9 -19 -20 -95 0
-14 -22 -27 -70 -72 0
-1 -6 -77 -79 -84 0
-7 -9 -19 -20 -95 0
-11 -23 -24 -70 -73 0
-1 -6 -74 -80 -81 0
-7 -10 -19 -20 -96 0
-11 -23 -24 -70 -73 0
-1 -6 -74 -80 -81 0
-7 -10 -19 -20 -96 0
-12 -23 -25 -70 -73 0
-1 -6 -75 -80 -82 0
-7 -10 -19 -20 -97 0
-12 -23 -25 -70 -73 0
-1 -6 -75 -80 -82 0
-7 -10 -19 -20 -97 0
-13 -23 -26 -70 -73 0
-1 -6 -76 -80 -83 0
-7 -10 -19 -20 -98 0
-13 -23 -26 -70 -73 0
-1 -6 -76 -80 -83 0
-7 -10 -19 -20 -98 0
-14 -23 -27 -70 -73 0
-1 -6 -77 -80 -84 0
-7 -10 -19 -20 -99 0
-14 -23 -27 -70 -73 0
-1 -6 -77 -80 -84 0
-7 -10 -19 -20 -99 0
-12 -24 -25 -70 -74 0
-1 -6 -75 -81 -82 0
-7 -11 -19 -20 -100 0
-12 -24 -25 -70 -74 0
-1 -6 -75 -81 -82 0
-7 -11 -19 -20 -100 0
-13 -24 -26 -70 -74 0
-1 -6 -76 -81 -83 0
-7 -11 -19 -20 -101 0
-13 -24 -26 -70 -74 0
-1 -6 -76 -81 -83 0
-7 -11 -19 -20 -101 0
-14 -24 -27 -70 -74 0
-1 -6 -77 -81 -84 0
-7 -11 -19 -20 -102 0
-14 -24 -27 -70 -74 0
-1 -6 -77 -81 -84 0
-7 -11 -19 -20 -102 0
-13 -25 -26 -70 -75 0
-1 -6 -76 -82 -83 0
-7 -12 -19 -20 -103 0
-13 -25 -26 -70 -75 0
-1 -6 -76 -82 -83 0
-7 -12 -19 -20 -103 0
-14 -25 -27 -70 -75 0
-1 -6 -77 -82 -84 0
-7 -12 -19 -20 -104 0
-14 -25 -27 -70 -75 0
-1 -6 -77 -82 -84 0
-7 -12 -19 -20 -104 0
-14 -26 -27 -70 -76 0
-1 -6 -77 -83 -84 0
-7 -13 -19 -20 -105 0
-14 -26 -27 -70 -76 0
-1 -6 -77 -83 -84 0
-7 -13 -19 -20 -105 0
-10 -22 -23 -71 -72 0
-1 -6 -73 -85 -86 0
-8 -9 -19 -21 -91 0
-10 -22 -23 -71 -72 0
-1 -6 -73 -85 -86 0
-8 -9 -19 -21 -91 0
-11 -22 -24 -71 -72 0
-1 -6 -74 -85 -87 0
-8 -9 -19 -21 -92 0
-11 -22 -24 -71 -72 0
-1 -6 -74 -85 -87 0
-8 -9 -19 -21 -92 0
-12 -22 -25 -71 -72 0
-1 -6 -75 -85 -88 0
-8 -9 -19 -21 -93 0
-12 -22 -25 -71 -72 0
-1 -6 -75 -85 -88 0
-8 -9 -19 -21 -93 0
-13 -22 -26 -71 -72 0
-1 -6 -76 -85 -89 0
-8 -9 -19 -21 -94 0
-13 -22 -26 -71 -72 0
-1 -6 -76 -85 -89 0
-8 -9 -19 -21 -94 0
-14 -22 -27 -71 -72 0
-1 -6 -77 -85 -90 0
-8 -9 -19 -21 -95 0
-14 -22 -27 -71 -72 0
-1 -6 -77 -85 -90 0
-8 -9 -19 -21 -95 0
-11 -23 -24 -71 -73 0
-1 -6 -74 -86 -87 0
-8 -10 -19 -21 -96 0
-11 -23 -24 -71 -73 0
-1 -6 -74 -86 -87 0
-8 -10 -19 -21 -96 0
-12 -23 -25 -71 -73 0
-1 -6 -75 -86 -88 0
-8 -10 -19 -21 -97 0
-12 -23 -25 -71 -73 0
-1 -6 -75 -86 -88 0
-8 -10 -19 -21 -97 0
-13 -23 -26 -71 -73 0
-1 -6 -76 -86 -89 0
-8 -10 -19 -21 -98 0
-13 -23 -26 -71 -73 0
-1 -6 -76 -86 -89 0
-8 -10 -19 -21 -98 0
-14 -23 -27 -71 -73 0
-1 -6 -77 -86 -90 0
-8 -10 -19 -21 -99 0
-14 -23 -27 -71 -73 0
-1 -6 -77 -86 -90 0
-8 -10 -19 -21 -99 0
-12 -24 -25 -71 -74 0
-1 -6 -75 -87 -88 0
-8 -11 -19 -21 -100 0
-12 -24 -25 -71 -74 0
-1 -6 -75 -87 -88 0
-8 -11 -19 -21 -100 0
-13 -24 -26 -71 -74 0
-1 -6 -76 -87 -89 0
-8 -11 -19 -21 -101 0
-13 -24 -26 -71 -74 0
-1 -6 -76 -87 -89 0
-8 -11 -19 -21 -101 0
-14 -24 -27 -71 -74 0
-1 -6 -77 -87 -90 0
-8 -11 -19 -21 -102 0
-14 -24 -27 -71 -74 0
-1 -6 -77 -87 -90 0
-8 -11 -19 -21 -102 0
-13 -25 -26 -71 -75 0
-1 -6 -76 -88 -89 0
-8 -12 -19 -21 -103 0
-13 -25 -26 -71 -75 0
-1 -6 -76 -88 -89 0
-8 -12 -19 -21 -103 0
-14 -25 -27 -71 -75 0
-1 -6 -77 -88 -90 0
-8 -12 -19 -21 -104 0
-14 -25 -27 -71 -75 0
-1 -6 -77 -88 -90 0
-8 -12 -19 -21 -104 0
-14 -26 -27 -71 -76 0
-1 -6 -77 -89 -90 0
-8 -13 -19 -21 -105 0
-14 -26 -27 -71 -76 0
-1 -6 -77 -89 -90 0
-8 -13 -19 -21 -105 0
-11 -23 -24 -72 -73 0
-1 -6 -74 -91 -92 0
-9 -10 -19 -22 -96 0
-11 -23 -24 -72 -73 0
-1 -6 -74 -91 -92 0
-9 -10 -19 -22 -96 0
-12 -23 -25 -72 -73 0
-1 -6 -75 -91 -93 0
-9 -10 -19 -22 -97 0
-12 -23 -25 -72 -73 0
-1 -6 -75 -91 -93 0
-9 -10 -19 -22 -97 0
-13 -23 -26 -72 -73 0
-1 -6 -76 -91 -94 0
-9 -10 -19 -22 -98 0
-13 -23 -26 -72 -73 0
-1 -6 -76 -91 -94 0
-9 -10 -19 -22 -98 0
-14 -23 -27 -72 -73 0
-1 -6 -77 -91 -95 0
-9 -10 -19 -22 -99 0
-14 -23 -27 -72 -73 0
-1 -6 -77 -91 -95 0
-9 -10 -19 -22 -99 0
-12 -24 -25 -72 -74 0
-1 -6 -75 -92 -93 0
-9 -11 -19 -22 -100 0
-12 -24 -25 -72 -74 0
-1 -6 -75 -92 -93 0
-9 -11 -19 -22 -100 0
-13 -24 -26 -72 -74 0
-1 -6 -76 -92 -94 0
-9 -11 -19 -22 -101 0
-13 -24 -26 -72 -74 0
-1 -6 -76 -92 -94 0
-9 -11 -19 -22 -101 0
-14 -24 -27 -72 -74 0
-1 -6 -77 -92 -95 0
-9 -11 -19 -22 -102 0
-14 -24 -27 -72 -74 0
-1 -6 -77 -92 -95 0
-9 -11 -19 -22 -102 0
-13 -25 -26 -72 -75 0
-1 -6 -76 -93 -94 0
-9 -12 -19 -22 -103 0
-13 -25 -26 -72 -75 0
-1 -6 -76 -93 -94 0
-9 -12 -19 -22 -103 0
-14 -25 -27 -72 -75 0
-1 -6 -77 -93 -95 0
-9 -12 -19 -22 -104 0
-14 -25 -27 -72 -75 0
-1 -6 -77 -93 -95 0
-9 -12 -19 -22 -104 0
-14 -26 -27 -72 -76 0
-1 -6 -77 -94 -95 0
-9 -13 -19 -22 -105 0
-14 -26 -27 -72 -76 0
-1 -6 -77 -94 -95 0
-9 -13 -19 -22 -105 0
-12 -24 -25 -73 -74 0
-1 -6 -75 -96 -97 0
-10 -11 -19 -23 -100 0
-12 -24 -25 -73 -74 0
-1 -6 -75 -96 -97 0
-10 -11 -19 -23 -100 0
-13 -24 -26 -73 -74 0
-1 -6 -76 -96 -98 0
-10 -11 -19 -23 -101 0
-13 -24 -26 -73 -74 0
-1 -6 -76 -96 -98 0
-10 -11 -19 -23 -101 0
-14 -24 -27 -73 -74 0
-1 -6 -77 -96 -99 0
-10 -11 -19 -23 -102 0
-14 -24 -27 -73 -74 0
-1 -6 -77 -96 -99 0
-10 -11 -19 -23 -102 0
-13 -25 -26 -73 -75 0
-1 -6 -76 -97 -98 0
-10 -12 -19 -23 -103 0
-13 -25 -26 -73 -75 0
-1 -6 -76 -97 -98 0
-10 -12 -19 -23 -103 0
-14 -25 -27 -73 -75 0
-1 -6 -77 -97 -99 0
-10 -12 -19 -23 -104 0
-14 -25 -27 -73 -75 0
-1 -6 -77 -97 -99 0
-10 -12 -19 -23 -104 0
-14 -26 -27 -73 -76 0
-1 -6 -77 -98 -99 0
-10 -13 -19 -23 -105 0
-14 -26 -27 -73 -76 0
-1 -6 -77 -98 -99 0
-10 -13 -19 -23 -105 0
-13 -25 -26 -74 -75 0
-1 -6 -76 -100 -101 0
-11 -12 -19 -24 -103 0
-13 -25 -26 -74 -75 0
-1 -6 -76 -100 -101 0
-11 -12 -19 -24 -103 0
-14 -25 -27 -74 -75 0
-1 -6 -77 -100 -102 0
-11 -12 -19 -24 -104 0
-14 -25 -27 -74 -75 0
-1 -6 -77 -100 -102 0
-11 -12 -19 -24 -104 0
-14 -26 -27 -74 -76 0
-1 -6 -77 -101 -102 0
-11 -13 -19 -24 -105 0
-14 -26 -27 -74 -76 0
-1 -6 -77 -101 -102 0
-11 -13 -19 -24 -105 0
-14 -26 -27 -75 -76 0
-1 -6 -77 -103 -104 0
-12 -13 -19 -25 -105 0
-14 -26 -27 -75 -76 0
-1 -6 -77 -103 -104 0
-12 -13 -19 -25 -105 0
-10 -22 -23 -78 -79 0
-1 -7 -80 -85 -86 0
-8 -9 -20 -21 -91 0
-10 -22 -23 -78 -79 0
-1 -7 -80 -85 -86 0
-8 -9 -20 -21 -91 0
-11 -22 -24 -78 -79 0
-1 -7 -81 -85 -87 0
-8 -9 -20 -21 -92 0
-11 -22 -24 -78 -79 0
-1 -7 -81 -85 -87 0
-8 -9 -20 -21 -92 0
-12 -22 -25 -78 -79 0
-1 -7 -82 -85 -88 0
-8 -9 -20 -21 -93 0
-12 -22 -25 -78 -79 0
-1 -7 -82 -85 -88 0
-8 -9 -20 -21 -93 0
-13 -22 -26 -78 -79 0
-1 -7 -83 -85 -89 0
-8 -9 -20 -21 -94 0
-13 -22 -26 -78 -79 0
-1 -7 -83 -85 -89 0
-8 -9 -20 -21 -94 0
-14 -22 -27 -78 -79 0
-1 -7 -84 -85 -90 0
-8 -9 -20 -21 -95 0
-14 -22 -27 -78 -79 0
-1 -7 -84 -85 -90 0
-8 -9 -20 -21 -95 0
-11 -23 -24 -78 -80 0
-1 -7 -81 -86 -87 0
-8 -10 -20 -21 -96 0
-11 -23 -24 -78 -80 0
-1 -7 -81 -86 -87 0
-8 -10 -20 -21 -96 0
-12 -23 -25 -78 -80 0
-1 -7 -82 -86 -88 0
-8 -10 -20 -21 -97 0
-12 -23 -25 -78 -80 0
-1 -7 -82 -86 -88 0
-8 -10 -20 -21 -97 0
-13 -23 -26 -78 -80 0
-1 -7 -83 -86 -89 0
-8 -10 -20 -21 -98 0
-13 -23 -26 -78 -80 0
-1 -7 -83 -86 -89 0
-8 -10 -20 -21 -98 0
-14 -23 -27 -78 -80 0
-1 -7 -84 -86 -90 0
-8 -10 -20 -21 -99 0
-14 -23 -27 -78 -80 0
-1 -7 -84 -86 -90 0
-8 -10 -20 -21 -99 0
-12 -24 -25 -78 -81 0
-1 -7 -82 -87 -88 0
-8 -11 -20 -21 -100 0
-12 -24 -25 -78 -81 0
-1 -7 -82 -87 -88 0
-8 -11 -20 -21 -100 0
-13 -24 -26 -78 -81 0
-1 -7 -83 -87 -89 0
-8 -11 -20 -21 -101 0
-13 -24 -26 -78 -81 0
-1 -7 -83 -87 -89 0
-8 -11 -20 -21 -101 0
-14 -24 -27 -78 -81 0
-1 -7 -84 -87 -90 0
-8 -11 -20 -21 -102 0
-14 -24 -27 -78 -81 0
-1 -7 -84 -87 -90 0
-8 -11 -20 -21 -102 0
-13 -25 -26 -78 -82 0
-1 -7 -83 -88 -89 0
-8 -12 -20 -21 -103 0
-13 -25 -26 -78 -82 0
-1 -7 -83 -88 -89 0
-8 -12 -20 -21 -103 0
-14 -25 -27 -78 -82 0
-1 -7 -84 -88 -90 0
-8 -12 -20 -21 -104 0
-14 -25 -27 -78 -82 0
-1 -7 -84 -88 -90 0
-8 -12 -20 -21 -104 0
-14 -26 -27 -78 -83 0
-1 -7 -84 -89 -90 0
-8 -13 -20 -21 -105 0
-14 -26 -27 -78 -83 0
-1 -7 -84 -89 -90 0
-8 -13 -20 -21 -105 0
-11 -23 -24 -79 -80 0
-1 -7 -81 -91 -92 0
-9 -10 -20 -22 -96 0
-11 -23 -24 -79 -80 0
-1 -7 -81 -91 -92 0
-9 -10 -20 -22 -96 0
-12 -23 -25 -79 -80 0
-1 -7 -82 -91 -93 0
-9 -10 -20 -22 -97 0
-12 -23 -25 -79 -80 0
-1 -7 -82 -91 -93 0
-9 -10 -20 -22 -97 0
-13 -23 -26 -79 -80 0
-1 -7 -83 -91 -94 0
-9 -10 -20 -22 -98 0
-13 -23 -26 -79 -80 0
-1 -7 -83 -91 -94 0
-9 -10 -20 -22 -98 0
-14 -23 -27 -79 -80 0
-1 -7 -84 -91 -95 0
-9 -10 -20 -22 -99 0
-14 -23 -27 -79 -80 0
-1 -7 -84 -91 -95 0
-9 -10 -20 -22 -99 0
-12 -24 -25 -79 -81 0
-1 -7 -82 -92 -93 0
-9 -11 -20 -22 -100 0
-12 -24 -25 -79 -81 0
-1 -7 -82 -92 -93 0
-9 -11 -20 -22 -100 0
-13 -24 -26 -79 -81 0
-1 -7 -83 -92 -94 0
-9 -11 -20 -22 -101 0
-13 -24 -26 -79 -81 0
-1 -7 -83 -92 -94 0
-9 -11 -20 -22 -101 0
-14 -24 -27 -79 -81 0
-1 -7 -84 -92 -95 0
-9 -11 -20 -22 -102 0
-14 -24 -27 -79 -81 0
-1 -7 -84 -92 -95 0
-9 -11 -20 -22 -102 0
-13 -25 -26 -79 -82 0
-1 -7 -83 -93 -94 0
-9 -12 -20 -22 -103 0
-13 -25 -26 -79 -82 0
-1 -7 -83 -93 -94 0
-9 -12 -20 -22 -103 0
-14 -25 -27 -79 -82 0
-1 -7 -84 -93 -95 0
-9 -12 -20 -22 -104 0
-14 -25 -27 -79 -82 0
-1 -7 -84 -93 -95 0
-9 -12 -20 -22 -104 0
-14 -26 -27 -79 -83 0
-1 -7 -84 -94 -95 0
-9 -13 -20 -22 -105 0
-14 -26 -27 -79 -83 0
-1 -7 -84 -94 -95 0
-9 -13 -20 -22 -105 0
-12 -24 -25 -80 -81 0
-1 -7 -82 -96 -97 0
-10 -11 -20 -23 -100 0
-12 -24 -25 -80 -81 0
-1 -7 -82 -96 -97 0
-10 -11 -20 -23 -100 0
-13 -24 -26 -80 -81 0
-1 -7 -83 -96 -98 0
-10 -11 -20 -23 -101 0
-13 -24 -26 -80 -81 0
-1 -7 -83 -96 -98 0
-10 -11 -20 -23 -101 0
-14 -24 -27 -80 -81 0
-1 -7 -84 -96 -99 0
-10 -11 -20 -23 -102 0
-14 -24 -27 -80 -81 0
-1 -7 -84 -96 -99 0
-10 -11 -20 -23 -102 0
-13 -25 -26 -80 -82 0
-1 -7 -83 -97 -98 0
-10 -12 -20 -23 -103 0
-13 -25 -26 -80 -82 0
-1 -7 -83 -97 -98 0
-10 -12 -20 -23 -103 0
-14 -25 -27 -80 -82 0
-1 -7 -84 -97 -99 0
-10 -12 -20 -23 -104 0
-14 -25 -27 -80 -82 0
-1 -7 -84 -97 -99 0
-10 -12 -20 -23 -104 0
-14 -26 -27 -80 -83 0
-1 -7 -84 -98 -99 0
-10 -13 -20 -23 -105 0
-14 -26 -27 -80 -83 0
-1 -7 -84 -98 -99 0
-10 -13 -20 -23 -105 0
-13 -25 -26 -81 -82 0
-1 -7 -83 -100 -101 0
-11 -12 -20 -24 -103 0
-13 -25 -26 -81 -82 0
-1 -7 -83 -100 -101 0
-11 -12 -20 -24 -103 0
-14 -25 -27 -81 -82 0
-1 -7 -84 -100 -102 0
-11 -12 -20 -24 -104 0
-14 -25 -27 -81 -82 0
-1 -7 -84 -100 -102 0
-11 -12 -20 -24 -104 0
-14 -26 -27 -81 -83 0
-1 -7 -84 -101 -102 0
-11 -13 -20 -24 -105 0
-14 -26 -27 -81 -83 0
-1 -7 -84 -101 -102 0
-11 -13 -20 -24 -105 0
-14 -26 -27 -82 -83 0
-1 -7 -84 -103 -104 0
-12 -13 -20 -25 -105 0
-14 -26 -27 -82 -83 0
-1 -7 -84 -103 -104 0
-12 -13 -20 -25 -105 0
-11 -23 -24 -85 -86 0
-1 -8 -87 -91 -92 0
-9 -10 -21 -22 -96 0
-11 -23 -24 -85 -86 0
-1 -8 -87 -91 -92 0
-9 -10 -21 -22 -96 0
-12 -23 -25 -85 -86 0
-1 -8 -88 -91 -93 0
-9 -10 -21 -22 -97 0
-12 -23 -25 -85 -86 0
-1 -8 -88 -91 -93 0
-9 -10 -21 -22 -97 0
-13 -23 -26 -85 -86 0
-1 -8 -89 -91 -94 0
-9 -10 -21 -22 -98 0
-13 -23 -26 -85 -86 0
-1 -8 -89 -91 -94 0
-9 -10 -21 -22 -98 0
-14 -23 -27 -85 -86 0
-1 -8 -90 -91 -95 0
-9 -10 -21 -22 -99 0
-14 -23 -27 -85 -86 0
-1 -8 -90 -91 -95 0
-9 -10 -21 -22 -99 0
-12 -24 -25 -85 -87 0
-1 -8 -88 -92 -93 0
-9 -11 -21 -22 -100 0
-12 -24 -25 -85 -87 0
-1 -8 -88 -92 -93 0
-9 -11 -21 -22 -100 0
-13 -24 -26 -85 -87 0
-1 -8 -89 -92 -94 0
-9 -11 -21 -22 -101 0
-13 -24 -26 -85 -87 0
-1 -8 -89 -92 -94 0
-9 -11 -21 -22 -101 0
-14 -24 -27 -85 -87 0
-1 -8 -90 -92 -95 0
-9 -11 -21 -22 -102 0
-14 -24 -27 -85 -87 0
-1 -8 -90 -92 -95 0
-9 -11 -21 -22 -102 0
-13 -25 -26 -85 -88 0
-1 -8 -89 -93 -94 0
-9 -12 -21 -22 -103 0
-13 -25 -26 -85 -88 0
-1 -8 -89 -93 -94 0
-9 -12 -21 -22 -103 0
-14 -25 -27 -85 -88 0
-1 -8 -90 -93 -95 0
-9 -12 -21 -22 -104 0
-14 -25 -27 -85 -88 0
-1 -8 -90 -93 -95 0
-9 -12 -21 -22 -104 0
-14 -26 -27 -85 -89 0
-1 -8 -90 -94 -95 0
-9 -13 -21 -22 -105 0
-14 -26 -27 -85 -89 0
-1 -8 -90 -94 -95 0
-9 -13 -21 -22 -105 0
-12 -24 -25 -86 -87 0
-1 -8 -88 -96 -97 0
-10 -11 -21 -23 -100 0
-12 -24 -25 -86 -87 0
-1 -8 -88 -96 -97 0
-10 -11 -21 -23 -100 0
-13 -24 -26 -86 -87 0
-1 -8 -89 -96 -98 0
-10 -11 -21 -23 -101 0
-13 -24 -26 -86 -87 0
-1 -8 -89 -96 -98 0
-10 -11 -21 -23 -101 0
-14 -24 -27 -86 -87 0
-1 -8 -90 -96 -99 0
-10 -11 -21 -23 -102 0
-14 -24 -27 -86 -87 0
-1 -8 -90 -96 -99 0
-10 -11 -21 -23 -102 0
-13 -25 -26 -86 -88 0
-1 -8 -89 -97 -98 0
-10 -12 -21 -23 -103 0
-13 -25 -26 -86 -88 0
-1 -8 -89 -97 -98 0
-10 -12 -21 -23 -103 0
-14 -25 -27 -86 -88 0
-1 -8 -90 -97 -99 0
-10 -12 -21 -23 -104 0
-14 -25 -27 -86 -88 0
-1 -8 -90 -97 -99 0
-10 -12 -21 -23 -104 0
-14 -26 -27 -86 -89 0
-1 -8 -90 -98 -99 0
-10 -13 -21 -23 -105 0
-14 -26 -27 -86 -89 0
-1 -8 -90 -98 -99 0
-10 -13 -21 -23 -105 0
-13 -25 -26 -87 -88 0
-1 -8 -89 -100 -101 0
-11 -12 -21 -24 -103 0
-13 -25 -26 -87 -88 0
-1 -8 -89 -100 -101 0
-11 -12 -21 -24 -103 0
-14 -25 -27 -87 -88 0
-1 -8 -90 -100 -102 0
-11 -12 -21 -24 -104 0
-14 -25 -27 -87 -88 0
-1 -8 -90 -100 -102 0
-11 -12 -21 -24 -104 0
-14 -26 -27 -87 -89 0
-1 -8 -90 -101 -102 0
-11 -13 -21 -24 -105 0
-14 -26 -27 -87 -89 0
-1 -8 -90 -101 -102 0
-11 -13 -21 -24 -105 0
-14 -26 -27 -88 -89 0
-1 -8 -90 -103 -104 0
-12 -13 -21 -25 -105 0
-14 -26 -27 -88 -89 0
-1 -8 -90 -103 -104 0
-12 -13 -21 -25 -105 0
-12 -24 -25 -91 -92 0
-1 -9 -93 -96 -97 0
-10 -11 -22 -23 -100 0
-12 -24 -25 -91 -92 0
-1 -9 -93 -96 -97 0
-10 -11 -22 -23 -100 0
-13 -24 -26 -91 -92 0
-1 -9 -94 -96 -98 0
-10 -11 -22 -23 -101 0
-13 -24 -26 -91 -92 0
-1 -9 -94 -96 -98 0
-10 -11 -22 -23 -101 0
-14 -24 -27 -91 -92 0
-1 -9 -95 -96 -99 0
-10 -11 -22 -23 -102 0
-14 -24 -27 -91 -92 0
-1 -9 -95 -96 -99 0
-10 -11 -22 -23 -102 0
-13 -25 -26 -91 -93 0
-1 -9 -94 -97 -98 0
-10 -12 -22 -23 -103 0
-13 -25 -26 -91 -93 0
-1 -9 -94 -97 -98 0
-10 -12 -22 -23 -103 0
-14 -25 -27 -91 -93 0
-1 -9 -95 -97 -99 0
-10 -12 -22 -23 -104 0
-14 -25 -27 -91 -93 0
-1 -9 -95 -97 -99 0
-10 -12 -22 -23 -104 0
-14 -26 -27 -91 -94 0
-1 -9 -95 -98 -99 0
-10 -13 -22 -23 -105 0
-14 -26 -27 -91 -94 0
-1 -9 -95 -98 -99 0
-10 -13 -22 -23 -105 0
-13 -25 -26 -92 -93 0
-1 -9 -94 -100 -101 0
-11 -12 -22 -24 -103 0
-13 -25 -26 -92 -93 0
-1 -9 -94 -100 -101 0
-11 -12 -22 -24 -103 0
-14 -25 -27 -92 -93 0
-1 -9 -95 -100 -102 0
-11 -12 -22 -24 -104 0
-14 -25 -27 -92 -93 0
-1 -9 -95 -100 -102 0
-11 -12 -22 -24 -104 0
-14 -26 -27 -92 -94 0
-1 -9 -95 -101 -102 0
-11 -13 -22 -24 -105 0
-14 -26 -27 -92 -94 0
-1 -9 -95 -101 -102 0
-11 -13 -22 -24 -105 0
-14 -26 -27 -93 -94 0
-1 -9 -95 -103 -104 0
-12 -13 -22 -25 -105 0
-14 -26 -27 -93 -94 0
-1 -9 -95 -103 -104 0
-12 -13 -22 -25 -105 0
-13 -25 -26 -96 -97 0
-1 -10 -98 -100 -101 0
-11 -12 -23 -24 -103 0
-13 -25 -26 -96 -97 0
-1 -10 -98 -100 -101 0
-11 -12 -23 -24 -103 0
-14 -25 -27 -96 -97 0
-1 -10 -99 -100 -102 0
-11 -12 -23 -24 -104 0
-14 -25 -27 -96 -97 0
-1 -10 -99 -100 -102 0
-11 -12 -23 -24 -104 0
-14 -26 -27 -96 -98 0
-1 -10 -99 -101 -102 0
-11 -13 -23 -24 -105 0
-14 -26 -27 -96 -98 0
-1 -10 -99 -101 -102 0
-11 -13 -23 -24 -105 0
-14 -26 -27 -97 -98 0
-1 -10 -99 -103 -104 0
-12 -13 -23 -25 -105 0
-14 -26 -27 -97 -98 0
-1 -10 -99 -103 -104 0
-12 -13 -23 -25 -105 0
-14 -26 -27 -100 -101 0
-1 -11 -102 -103 -104 0
-12 -13 -24 -25 -105 0
-14 -26 -27 -100 -101 0
-1 -11 -102 -103 -104 0
-12 -13 -24 -25 -105 0
-6 -30 -31 -40 -41 0
-2 -3 -42 -51 -52 0
-4 -5 -28 -29 -61 0
-6 -30 -31 -40 -41 0
-2 -3 -42 -51 -52 0
-4 -5 -28 -29 -61 0
-7 -30 -32 -40 -41 0
-2 -3 -43 -51 -53 0
-4 -5 -28 -29 -62 0
-7 -30 -32 -40 -41 0
-2 -3 -43 -51 -53 0
-4 -5 -28 -29 -62 0
-8 -30 -33 -40 -41 0
-2 -3 -44 -51 -54 0
-4 -5 -28 -29 -63 0
-8 -30 -33 -40 -41 0
-2 -3 -44 -51 -54 0
-4 -5 -28 -29 -63 0
-9 -30 -34 -40 -41 0
-2 -3 -45 -51 -55 0
-4 -5 -28 -29 -64 0
-9 -30 -34 -40 -41 0
-2 -3 -45 -51 -55 0
-4 -5 -28 -29 -64 0
-10 -30 -35 -40 -41 0
-2 -3 -46 -51 -56 0
-4 -5 -28 -29 -65 0
-10 -30 -35 -40 -41 0
-2 -3 -46 -51 -56 0
-4 -5 -28 -29 -65 0
-11 -30 -36 -40 -41 0
-2 -3 -47 -51 -57 0
-4 -5 -28 -29 -66 0
-11 -30 -36 -40 -41 0
-2 -3 -47 -51 -57 0
-4 -5 -28 -29 -66 0
-12 -30 -37 -40 -41 0
-2 -3 -48 -51 -58 0
-4 -5 -28 -29 -67 0
-12 -30 -37 -40 -41 0
-2 -3 -48 -51 -58 0
-4 -5 -28 -29 -67 0
-13 -30 -38 -40 -41 0
-2 -3 -49 -51 -59 0
-4 -5 -28 -29 -68 0
-13 -30 -38 -40 -41 0
-2 -3 -49 -51 -59 0
-4 -5 -28 -29 -68 0
-14 -30 -39 -40 -41 0
-2 -3 -50 -51 -60 0
-4 -5 -28 -29 -69 0
-14 -30 -39 -40 -41 0
-2 -3 -50 -51 -60 0
-4 -5 -28 -29 -69 0
-7 -31 -32 -40 -42 0
-2 -3 -43 -52 -53 0
-4 -6 -28 -29 -70 0
-7 -31 -32 -40 -42 0
-2 -3 -43 -52 -53 0
-4 -6 -28 -29 -70 0
-8 -31 -33 -40 -42 0
-2 -3 -44 -52 -54 0
-4 -6 -28 -29 -71 0
-8 -31 -33 -40 -42 0
-2 -3 -44 -52 -54 0
-4 -6 -28 -29 -71 0
-9 -31 -34 -40 -42 0
-2 -3 -45 -52 -55 0
-4 -6 -28 -29 -72 0
-9 -31 -34 -40 -42 0
-2 -3 -45 -52 -55 0
-4 -6 -28 -29 -72 0
-10 -31 -35 -40 -42 0
-2 -3 -46 -52 -56 0
-4 -6 -28 -29 -73 0
-10 -31 -35 -40 -42 0
-2 -3 -46 -52 -56 0
-4 -6 -28 -29 -73 0
-11 -31 -36 -40 -42 0
-2 -3 -47 -52 -57 0
-4 -6 -28 -29 -74 0
-11 -31 -36 -40 -42 0
-2 -3 -47 -52 -57 0
-4 -6 -28 -29 -74 0
-12 -31 -37 -40 -42 0
-2 -3 -48 -52 -58 0
-4 -6 -28 -29 -75 0
-12 -31 -37 -40 -42 0
-2 -3 -48 -52 -58 0
-4 -6 -28 -29 -75 0
-13 -31 -38 -40 -42 0
-2 -3 -49 -52 -59 0
-4 -6 -28 -29 -76 0
-13 -31 -38 -40 -42 0
-2 -3 -49 -52 -59 0
-4 -6 -28 -29 -76 0
-14 -31 -39 -40 -42 0
-2 -3 -50 -52 -60 0
-4 -6 -28 -29 -77 0
-14 -31 -39 -40 -42 0
-2 -3 -50 -52 -60 0
-4 -6 -28 -29 -77 0
-8 -32 -33 -40 -43 0
-2 -3 -44 -53 -54 0
-4 -7 -28 -29 -78 0
-8 -32 -33 -40 -43 0
-2 -3 -44 -53 -54 0
-4 -7 -28 -29 -78 0
-9 -32 -34 -40 -43 0
-2 -3 -45 -53 -55 0
-4 -7 -28 -29 -79 0
-9 -32 -34 -40 -43 0
-2 -3 -45 -53 -55 0
-4 -7 -28 -29 -79 0
-10 -32 -35 -40 -43 0
-2 -3 -46 -53 -56 0
-4 -7 -28 -29 -80 0
-10 -32 -35 -40 -43 0
-2 -3 -46 -53 -56 0
-4 -7 -28 -29 -80 0
-11 -32 -36 -40 -43 0
-2 -3 -47 -53 -57 0
-4 -7 -28 -29 -81 0
-11 -32 -36 -40 -43 0
-2 -3 -47 -53 -57 0
-4 -7 -28 -29 -81 0
-12 -32 -37 -40 -43 0
-2 -3 -48 -53 -58 0
-4 -7 -28 -29 -82 0
-12 -32 -37 -40 -43 0
-2 -3 -48 -53 -58 0
-4 -7 -28 -29 -82 0
-13 -32 -38 -40 -43 0
-2 -3 -49 -53 -59 0
-4 -7 -28 -29 -83 0
-13 -32 -38 -40 -43 0
-2 -3 -49 -53 -59 0
-4 -7 -28 -29 -83 0
-14 -32 -39 -40 -43 0
-2 -3 -50 -53 -60 0
-4 -7 -28 -29 -84 0
-14 -32 -39 -40 -43 0
-2 -3 -50 -53 -60 0
-4 -7 -28 -29 -84 0
-9 -33 -34 -40 -44 0
-2 -3 -45 -54 -55 0
-4 -8 -28 -29 -85 0
-9 -33 -34 -40 -44 0
-2 -3 -45 -54 -55 0
-4 -8 -28 -29 -85 0
-10 -33 -35 -40 -44 0
-2 -3 -46 -54 -56 0
-4 -8 -28 -29 -86 0
-10 -33 -35 -40 -44 0
-2 -3 -46 -54 -56 0
-4 -8 -28 -29 -86 0
-11 -33 -36 -40 -44 0
-2 -3 -47 -54 -57 0
-4 -8 -28 -29 -87 0
-11 -33 -36 -40 -44 0
-2 -3 -47 -54 -57 0
-4 -8 -28 -29 -87 0
-12 -33 -37 -40 -44 0
-2 -3 -48 -54 -58 0
-4 -8 -28 -29 -88 0
-12 -33 -37 -40 -44 0
-2 -3 -48 -54 -58 0
-4 -8 -28 -29 -88 0
-13 -33 -38 -40 -44 0
-2 -3 -49 -54 -59 0
-4 -8 -28 -29 -89 0
-13 -33 -38 -40 -44 0
-2 -3 -49 -54 -59 0
-4 -8 -28 -29 -89 0
-14 -33 -39 -40 -44 0
-2 -3 -50 -54 -60 0
-4 -8 -28 -29 -90 0
-14 -33 -39 -40 -44 0
-2 -3 -50 -54 -60 0
-4 -8 -28 -29 -90 0
-10 -34 -35 -40 -45 0
-2 -3 -46 -55 -56 0
-4 -9 -28 -29 -91 0
-10 -34 -35 -40 -45 0
-2 -3 -46 -55 -56 0
-4 -9 -28 -29 -91 0
-11 -34 -36 -40 -45 0
-2 -3 -47 -55 -57 0
-4 -9 -28 -29 -92 0
-11 -34 -36 -40 -45 0
-2 -3 -47 -55 -57 0
-4 -9 -28 -29 -92 0
-12 -34 -37 -40 -45 0
-2 -3 -48 -55 -58 0
-4 -9 -28 -29 -93 0
-12 -34 -37 -40 -45 0
-2 -3 -48 -55 -58 0
-4 -9 -28 -29 -93 0
-13 -34 -38 -40 -45 0
-2 -3 -49 -55 -59 0
-4 -9 -28 -29 -94 0
-13 -34 -38 -40 -45 0
-2 -3 -49 -55 -59 0
-4 -9 -28 -29 -94 0
-14 -34 -39 -40 -45 0
-2 -3 -50 -55 -60 0
-4 -9 -28 -29 -95 0
-14 -34 -39 -40 -45 0
-2 -3 -50 -55 -60 0
-4 -9 -28 -29 -95 0
-11 -35 -36 -40 -46 0
-2 -3 -47 -56 -57 0
-4 -10 -28 -29 -96 0
-11 -35 -36 -40 -46 0
-2 -3 -47 -56 -57 0
-4 -10 -28 -29 -96 0
-12 -35 -37 -40 -46 0
-2 -3 -48 -56 -58 0
-4 -10 -28 -29 -97 0
-12 -35 -37 -40 -46 0
-2 -3 -48 -56 -58 0
-4 -10 -28 -29 -97 0
-13 -35 -38 -40 -46 0
-2 -3 -49 -56 -59 0
-4 -10 -28 -29 -98 0
-13 -35 -38 -40 -46 0
-2 -3 -49 -56 -59 0
-4 -10 -28 -29 -98 0
-14 -35 -39 -40 -46 0
-2 -3 -50 -56 -60 0
-4 -10 -28 -29 -99 0
-14 -35 -39 -40 -46 0
-2 -3 -50 -56 -60 0
-4 -10 -28 -29 -99 0
-12 -36 -37 -40 -47 0
-2 -3 -48 -57 -58 0
-4 -11 -28 -29 -100 0
-12 -36 -37 -40 -47 0
-2 -3 -48 -57 -58 0
-4 -11 -28 -29 -100 0
-13 -36 -38 -40 -47 0
-2 -3 -49 -57 -59 0
-4 -11 -28 -29 -101 0
-13 -36 -38 -40 -47 0
-2 -3 -49 -57 -59 0
-4 -11 -28 -29 -101 0
-14 -36 -39 -40 -47 0
-2 -3 -50 -57 -60 0
-4 -11 -28 -29 -102 0
-14 -36 -39 -40 -47 0
-2 -3 -50 -57 -60 0
-4 -11 -28 -29 -102 0
-13 -37 -38 -40 -48 0
-2 -3 -49 -58 -59 0
-4 -12 -28 -29 -103 0
-13 -37 -38 -40 -48 0
-2 -3 -49 -58 -59 0
-4 -12 -28 -29 -103 0
-14 -37 -39 -40 -48 0
-2 -3 -50 -58 -60 0
-4 -12 -28 -29 -104 0
-14 -37 -39 -40 -48 0
-2 -3 -50 -58 -60 0
-4 -12 -28 -29 -104 0
-14 -38 -39 -40 -49 0
-2 -3 -50 -59 -60 0
-4 -13 -28 -29 -105 0
-14 -38 -39 -40 -49 0
-2 -3 -50 -59 -60 0
-4 -13 -28 -29 -105 0
-7 -31 -32 -41 -42 0
-2 -3 -43 -61 -62 0
-5 -6 -28 -30 -70 0
-7 -31 -32 -41 -42 0
-2 -3 -43 -61 -62 0
-5 -6 -28 -30 -70 0
-8 -31 -33 -41 -42 0
-2 -3 -44 -61 -63 0
-5 -6 -28 -30 -71 0
-8 -31 -33 -41 -42 0
-2 -3 -44 -61 -63 0
-5 -6 -28 -30 -71 0
-9 -31 -34 -41 -42 0
-2 -3 -45 -61 -64 0
-5 -6 -28 -30 -72 0
-9 -31 -34 -41 -42 0
-2 -3 -45 -61 -64 0
-5 -6 -28 -30 -72 0
-10 -31 -35 -41 -42 0
-2 -3 -46 -61 -65 0
-5 -6 -28 -30 -73 0
-10 -31 -35 -41 -42 0
-2 -3 -46 -61 -65 0
-5 -6 -28 -30 -73 0
-11 -31 -36 -41 -42 0
-2 -3 -47 -61 -66 0
-5 -6 -28 -30 -74 0
-11 -31 -36 -41 -42 0
-2 -3 -47 -61 -66 0
-5 -6 -28 -30 -74 0
-12 -31 -37 -41 -42 0
-2 -3 -48 -61 -67 0
-5 -6 -28 -30 -75 0
-12 -31 -37 -41 -42 0
-2 -3 -48 -61 -67 0
-5 -6 -28 -30 -75 0
-13 -31 -38 -41 -42 0
-2 -3 -49 -61 -68 0
-5 -6 -28 -30 -76 0
-13 -31 -38 -41 -42 0
-2 -3 -49 -61 -68 0
-5 -6 -28 -30 -76 0
-14 -31 -39 -41 -42 0
-2 -3 -50 -61 -69 0
-5 -6 -28 -30 -77 0
-14 -31 -39 -41 -42 0
-2 -3 -50 -61 -69 0
-5 -6 -28 -30 -77 0
-8 -32 -33 -41 -43 0
-2 -3 -44 -62 -63 0
-5 -7 -28 -30 -78 0
-8 -32 -33 -41 -43 0
-2 -3 -44 -62 -63 0
-5 -7 -28 -30 -78 0
-9 -32 -34 -41 -43 0
-2 -3 -45 -62 -64 0
-5 -7 -28 -30 -79 0
-9 -32 -34 -41 -43 0
-2 -3 -45 -62 -64 0
-5 -7 -28 -30 -79 0
-10 -32 -35 -41 -43 0
-2 -3 -46 -62 -65 0
-5 -7 -28 -30 -80 0
-10 -32 -35 -41 -43 0
-2 -3 -46 -62 -65 0
-5 -7 -28 -30 -80 0
-11 -32 -36 -41 -43 0
-2 -3 -47 -62 -66 0
-5 -7 -28 -30 -81 0
-11 -32 -36 -41 -43 0
-2 -3 -47 -62 -66 0
-5 -7 -28 -30 -81 0
-12 -32 -37 -41 -43 0
-2 -3 -48 -62 -67 0
-5 -7 -28 -30 -82 0
-12 -32 -37 -41 -43 0
-2 -3 -48 -62 -67 0
-5 -7 -28 -30 -82 0
-13 -32 -38 -41 -43 0
-2 -3 -49 -62 -68 0
-5 -7 -28 -30 -83 0
-13 -32 -38 -41 -43 0
-2 -3 -49 -62 -68 0
-5 -7 -28 -30 -83 0
-14 -32 -39 -41 -43 0
-2 -3 -50 -62 -69 0
-5 -7 -28 -30 -84 0
-14 -32 -39 -41 -43 0
-2 -3 -50 -62 -69 0
-5 -7 -28 -30 -84 0
-9 -33 -34 -41 -44 0
-2 -3 -45 -63 -64 0
-5 -8 -28 -30 -85 0
-9 -33 -34 -41 -44 0
-2 -3 -45 -63 -64 0
-5 -8 -28 -30 -85 0
-10 -33 -35 -41 -44 0
-2 -3 -46 -63 -65 0
-5 -8 -28 -30 -86 0
-10 -33 -35 -41 -44 0
-2 -3 -46 -63 -65 0
-5 -8 -28 -30 -86 0
-11 -33 -36 -41 -44 0
-2 -3 -47 -63 -66 0
-5 -8 -28 -30 -87 0
-11 -33 -36 -41 -44 0
-2 -3 -47 -63 -66 0
-5 -8 -28 -30 -87 0
-12 -33 -37 -41 -44 0
-2 -3 -48 -63 -67 0
-5 -8 -28 -30 -88 0
-12 -33 -37 -41 -44 0
-2 -3 -48 -63 -67 0
-5 -8 -28 -30 -88 0
-13 -33 -38 -41 -44 0
-2 -3 -49 -63 -68 0
-5 -8 -28 -30 -89 0
-13 -33 -38 -41 -44 0
-2 -3 -49 -63 -68 0
-5 -8 -28 -30 -89 0
-14 -33 -39 -41 -44 0
-2 -3 -50 -63 -69 0
-5 -8 -28 -30 -90 0
-14 -33 -39 -41 -44 0
-2 -3 -50 -63 -69 0
-5 -8 -28 -30 -90 0
-10 -34 -35 -41 -45 0
-2 -3 -46 -64 -65 0
-5 -9 -28 -30 -91 0
-10 -34 -35 -41 -45 0
-2 -3 -46 -64 -65 0
-5 -9 -28 -30 -91 0
-11 -34 -36 -41 -45 0
-2 -3 -47 -64 -66 0
-5 -9 -28 -30 -92 0
-11 -34 -36 -41 -45 0
-2 -3 -47 -64 -66 0
-5 -9 -28 -30 -92 0
-12 -34 -37 -41 -45 0
-2 -3 -48 -64 -67 0
-5 -9 -28 -30 -93 0
-12 -34 -37 -41 -45 0
-2 -3 -48 -64 -67 0
-5 -9 -28 -30 -93 0
-13 -34 -38 -41 -45 0
-2 -3 -49 -64 -68 0
-5 -9 -28 -30 -94 0
-13 -34 -38 -41 -45 0
-2 -3 -49 -64 -68 0
-5 -9 -28 -30 -94 0
-14 -34 -39 -41 -45 0
-2 -3 -50 -64 -69 0
-5 -9 -28 -30 -95 0
-14 -34 -39 -41 -45 0
-2 -3 -50 -64 -69 0
-5 -9 -28 -30 -95 0
-11 -35 -36 -41 -46 0
-2 -3 -47 -65 -66 0
-5 -10 -28 -30 -96 0
-11 -35 -36 -41 -46 0
-2 -3 -47 -65 -66 0
-5 -10 -28 -30 -96 0
-12 -35 -37 -41 -46 0
-2 -3 -48 -65 -67 0
-5 -10 -28 -30 -97 0
-12 -35 -37 -41 -46 0
-2 -3 -48 -65 -67 0
-5 -10 -28 -30 -97 0
-13 -35 -38 -41 -46 0
-2 -3 -49 -65 -68 0
-5 -10 -28 -30 -98 0
-13 -35 -38 -41 -46 0
-2 -3 -49 -65 -68 0
-5 -10 -28 -30 -98 0
-14 -35 -39 -41 -46 0
-2 -3 -50 -65 -69 0
-5 -10 -28 -30 -99 0
-14 -35 -39 -41 -46 0
-2 -3 -50 -65 -69 0
-5 -10 -28 -30 -99 0
-12 -36 -37 -41 -47 0
-2 -3 -48 -66 -67 0
-5 -11 -28 -30 -100 0
-12 -36 -37 -41 -47 0
-2 -3 -48 -66 -67 0
-5 -11 -28 -30 -100 0
-13 -36 -38 -41 -47 0
-2 -3 -49 -66 -68 0
-5 -11 -28 -30 -101 0
-13 -36 -38 -41 -47 0
-2 -3 -49 -66 -68 0
-5 -11 -28 -30 -101 0
-14 -36 -39 -41 -47 0
-2 -3 -50 -66 -69 0
-5 -11 -28 -30 -102 0
-14 -36 -39 -41 -47 0
-2 -3 -50 -66 -69 0
-5 -11 -28 -30 -102 0
-13 -37 -38 -41 -48 0
-2 -3 -49 -67 -68 0
-5 -12 -28 -30 -103 0
-13 -37 -38 -41 -48 0
-2 -3 -49 -67 -68 0
-5 -12 -28 -30 -103 0
-14 -37 -39 -41 -48 0
-2 -3 -50 -67 -69 0
-5 -12 -28 -30 -104 0
-14 -37 -39 -41 -48 0
-2 -3 -50 -67 -69 0
-5 -12 -28 -30 -104 0
-14 -38 -39 -41 -49 0
-2 -3 -50 -68 -69 0
-5 -13 -28 -30 -105 0
-14 -38 -39 -41 -49 0
-2 -3 -50 -68 -69 0
-5 -13 -28 -30 -105 0
-8 -32 -33 -42 -43 0
-2 -3 -44 -70 -71 0
-6 -7 -28 -31 -78 0
-8 -32 -33 -42 -43 0
-2 -3 -44 -70 -71 0
-6 -7 -28 -31 -78 0
-9 -32 -34 -42 -43 0
-2 -3 -45 -70 -72 0
-6 -7 -28 -31 -79 0
-9 -32 -34 -42 -43 0
-2 -3 -45 -70 -72 0
-6 -7 -28 -31 -79 0
-10 -32 -35 -42 -43 0
-2 -3 -46 -70 -73 0
-6 -7 -28 -31 -80 0
-10 -32 -35 -42 -43 0
-2 -3 -46 -70 -73 0
-6 -7 -28 -31 -80 0
-11 -32 -36 -42 -43 0
-2 -3 -47 -70 -74 0
-6 -7 -28 -31 -81 0
-11 -32 -36 -42 -43 0
-2 -3 -47 -70 -74 0
-6 -7 -28 -31 -81 0
-12 -32 -37 -42 -43 0
-2 -3 -48 -70 -75 0
-6 -7 -28 -31 -82 0
-12 -32 -37 -42 -43 0
-2 -3 -48 -70 -75 0
-6 -7 -28 -31 -82 0
-13 -32 -38 -42 -43 0
-2 -3 -49 -70 -76 0
-6 -7 -28 -31 -83 0
-13 -32 -38 -42 -43 0
-2 -3 -49 -70 -76 0
-6 -7 -28 -31 -83 0
-14 -32 -39 -42 -43 0
-2 -3 -50 -70 -77 0
-6 -7 -28 -31 -84 0
-14 -32 -39 -42 -43 0
-2 -3 -50 -70 -77 0
-6 -7 -28 -31 -84 0
-9 -33 -34 -42 -44 0
-2 -3 -45 -71 -72 0
-6 -8 -28 -31 -85 0
-9 -33 -34 -42 -44 0
-2 -3 -45 -71 -72 0
-6 -8 -28 -31 -85 0
-10 -33 -35 -42 -44 0
-2 -3 -46 -71 -73 0
-6 -8 -28 -31 -86 0
-10 -33 -35 -42 -44 0
-2 -3 -46 -71 -73 0
-6 -8 -28 -31 -86 0
-11 -33 -36 -42 -44 0
-2 -3 -47 -71 -74 0
-6 -8 -28 -31 -87 0
-11 -33 -36 -42 -44 0
-2 -3 -47 -71 -74 0
-6 -8 -28 -31 -87 0
-12 -33 -37 -42 -44 0
-2 -3 -48 -71 -75 0
-6 -8 -28 -31 -88 0
-12 -33 -37 -42 -44 0
-2 -3 -48 -71 -75 0
-6 -8 -28 -31 -88 0
-13 -33 -38 -42 -44 0
-2 -3 -49 -71 -76 0
-6 -8 -28 -31 -89 0
-13 -33 -38 -42 -44 0
-2 -3 -49 -71 -76 0
-6 -8 -28 -31 -89 0
-14 -33 -39 -42 -44 0
-2 -3 -50 -71 -77 0
-6 -8 -28 -31 -90 0
-14 -33 -39 -42 -44 0
-2 -3 -50 -71 -77 0
-6 -8 -28 -31 -90 0
-10 -34 -35 -42 -45 0
-2 -3 -46 -72 -73 0
-6 -9 -28 -31 -91 0
-10 -34 -35 -42 -45 0
-2 -3 -46 -72 -73 0
-6 -9 -28 -31 -91 0
-11 -34 -36 -42 -45 0
-2 -3 -47 -72 -74 0
-6 -9 -28 -31 -92 0
-11 -34 -36 -42 -45 0
-2 -3 -47 -72 -74 0
-6 -9 -28 -31 -92 0
-12 -34 -37 -42 -45 0
-2 -3 -48 -72 -75 0
-6 -9 -28 -31 -93 0
-12 -34 -37 -42 -45 0
-2 -3 -48 -72 -75 0
-6 -9 -28 -31 -93 0
-13 -34 -38 -42 -45 0
-2 -3 -49 -72 -76 0
-6 -9 -28 -31 -94 0
-13 -34 -38 -42 -45 0
-2 -3 -49 -72 -76 0
-6 -9 -28 -31 -94 0
-14 -34 -39 -42 -45 0
-2 -3 -50 -72 -77 0
-6 -9 -28 -31 -95 0
-14 -34 -39 -42 -45 0
-2 -3 -50 -72 -77 0
-6 -9 -28 -31 -95 0
-11 -35 -36 -42 -46 0
-2 -3 -47 -73 -74 0
-6 -10 -28 -31 -96 0
-11 -35 -36 -42 -46 0
-2 -3 -47 -73 -74 0
-6 -10 -28 -31 -96 0
-12 -35 -37 -42 -46 0
-2 -3 -48 -73 -75 0
-6 -10 -28 -31 -97 0
-12 -35 -37 -42 -46 0
-2 -3 -48 -73 -75 0
-6 -10 -28 -31 -97 0
-13 -35 -38 -42 -46 0
-2 -3 -49 -73 -76 0
-6 -10 -28 -31 -98 0
-13 -35 -38 -42 -46 0
-2 -3 -49 -73 -76 0
-6 -10 -28 -31 -98 0
-14 -35 -39 -42 -46 0
-2 -3 -50 -73 -77 0
-6 -10 -28 -31 -99 0
-14 -35 -39 -42 -46 0
-2 -3 -50 -73 -77 0
-6 -10 -28 -31 -99 0
-12 -36 -37 -42 -47 0
-2 -3 -48 -74 -75 0
-6 -11 -28 -31 -100 0
-12 -36 -37 -42 -47 0
-2 -3 -48 -74 -75 0
-6 -11 -28 -31 -100 0
-13 -36 -38 -42 -47 0
-2 -3 -49 -74 -76 0
-6 -11 -28 -31 -101 0
-13 -36 -38 -42 -47 0
-2 -3 -49 -74 -76 0
-6 -11 -28 -31 -101 0
-14 -36 -39 -42 -47 0
-2 -3 -50 -74 -77 0
-6 -11 -28 -31 -102 0
-14 -36 -39 -42 -47 0
-2 -3 -50 -74 -77 0
-6 -11 -28 -31 -102 0
-13 -37 -38 -42 -48 0
-2 -3 -49 -75 -76 0
-6 -12 -28 -31 -103 0
-13 -37 -38 -42 -48 0
-2 -3 -49 -75 -76 0
-6 -12 -28 -31 -103 0
-14 -37 -39 -42 -48 0
-2 -3 -50 -75 -77 0
-6 -12 -28 -31 -104 0
-14 -37 -39 -42 -48 0
-2 -3 -50 -75 -77 0
-6 -12 -28 -31 -104 0
-14 -38 -39 -42 -49 0
-2 -3 -50 -76 -77 0
-6 -13 -28 -31 -105 0
-14 -38 -39 -42 -49 0
-2 -3 -50 -76 -77 0
-6 -13 -28 -31 -105 0
-9 -33 -34 -43 -44 0
-2 -3 -45 -78 -79 0
-7 -8 -28 -32 -85 0
-9 -33 -34 -43 -44 0
-2 -3 -45 -78 -79 0
-7 -8 -28 -32 -85 0
-10 -33 -35 -43 -44 0
-2 -3 -46 -78 -80 0
-7 -8 -28 -32 -86 0
-10 -33 -35 -43 -44 0
-2 -3 -46 -78 -80 0
-7 -8 -28 -32 -86 0
-11 -33 -36 -43 -44 0
-2 -3 -47 -78 -81 0
-7 -8 -28 -32 -87 0
-11 -33 -36 -43 -44 0
-2 -3 -47 -78 -81 0
-7 -8 -28 -32 -87 0
-12 -33 -37 -43 -44 0
-2 -3 -48 -78 -82 0
-7 -8 -28 -32 -88 0
-12 -33 -37 -43 -44 0
-2 -3 -48 -78 -82 0
-7 -8 -28 -32 -88 0
-13 -33 -38 -43 -44 0
-2 -3 -49 -78 -83 0
-7 -8 -28 -32 -89 0
-13 -33 -38 -43 -44 0
-2 -3 -49 -78 -83 0
-7 -8 -28 -32 -89 0
-14 -33 -39 -43 -44 0
-2 -3 -50 -78 -84 0
-7 -8 -28 -32 -90 0
-14 -33 -39 -43 -44 0
-2 -3 -50 -78 -84 0
-7 -8 -28 -32 -90 0
-10 -34 -35 -43 -45 0
-2 -3 -46 -79 -80 0
-7 -9 -28 -32 -91 0
-10 -34 -35 -43 -45 0
-2 -3 -46 -79 -80 0
-7 -9 -28 -32 -91 0
-11 -34 -36 -43 -45 0
-2 -3 -47 -79 -81 0
-7 -9 -28 -32 -92 0
-11 -34 -36 -43 -45 0
-2 -3 -47 -79 -81 0
-7 -9 -28 -32 -92 0
-12 -34 -37 -43 -45 0
-2 -3 -48 -79 -82 0
-7 -9 -28 -32 -93 0
-12 -34 -37 -43 -45 0
-2 -3 -48 -79 -82 0
-7 -9 -28 -32 -93 0
-13 -34 -38 -43 -45 0
-2 -3 -49 -79 -83 0
-7 -9 -28 -32 -94 0
-13 -34 -38 -43 -45 0
-2 -3 -49 -79 -83 0
-7 -9 -28 -32 -94 0
-14 -34 -39 -43 -45 0
-2 -3 -50 -79 -84 0
-7 -9 -28 -32 -95 0
-14 -34 -39 -43 -45 0
-2 -3 -50 -79 -84 0
-7 -9 -28 -32 -95 0
-11 -35 -36 -43 -46 0
-2 -3 -47 -80 -81 0
-7 -10 -28 -32 -96 0
-11 -35 -36 -43 -46 0
-2 -3 -47 -80 -81 0
-7 -10 -28 -32 -96 0
-12 -35 -37 -43 -46 0
-2 -3 -48 -80 -82 0
-7 -10 -28 -32 -97 0
-12 -35 -37 -43 -46 0
-2 -3 -48 -80 -82 0
-7 -10 -28 -32 -97 0
-13 -35 -38 -43 -46 0
-2 -3 -49 -80 -83 0
-7 -10 -28 -32 -98 0
-13 -35 -38 -43 -46 0
-2 -3 -49 -80 -83 0
-7 -10 -28 -32 -98 0
-14 -35 -39 -43 -46 0
-2 -3 -50 -80 -84 0
-7 -10 -28 -32 -99 0
-14 -35 -39 -43 -46 0
-2 -3 -50 -80 -84 0
-7 -10 -28 -32 -99 0
-12 -36 -37 -43 -47 0
-2 -3 -48 -81 -82 0
-7 -11 -28 -32 -100 0
-12 -36 -37 -43 -47 0
-2 -3 -48 -81 -82 0
-7 -11 -28 -32 -100 0
-13 -36 -38 -43 -47 0
-2 -3 -49 -81 -83 0
-7 -11 -28 -32 -101 0
-13 -36 -38 -43 -47 0
-2 -3 -49 -81 -83 0
-7 -11 -28 -32 -101 0
-14 -36 -39 -43 -47 0
-2 -3 -50 -81 -84 0
-7 -11 -28 -32 -102 0
-14 -36 -39 -43 -47 0
-2 -3 -50 -81 -84 0
-7 -11 -28 -32 -102 0
-13 -37 -38 -43 -48 0
-2 -3 -49 -82 -83 0
-7 -12 -28 -32 -103 0
-13 -37 -38 -43 -48 0
-2 -3 -49 -82 -83 0
-7 -12 -28 -32 -103 0
-14 -37 -39 -43 -48 0
-2 -3 -50 -82 -84 0
-7 -12 -28 -32 -104 0
-14 -37 -39 -43 -48 0
-2 -3 -50 -82 -84 0
-7 -12 -28 -32 -104 0
-14 -38 -39 -43 -49 0
-2 -3 -50 -83 -84 0
-7 -13 -28 -32 -105 0
-14 -38 -39 -43 -49 0
-2 -3 -50 -83 -84 0
-7 -13 -28 -32 -105 0
-10 -34 -35 -44 -45 0
-2 -3 -46 -85 -86 0
-8 -9 -28 -33 -91 0
-10 -34 -35 -44 -45 0
-2 -3 -46 -85 -86 0
-8 -9 -28 -33 -91 0
-11 -34 -36 -44 -45 0
-2 -3 -47 -85 -87 0
-8 -9 -28 -33 -92 0
-11 -34 -36 -44 -45 0
-2 -3 -47 -85 -87 0
-8 -9 -28 -33 -92 0
-12 -34 -37 -44 -45 0
-2 -3 -48 -85 -88 0
-8 -9 -28 -33 -93 0
-12 -34 -37 -44 -45 0
-2 -3 -48 -85 -88 0
-8 -9 -28 -33 -93 0
-13 -34 -38 -44 -45 0
-2 -3 -49 -85 -89 0
-8 -9 -28 -33 -94 0
-13 -34 -38 -44 -45 0
-2 -3 -49 -85 -89 0
-8 -9 -28 -33 -94 0
-14 -34 -39 -44 -45 0
-2 -3 -50 -85 -90 0
-8 -9 -28 -33 -95 0
-14 -34 -39 -44 -45 0
-2 -3 -50 -85 -90 0
-8 -9 -28 -33 -95 0
-11 -35 -36 -44 -46 0
-2 -3 -47 -86 -87 0
-8 -10 -28 -33 -96 0
-11 -35 -36 -44 -46 0
-2 -3 -47 -86 -87 0
-8 -10 -28 -33 -96 0
-12 -35 -37 -44 -46 0
-2 -3 -48 -86 -88 0
-8 -10 -28 -33 -97 0
-12 -35 -37 -44 -46 0
-2 -3 -48 -86 -88 0
-8 -10 -28 -33 -97 0
-13 -35 -38 -44 -46 0
-2 -3 -49 -86 -89 0
-8 -10 -28 -33 -98 0
-13 -35 -38 -44 -46 0
-2 -3 -49 -86 -89 0
-8 -10 -28 -33 -98 0
-14 -35 -39 -44 -46 0
-2 -3 -50 -86 -90 0
-8 -10 -28 -33 -99 0
-14 -35 -39 -44 -46 0
-2 -3 -50 -86 -90 0
-8 -10 -28 -33 -99 0
-12 -36 -37 -44 -47 0
-2 -3 -48 -87 -88 0
-8 -11 -28 -33 -100 0
-12 -36 -37 -44 -47 0
-2 -3 -48 -87 -88 0
-8 -11 -28 -33 -100 0
-13 -36 -38 -44 -47 0
-2 -3 -49 -87 -89 0
-8 -11 -28 -33 -101 0
-13 -36 -38 -44 -47 0
-2 -3 -49 -87 -89 0
-8 -11 -28 -33 -101 0
-14 -36 -39 -44 -47 0
-2 -3 -50 -87 -90 0
-8 -11 -28 -33 -102 0
-14 -36 -39 -44 -47 0
-2 -3 -50 -87 -90 0
-8 -11 -28 -33 -102 0
-13 -37 -38 -44 -48 0
-2 -3 -49 -88 -89 0
-8 -12 -28 -33 -103 0
-13 -37 -38 -44 -48 0
-2 -3 -49 -88 -89 0
-8 -12 -28 -33 -103 0
-14 -37 -39 -44 -48 0
-2 -3 -50 -88 -90 0
-8 -12 -28 -33 -104 0
-14 -37 -39 -44 -48 0
-2 -3 -50 -88 -90 0
-8 -12 -28 -33 -104 0
-14 -38 -39 -44 -49 0
-2 -3 -50 -89 -90 0
-8 -13 -28 -33 -105 0
-14 -38 -39 -44 -49 0
-2 -3 -50 -89 -90 0
-8 -13 -28 -33 -105 0
-11 -35 -36 -45 -46 0
-2 -3 -47 -91 -92 0
-9 -10 -28 -34 -96 0
-11 -35 -36 -45 -46 0
-2 -3 -47 -91 -92 0
-9 -10 -28 -34 -96 0
-12 -35 -37 -45 -46 0
-2 -3 -48 -91 -93 0
-9 -10 -28 -34 -97 0
-12 -35 -37 -45 -46 0
-2 -3 -48 -91 -93 0
-9 -10 -28 -34 -97 0
-13 -35 -38 -45 -46 0
-2 -3 -49 -91 -94 0
-9 -10 -28 -34 -98 0
-13 -35 -38 -45 -46 0
-2 -3 -49 -91 -94 0
-9 -10 -28 -34 -98 0
-14 -35 -39 -45 -46 0
-2 -3 -50 -91 -95 0
-9 -10 -28 -34 -99 0
-14 -35 -39 -45 -46 0
-2 -3 -50 -91 -95 0
-9 -10 -28 -34 -99 0
-12 -36 -37 -45 -47 0
-2 -3 -48 -92 -93 0
-9 -11 -28 -34 -100 0
-12 -36 -37 -45 -47 0
-2 -3 -48 -92 -93 0
-9 -11 -28 -34 -100 0
-13 -36 -38 -45 -47 0
-2 -3 -49 -92 -94 0
-9 -11 -28 -34 -101 0
-13 -36 -38 -45 -47 0
-2 -3 -49 -92 -94 0
-9 -11 -28 -34 -101 0
-14 -36 -39 -45 -47 0
-2 -3 -50 -92 -95 0
-9 -11 -28 -34 -102 0
-14 -36 -39 -45 -47 0
-2 -3 -50 -92 -95 0
-9 -11 -28 -34 -102 0
-13 -37 -38 -45 -48 0
-2 -3 -49 -93 -94 0
-9 -12 -28 -34 -103 0
-13 -37 -38 -45 -48 0
-2 -3 -49 -93 -94 0
-9 -12 -28 -34 -103 0
-14 -37 -39 -45 -48 0
-2 -3 -50 -93 -95 0
-9 -12 -28 -34 -104 0
-14 -37 -39 -45 -48 0
-2 -3 -50 -93 -95 0
-9 -12 -28 -34 -104 0
-14 -38 -39 -45 -49 0
-2 -3 -50 -94 -95 0
-9 -13 -28 -34 -105 0
-14 -38 -39 -45 -49 0
-2 -3 -50 -94 -95 0
-9 -13 -28 -34 -105 0
-12 -36 -37 -46 -47 0
-2 -3 -48 -96 -97 0
-10 -11 -28 -35 -100 0
-12 -36 -37 -46 -47 0
-2 -3 -48 -96 -97 0
-10 -11 -28 -35 -100 0
-13 -36 -38 -46 -47 0
-2 -3 -49 -96 -98 0
-10 -11 -28 -35 -101 0
-13 -36 -38 -46 -47 0
-2 -3 -49 -96 -98 0
-10 -11 -28 -35 -101 0
-14 -36 -39 -46 -47 0
-2 -3 -50 -96 -99 0
-10 -11 -28 -35 -102 0
-14 -36 -39 -46 -47 0
-2 -3 -50 -96 -99 0
-10 -11 -28 -35 -102 0
-13 -37 -38 -46 -48 0
-2 -3 -49 -97 -98 0
-10 -12 -28 -35 -103 0
-13 -37 -38 -46 -48 0
-2 -3 -49 -97 -98 0
-10 -12 -28 -35 -103 0
-14 -37 -39 -46 -48 0
-2 -3 -50 -97 -99 0
-10 -12 -28 -35 -104 0
-14 -37 -39 -46 -48 0
-2 -3 -50 -97 -99 0
-10 -12 -28 -35 -104 0
-14 -38 -39 -46 -49 0
-2 -3 -50 -98 -99 0
-10 -13 -28 -35 -105 0
-14 -38 -39 -46 -49 0
-2 -3 -50 -98 -99 0
-10 -13 -28 -35 -105 0
-13 -37 -38 -47 -48 0
-2 -3 -49 -100 -101 0
-11 -12 -28 -36 -103 0
-13 -37 -38 -47 -48 0
-2 -3 -49 -100 -101 0
-11 -12 -28 -36 -103 0
-14 -37 -39 -47 -48 0
-2 -3 -50 -100 -102 0
-11 -12 -28 -36 -104 0
-14 -37 -39 -47 -48 0
-2 -3 -50 -100 -102 0
-11 -12 -28 -36 -104 0
-14 -38 -39 -47 -49 0
-2 -3 -50 -101 -102 0
-11 -13 -28 -36 -105 0
-14 -38 -39 -47 -49 0
-2 -3 -50 -101 -102 0
-11 -13 -28 -36 -105 0
-14 -38 -39 -48 -49 0
-2 -3 -50 -103 -104 0
-12 -13 -28 -37 -105 0
-14 -38 -39 -48 -49 0
-2 -3 -50 -103 -104 0
-12 -13 -28 -37 -105 0
-7 -31 -32 -51 -52 0
-2 -4 -53 -61 -62 0
-5 -6 -29 -30 -70 0
-7 -31 -32 -51 -52 0
-2 -4 -53 -61 -62 0
-5 -6 -29 -30 -70 0
-8 -31 -33 -51 -52 0
-2 -4 -54 -61 -63 0
-5 -6 -29 -30 -71 0
-8 -31 -33 -51 -52 0
-2 -4 -54 -61 -63 0
-5 -6 -29 -30 -71 0
-9 -31 -34 -51 -52 0
-2 -4 -55 -61 -64 0
-5 -6 -29 -30 -72 0
-9 -31 -34 -51 -52 0
-2 -4 -55 -61 -64 0
-5 -6 -29 -30 -72 0
-10 -31 -35 -51 -52 0
-2 -4 -56 -61 -65 0
-5 -6 -29 -30 -73 0
-10 -31 -35 -51 -52 0
-2 -4 -56 -61 -65 0
-5 -6 -29 -30 -73 0
-11 -31 -36 -51 -52 0
-2 -4 -57 -61 -66 0
-5 -6 -29 -30 -74 0
-11 -31 -36 -51 -52 0
-2 -4 -57 -61 -66 0
-5 -6 -29 -30 -74 0
-12 -31 -37 -51 -52 0
-2 -4 -58 -61 -67 0
-5 -6 -29 -30 -75 0
-12 -31 -37 -51 -52 0
-2 -4 -58 -61 -67 0
-5 -6 -29 -30 -75 0
-13 -31 -38 -51 -52 0
-2 -4 -59 -61 -68 0
-5 -6 -29 -30 -76 0
-13 -31 -38 -51 -52 0
-2 -4 -59 -61 -68 0
-5 -6 -29 -30 -76 0
-14 -31 -39 -51 -52 0
-2 -4 -60 -61 -69 0
-5 -6 -29 -30 -77 0
-14 -31 -39 -51 -52 0
-2 -4 -60 -61 -69 0
-5 -6 -29 -30 -77 0
-8 -32 -33 -51 -53 0
-2 -4 -54 -62 -63 0
-5 -7 -29 -30 -78 0
-8 -32 -33 -51 -53 0
-2 -4 -54 -62 -63 0
-5 -7 -29 -30 -78 0
-9 -32 -34 -51 -53 0
-2 -4 -55 -62 -64 0
-5 -7 -29 -30 -79 0
-9 -32 -34 -51 -53 0
-2 -4 -55 -62 -64 0
-5 -7 -29 -30 -79 0
-10 -32 -35 -51 -53 0
-2 -4 -56 -62 -65 0
-5 -7 -29 -30 -80 0
-10 -32 -35 -51 -53 0
-2 -4 -56 -62 -65 0
-5 -7 -29 -30 -80 0
-11 -32 -36 -51 -53 0
-2 -4 -57 -62 -66 0
-5 -7 -29 -30 -81 0
-11 -32 -36 -51 -53 0
-2 -4 -57 -62 -66 0
-5 -7 -29 -30 -81 0
-12 -32 -37 -51 -53 0
-2 -4 -58 -62 -67 0
-5 -7 -29 -30 -82 0
-12 -32 -37 -51 -53 0
-2 -4 -58 -62 -67 0
-5 -7 -29 -30 -82 0
-13 -32 -38 -51 -53 0
-2 -4 -59 -62 -68 0
-5 -7 -29 -30 -83 0
-13 -32 -38 -51 -53 0
-2 -4 -59 -62 -68 0
-5 -7 -29 -30 -83 0
-14 -32 -39 -51 -53 0
-2 -4 -60 -62 -69 0
-5 -7 -29 -30 -84 0
-14 -32 -39 -51 -53 0
-2 -4 -60 -62 -69 0
-5 -7 -29 -30 -84 0
-9 -33 -34 -51 -54 0
-2 -4 -55 -63 -64 0
-5 -8 -29 -30 -85 0
-9 -33 -34 -51 -54 0
-2 -4 -55 -63 -64 0
-5 -8 -29 -30 -85 0
-10 -33 -35 -51 -54 0
-2 -4 -56 -63 -65 0
-5 -8 -29 -30 -86 0
-10 -33 -35 -51 -54 0
-2 -4 -56 -63 -65 0
-5 -8 -29 -30 -86 0
-11 -33 -36 -51 -54 0
-2 -4 -57 -63 -66 0
-5 -8 -29 -30 -87 0
-11 -33 -36 -51 -54 0
-2 -4 -57 -63 -66 0
-5 -8 -29 -30 -87 0
-12 -33 -37 -51 -54 0
-2 -4 -58 -63 -67 0
-5 -8 -29 -30 -88 0
-12 -33 -37 -51 -54 0
-2 -4 -58 -63 -67 0
-5 -8 -29 -30 -88 0
-13 -33 -38 -51 -54 0
-2 -4 -59 -63 -68 0
-5 -8 -29 -30 -89 0
-13 -33 -38 -51 -54 0
-2 -4 -59 -63 -68 0
-5 -8 -29 -30 -89 0
-14 -33 -39 -51 -54 0
-2 -4 -60 -63 -69 0
-5 -8 -29 -30 -90 0
-14 -33 -39 -51 -54 0
-2 -4 -60 -63 -69 0
-5 -8 -29 -30 -90 0
-10 -34 -35 -51 -55 0
-2 -4 -56 -64 -65 0
-5 -9 -29 -30 -91 0
-10 -34 -35 -51 -55 0
-2 -4 -56 -64 -65 0
-5 -9 -29 -30 -91 0
-11 -34 -36 -51 -55 0
-2 -4 -57 -64 -66 0
-5 -9 -29 -30 -92 0
-11 -34 -36 -51 -55 0
-2 -4 -57 -64 -66 0
-5 -9 -29 -30 -92 0
-12 -34 -37 -51 -55 0
-2 -4 -58 -64 -67 0
-5 -9 -29 -30 -93 0
-12 -34 -37 -51 -55 0
-2 -4 -58 -64 -67 0
-5 -9 -29 -30 -93 0
-13 -34 -38 -51 -55 0
-2 -4 -59 -64 -68 0
-5 -9 -29 -30 -94 0
-13 -34 -38 -51 -55 0
-2 -4 -59 -64 -68 0
-5 -9 -29 -30 -94 0
-14 -34 -39 -51 -55 0
-2 -4 -60 -64 -69 0
-5 -9 -29 -30 -95 0
-14 -34 -39 -51 -55 0
-2 -4 -60 -64 -69 0
-5 -9 -29 -30 -95 0
-11 -35 -36 -51 -56 0
-2 -4 -57 -65 -66 0
-5 -10 -29 -30 -96 0
-11 -35 -36 -51 -56 0
-2 -4 -57 -65 -66 0
-5 -10 -29 -30 -96 0
-12 -35 -37 -51 -56 0
-2 -4 -58 -65 -67 0
-5 -10 -29 -30 -97 0
-12 -35 -37 -51 -56 0
-2 -4 -58 -65 -67 0
-5 -10 -29 -30 -97 0
-13 -35 -38 -51 -56 0
-2 -4 -59 -65 -68 0
-5 -10 -29 -30 -98 0
-13 -35 -38 -51 -56 0
-2 -4 -59 -65 -68 0
-5 -10 -29 -30 -98 0
-14 -35 -39 -51 -56 0
-2 -4 -60 -65 -69 0
-5 -10 -29 -30 -99 0
-14 -35 -39 -51 -56 0
-2 -4 -60 -65 -69 0
-5 -10 -29 -30 -99 0
-12 -36 -37 -51 -57 0
-2 -4 -58 -66 -67 0
-5 -11 -29 -30 -100 0
-12 -36 -37 -51 -57 0
-2 -4 -58 -66 -67 0
-5 -11 -29 -30 -100 0
-13 -36 -38 -51 -57 0
-2 -4 -59 -66 -68 0
-5 -11 -29 -30 -101 0
-13 -36 -38 -51 -57 0
-2 -4 -59 -66 -68 0
-5 -11 -29 -30 -101 0
-14 -36 -39 -51 -57 0
-2 -4 -60 -66 -69 0
-5 -11 -29 -30 -102 0
-14 -36 -39 -51 -57 0
-2 -4 -60 -66 -69 0
-5 -11 -29 -30 -102 0
-13 -37 -38 -51 -58 0
-2 -4 -59 -67 -68 0
-5 -12 -29 -30 -103 0
-13 -37 -38 -51 -58 0
-2 -4 -59 -67 -68 0
-5 -12 -29 -30 -103 0
-14 -37 -39 -51 -58 0
-2 -4 -60 -67 -69 0
-5 -12 -29 -30 -104 0
-14 -37 -39 -51 -58 0
-2 -4 -60 -67 -69 0
-5 -12 -29 -30 -104 0
-14 -38 -39 -51 -59 0
-2 -4 -60 -68 -69 0
-5 -13 -29 -30 -105 0
-14 -38 -39 -51 -59 0
-2 -4 -60 -68 -69 0
-5 -13 -29 -30 -105 0
-8 -32 -33 -52 -53 0
-2 -4 -54 -70 -71 0
-6 -7 -29 -31 -78 0
-8 -32 -33 -52 -53 0
-2 -4 -54 -70 -71 0
-6 -7 -29 -31 -78 0
-9 -32 -34 -52 -53 0
-2 -4 -55 -70 -72 0
-6 -7 -29 -31 -79 0
-9 -32 -34 -52 -53 0
-2 -4 -55 -70 -72 0
-6 -7 -29 -31 -79 0
-10 -32 -35 -52 -53 0
-2 -4 -56 -70 -73 0
-6 -7 -29 -31 -80 0
-10 -32 -35 -52 -53 0
-2 -4 -56 -70 -73 0
-6 -7 -29 -31 -80 0
-11 -32 -36 -52 -53 0
-2 -4 -57 -70 -74 0
-6 -7 -29 -31 -81 0
-11 -32 -36 -52 -53 0
-2 -4 -57 -70 -74 0
-6 -7 -29 -31 -81 0
-12 -32 -37 -52 -53 0
-2 -4 -58 -70 -75 0
-6 -7 -29 -31 -82 0
-12 -32 -37 -52 -53 0
-2 -4 -58 -70 -75 0
-6 -7 -29 -31 -82 0
-13 -32 -38 -52 -53 0
-2 -4 -59 -70 -76 0
-6 -7 -29 -31 -83 0
-13 -32 -38 -52 -53 0
-2 -4 -59 -70 -76 0
-6 -7 -29 -31 -83 0
-14 -32 -39 -52 -53 0
-2 -4 -60 -70 -77 0
-6 -7 -29 -31 -84 0
-14 -32 -39 -52 -53 0
-2 -4 -60 -70 -77 0
-6 -7 -29 -31 -84 0
-9 -33 -34 -52 -54 0
-2 -4 -55 -71 -72 0
-6 -8 -29 -31 -85 0
-9 -33 -34 -52 -54 0
-2 -4 -55 -71 -72 0
-6 -8 -29 -31 -85 0
-10 -33 -35 -52 -54 0
-2 -4 -56 -71 -73 0
-6 -8 -29 -31 -86 0
-10 -33 -35 -52 -54 0
-2 -4 -56 -71 -73 0
-6 -8 -29 -31 -86 0
-11 -33 -36 -52 -54 0
-2 -4 -57 -71 -74 0
-6 -8 -29 -31 -87 0
-11 -33 -36 -52 -54 0
-2 -4 -57 -71 -74 0
-6 -8 -29 -31 -87 0
-12 -33 -37 -52 -54 0
-2 -4 -58 -71 -75 0
-6 -8 -29 -31 -88 0
-12 -33 -37 -52 -54 0
-2 -4 -58 -71 -75 0
-6 -8 -29 -31 -88 0
-13 -33 -38 -52 -54 0
-2 -4 -59 -71 -76 0
-6 -8 -29 -31 -89 0
-13 -33 -38 -52 -54 0
-2 -4 -59 -71 -76 0
-6 -8 -29 -31 -89 0
-14 -33 -39 -52 -54 0
-2 -4 -60 -71 -77 0
-6 -8 -29 -31 -90 0
-14 -33 -39 -52 -54 0
-2 -4 -60 -71 -77 0
-6 -8 -29 -31 -90 0
-10 -34 -35 -52 -55 0
-2 -4 -56 -72 -73 0
-6 -9 -29 -31 -91 0
-10 -34 -35 -52 -55 0
-2 -4 -56 -72 -73 0
-6 -9 -29 -31 -91 0
-11 -34 -36 -52 -55 0
-2 -4 -57 -72 -74 0
-6 -9 -29 -31 -92 0
-11 -34 -36 -52 -55 0
-2 -4 -57 -72 -74 0
-6 -9 -29 -31 -92 0
-12 -34 -37 -52 -55 0
-2 -4 -58 -72 -75 0
-6 -9 -29 -31 -93 0
-12 -34 -37 -52 -55 0
-2 -4 -58 -72 -75 0
-6 -9 -29 -31 -93 0
-13 -34 -38 -52 -55 0
-2 -4 -59 -72 -76 0
-6 -9 -29 -31 -94 0
-13 -34 -38 -52 -55 0
-2 -4 -59 -72 -76 0
-6 -9 -29 -31 -94 0
-14 -34 -39 -52 -55 0
-2 -4 -60 -72 -77 0
-6 -9 -29 -31 -95 0
-14 -34 -39 -52 -55 0
-2 -4 -60 -72 -77 0
-6 -9 -29 -31 -95 0
-11 -35 -36 -52 -56 0
-2 -4 -57 -73 -74 0
-6 -10 -29 -31 -96 0
-11 -35 -36 -52 -56 0
-2 -4 -57 -73 -74 0
-6 -10 -29 -31 -96 0
-12 -35 -37 -52 -56 0
-2 -4 -58 -73 -75 0
-6 -10 -29 -31 -97 0
-12 -35 -37 -52 -56 0
-2 -4 -58 -73 -75 0
-6 -10 -29 -31 -97 0
-13 -35 -38 -52 -56 0
-2 -4 -59 -73 -76 0
-6 -10 -29 -31 -98 0
-13 -35 -38 -52 -56 0
-2 -4 -59 -73 -76 0
-6 -10 -29 -31 -98 0
-14 -35 -39 -52 -56 0
-2 -4 -60 -73 -77 0
-6 -10 -29 -31 -99 0
-14 -35 -39 -52 -56 0
-2 -4 -60 -73 -77 0
-6 -10 -29 -31 -99 0
-12 -36 -37 -52 -57 0
-2 -4 -58 -74 -75 0
-6 -11 -29 -31 -100 0
-12 -36 -37 -52 -57 0
-2 -4 -58 -74 -75 0
-6 -11 -29 -31 -100 0
-13 -36 -38 -52 -57 0
-2 -4 -59 -74 -76 0
-6 -11 -29 -31 -101 0
-13 -36 -38 -52 -57 0
-2 -4 -59 -74 -76 0
-6 -11 -29 -31 -101 0
-14 -36 -39 -52 -57 0
-2 -4 -60 -74 -77 0
-6 -11 -29 -31 -102 0
-14 -36 -39 -52 -57 0
-2 -4 -60 -74 -77 0
-6 -11 -29 -31 -102 0
-13 -37 -38 -52 -58 0
-2 -4 -59 -75 -76 0
-6 -12 -29 -31 -103 0
-13 -37 -38 -52 -58 0
-2 -4 -59 -75 -76 0
-6 -12 -29 -31 -103 0
-14 -37 -39 -52 -58 0
-2 -4 -60 -75 -77 0
-6 -12 -29 -31 -104 0
-14 -37 -39 -52 -58 0
-2 -4 -60 -75 -77 0
-6 -12 -29 -31 -104 0
-14 -38 -39 -52 -59 0
-2 -4 -60 -76 -77 0
-6 -13 -29 -31 -105 0
-14 -38 -39 -52 -59 0
-2 -4 -60 -76 -77 0
-6 -13 -29 -31 -105 0
-9 -33 -34 -53 -54 0
-2 -4 -55 -78 -79 0
-7 -8 -29 -32 -85 0
-9 -33 -34 -53 -54 0
-2 -4 -55 -78 -79 0
-7 -8 -29 -32 -85 0
-10 -33 -35 -53 -54 0
-2 -4 -56 -78 -80 0
-7 -8 -29 -32 -86 0
-10 -33 -35 -53 -54 0
-2 -4 -56 -78 -80 0
-7 -8 -29 -32 -86 0
-11 -33 -36 -53 -54 0
-2 -4 -57 -78 -81 0
-7 -8 -29 -32 -87 0
-11 -33 -36 -53 -54 0
-2 -4 -57 -78 -81 0
-7 -8 -29 -32 -87 0
-12 -33 -37 -53 -54 0
-2 -4 -58 -78 -82 0
-7 -8 -29 -32 -88 0
-12 -33 -37 -53 -54 0
-2 -4 -58 -78 -82 0
-7 -8 -29 -32 -88 0
-13 -33 -38 -53 -54 0
-2 -4 -59 -78 -83 0
-7 -8 -29 -32 -89 0
-13 -33 -38 -53 -54 0
-2 -4 -59 -78 -83 0
-7 -8 -29 -32 -89 0
-14 -33 -39 -53 -54 0
-2 -4 -60 -78 -84 0
-7 -8 -29 -32 -90 0
-14 -33 -39 -53 -54 0
-2 -4 -60 -78 -84 0
-7 -8 -29 -32 -90 0
-10 -34 -35 -53 -55 0
-2 -4 -56 -79 -80 0
-7 -9 -29 -32 -91 0
-10 -34 -35 -53 -55 0
-2 -4 -56 -79 -80 0
-7 -9 -29 -32 -91 0
-11 -34 -36 -53 -55 0
-2 -4 -57 -79 -81 0
-7 -9 -29 -32 -92 0
-11 -34 -36 -53 -55 0
-2 -4 -57 -79 -81 0
-7 -9 -29 -32 -92 0
-12 -34 -37 -53 -55 0
-2 -4 -58 -79 -82 0
-7 -9 -29 -32 -93 0
-12 -34 -37 -53 -55 0
-2 -4 -58 -79 -82 0
-7 -9 -29 -32 -93 0
-13 -34 -38 -53 -55 0
-2 -4 -59 -79 -83 0
-7 -9 -29 -32 -94 0
-13 -34 -38 -53 -55 0
-2 -4 -59 -79 -83 0
-7 -9 -29 -32 -94 0
-14 -34 -39 -53 -55 0
-2 -4 -60 -79 -84 0
-7 -9 -29 -32 -95 0
-14 -34 -39 -53 -55 0
-2 -4 -60 -79 -84 0
-7 -9 -29 -32 -95 0
-11 -35 -36 -53 -56 0
-2 -4 -57 -80 -81 0
-7 -10 -29 -32 -96 0
-11 -35 -36 -53 -56 0
-2 -4 -57 -80 -81 0
-7 -10 -29 -32 -96 0
-12 -35 -37 -53 -56 0
-2 -4 -58 -80 -82 0
-7 -10 -29 -32 -97 0
-12 -35 -37 -53 -56 0
-2 -4 -58 -80 -82 0
-7 -10 -29 -32 -97 0
-13 -35 -38 -53 -56 0
-2 -4 -59 -80 -83 0
-7 -10 -29 -32 -98 0
-13 -35 -38 -53 -56 0
-2 -4 -59 -80 -83 0
-7 -10 -29 -32 -98 0
-14 -35 -39 -53 -56 0
-2 -4 -60 -80 -84 0
-7 -10 -29 -32 -99 0
-14 -35 -39 -53 -56 0
-2 -4 -60 -80 -84 0
-7 -10 -29 -32 -99 0
-12 -36 -37 -53 -57 0
-2 -4 -58 -81 -82 0
-7 -11 -29 -32 -100 0
-12 -36 -37 -53 -57 0
-2 -4 -58 -81 -82 0
-7 -11 -29 -32 -100 0
-13 -36 -38 -53 -57 0
-2 -4 -59 -81 -83 0
-7 -11 -29 -32 -101 0
-13 -36 -38 -53 -57 0
-2 -4 -59 -81 -83 0
-7 -11 -29 -32 -101 0
-14 -36 -39 -53 -57 0
-2 -4 -60 -81 -84 0
-7 -11 -29 -32 -102 0
-14 -36 -39 -53 -57 0
-2 -4 -60 -81 -84 0
-7 -11 -29 -32 -102 0
-13 -37 -38 -53 -58 0
-2 -4 -59 -82 -83 0
-7 -12 -29 -32 -103 0
-13 -37 -38 -53 -58 0
-2 -4 -59 -82 -83 0
-7 -12 -29 -32 -103 0
-14 -37 -39 -53 -58 0
-2 -4 -60 -82 -84 0
-7 -12 -29 -32 -104 0
-14 -37 -39 -53 -58 0
-2 -4 -60 -82 -84 0
-7 -12 -29 -32 -104 0
-14 -38 -39 -53 -59 0
-2 -4 -60 -83 -84 0
-7 -13 -29 -32 -105 0
-14 -38 -39 -53 -59 0
-2 -4 -60 -83 -84 0
-7 -13 -29 -32 -105 0
-10 -34 -35 -54 -55 0
-2 -4 -56 -85 -86 0
-8 -9 -29 -33 -91 0
-10 -34 -35 -54 -55 0
-2 -4 -56 -85 -86 0
-8 -9 -29 -33 -91 0
-11 -34 -36 -54 -55 0
-2 -4 -57 -85 -87 0
-8 -9 -29 -33 -92 0
-11 -34 -36 -54 -55 0
-2 -4 -57 -85 -87 0
-8 -9 -29 -33 -92 0
-12 -34 -37 -54 -55 0
-2 -4 -58 -85 -88 0
-8 -9 -29 -33 -93 0
-12 -34 -37 -54 -55 0
-2 -4 -58 -85 -88 0
-8 -9 -29 -33 -93 0
-13 -34 -38 -54 -55 0
-2 -4 -59 -85 -89 0
-8 -9 -29 -33 -94 0
-13 -34 -38 -54 -55 0
-2 -4 -59 -85 -89 0
-8 -9 -29 -33 -94 0
-14 -34 -39 -54 -55 0
-2 -4 -60 -85 -90 0
-8 -9 -29 -33 -95 0
-14 -34 -39 -54 -55 0
-2 -4 -60 -85 -90 0
-8 -9 -29 -33 -95 0
-11 -35 -36 -54 -56 0
-2 -4 -57 -86 -87 0
-8 -10 -29 -33 -96 0
-11 -35 -36 -54 -56 0
-2 -4 -57 -86 -87 0
-8 -10 -29 -33 -96 0
-12 -35 -37 -54 -56 0
-2 -4 -58 -86 -88 0
-8 -10 -29 -33 -97 0
-12 -35 -37 -54 -56 0
-2 -4 -58 -86 -88 0
-8 -10 -29 -33 -97 0
-13 -35 -38 -54 -56 0
-2 -4 -59 -86 -89 0
-8 -10 -29 -33 -98 0
-13 -35 -38 -54 -56 0
-2 -4 -59 -86 -89 0
-8 -10 -29 -33 -98 0
-14 -35 -39 -54 -56 0
-2 -4 -60 -86 -90 0
-8 -10 -29 -33 -99 0
-14 -35 -39 -54 -56 0
-2 -4 -60 -86 -90 0
-8 -10 -29 -33 -99 0
-12 -36 -37 -54 -57 0
-2 -4 -58 -87 -88 0
-8 -11 -29 -33 -100 0
-12 -36 -37 -54 -57 0
-2 -4 -58 -87 -88 0
-8 -11 -29 -33 -100 0
-13 -36 -38 -54 -57 0
-2 -4 -59 -87 -89 0
-8 -11 -29 -33 -101 0
-13 -36 -38 -54 -57 0
-2 -4 -59 -87 -89 0
-8 -11 -29 -33 -101 0
-14 -36 -39 -54 -57 0
-2 -4 -60 -87 -90 0
-8 -11 -29 -33 -102 0
-14 -36 -39 -54 -57 0
-2 -4 -60 -87 -90 0
-8 -11 -29 -33 -102 0
-13 -37 -38 -54 -58 0
-2 -4 -59 -88 -89 0
-8 -12 -29 -33 -103 0
-13 -37 -38 -54 -58 0
-2 -4 -59 -88 -89 0
-8 -12 -29 -33 -103 0
-14 -37 -39 -54 -58 0
-2 -4 -60 -88 -90 0
-8 -12 -29 -33 -104 0
-14 -37 -39 -54 -58 0
-2 -4 -60 -88 -90 0
-8 -12 -29 -33 -104 0
-14 -38 -39 -54 -59 0
-2 -4 -60 -89 -90 0
-8 -13 -29 -33 -105 0
-14 -38 -39 -54 -59 0
-2 -4 -60 -89 -90 0
-8 -13 -29 -33 -105 0
-11 -35 -36 -55 -56 0
-2 -4 -57 -91 -92 0
-9 -10 -29 -34 -96 0
-11 -35 -36 -55 -56 0
-2 -4 -57 -91 -92 0
-9 -10 -29 -34 -96 0
-12 -35 -37 -55 -56 0
-2 -4 -58 -91 -93 0
-9 -10 -29 -34 -97 0
-12 -35 -37 -55 -56 0
-2 -4 -58 -91 -93 0
-9 -10 -29 -34 -97 0
-13 -35 -38 -55 -56 0
-2 -4 -59 -91 -94 0
-9 -10 -29 -34 -98 0
-13 -35 -38 -55 -56 0
-2 -4 -59 -91 -94 0
-9 -10 -29 -34 -98 0
-14 -35 -39 -55 -56 0
-2 -4 -60 -91 -95 0
-9 -10 -29 -34 -99 0
-14 -35 -39 -55 -56 0
-2 -4 -60 -91 -95 0
-9 -10 -29 -34 -99 0
-12 -36 -37 -55 -57 0
-2 -4 -58 -92 -93 0
-9 -11 -29 -34 -100 0
-12 -36 -37 -55 -57 0
-2 -4 -58 -92 -93 0
-9 -11 -29 -34 -100 0
-13 -36 -38 -55 -57 0
-2 -4 -59 -92 -94 0
-9 -11 -29 -34 -101 0
-13 -36 -38 -55 -57 0
-2 -4 -59 -92 -94 0
-9 -11 -29 -34 -101 0
-14 -36 -39 -55 -57 0
-2 -4 -60 -92 -95 0
-9 -11 -29 -34 -102 0
-14 -36 -39 -55 -57 0
-2 -4 -60 -92 -95 0
-9 -11 -29 -34 -102 0
-13 -37 -38 -55 -58 0
-2 -4 -59 -93 -94 0
-9 -12 -29 -34 -103 0
-13 -37 -38 -55 -58 0
-2 -4 -59 -93 -94 0
-9 -12 -29 -34 -103 0
-14 -37 -39 -55 -58 0
-2 -4 -60 -93 -95 0
-9 -12 -29 -34 -104 0
-14 -37 -39 -55 -58 0
-2 -4 -60 -93 -95 0
-9 -12 -29 -34 -104 0
-14 -38 -39 -55 -59 0
-2 -4 -60 -94 -95 0
-9 -13 -29 -34 -105 0
-14 -38 -39 -55 -59 0
-2 -4 -60 -94 -95 0
-9 -13 -29 -34 -105 0
-12 -36 -37 -56 -57 0
-2 -4 -58 -96 -97 0
-10 -11 -29 -35 -100 0
-12 -36 -37 -56 -57 0
-2 -4 -58 -96 -97 0
-10 -11 -29 -35 -100 0
-13 -36 -38 -56 -57 0
-2 -4 -59 -96 -98 0
-10 -11 -29 -35 -101 0
-13 -36 -38 -56 -57 0
-2 -4 -59 -96 -98 0
-10 -11 -29 -35 -101 0
-14 -36 -39 -56 -57 0
-2 -4 -60 -96 -99 0
-10 -11 -29 -35 -102 0
-14 -36 -39 -56 -57 0
-2 -4 -60 -96 -99 0
-10 -11 -29 -35 -102 0
-13 -37 -38 -56 -58 0
-2 -4 -59 -97 -98 0
-10 -12 -29 -35 -103 0
-13 -37 -38 -56 -58 0
-2 -4 -59 -97 -98 0
-10 -12 -29 -35 -103 0
-14 -37 -39 -56 -58 0
-2 -4 -60 -97 -99 0
-10 -12 -29 -35 -104 0
-14 -37 -39 -56 -58 0
-2 -4 -60 -97 -99 0
-10 -12 -29 -35 -104 0
-14 -38 -39 -56 -59 0
-2 -4 -60 -98 -99 0
-10 -13 -29 -35 -105 0
-14 -38 -39 -56 -59 0
-2 -4 -60 -98 -99 0
-10 -13 -29 -35 -105 0
-13 -37 -38 -57 -58 0
-2 -4 -59 -100 -101 0
-11 -12 -29 -36 -103 0
-13 -37 -38 -57 -58 0
-2 -4 -59 -100 -101 0
-11 -12 -29 -36 -103 0
-14 -37 -39 -57 -58 0
-2 -4 -60 -100 -102 0
-11 -12 -29 -36 -104 0
-14 -37 -39 -57 -58 0
-2 -4 -60 -100 -102 0
-11 -12 -29 -36 -104 0
-14 -38 -39 -57 -59 0
-2 -4 -60 -101 -102 0
-11 -13 -29 -36 -105 0
-14 -38 -39 -57 -59 0
-2 -4 -60 -101 -102 0
-11 -13 -29 -36 -105 0
-14 -38 -39 -58 -59 0
-2 -4 -60 -103 -104 0
-12 -13 -29 -37 -105 0
-14 -38 -39 -58 -59 0
-2 -4 -60 -103 -104 0
-12 -13 -29 -37 -105 0
-8 -32 -33 -61 -62 0
-2 -5 -63 -70 -71 0
-6 -7 -30 -31 -78 0
-8 -32 -33 -61 -62 0
-2 -5 -63 -70 -71 0
-6 -7 -30 -31 -78 0
-9 -32 -34 -61 -62 0
-2 -5 -64 -70 -72 0
-6 -7 -30 -31 -79 0
-9 -32 -34 -61 -62 0
-2 -5 -64 -70 -72 0
-6 -7 -30 -31 -79 0
-10 -32 -35 -61 -62 0
-2 -5 -65 -70 -73 0
-6 -7 -30 -31 -80 0
-10 -32 -35 -61 -62 0
-2 -5 -65 -70 -73 0
-6 -7 -30 -31 -80 0
-11 -32 -36 -61 -62 0
-2 -5 -66 -70 -74 0
-6 -7 -30 -31 -81 0
-11 -32 -36 -61 -62 0
-2 -5 -66 -70 -74 0
-6 -7 -30 -31 -81 0
-12 -32 -37 -61 -62 0
-2 -5 -67 -70 -75 0
-6 -7 -30 -31 -82 0
-12 -32 -37 -61 -62 0
-2 -5 -67 -70 -75 0
-6 -7 -30 -31 -82 0
-13 -32 -38 -61 -62 0
-2 -5 -68 -70 -76 0
-6 -7 -30 -31 -83 0
-13 -32 -38 -61 -62 0
-2 -5 -68 -70 -76 0
-6 -7 -30 -31 -83 0
-14 -32 -39 -61 -62 0
-2 -5 -69 -70 -77 0
-6 -7 -30 -31 -84 0
-14 -32 -39 -61 -62 0
-2 -5 -69 -70 -77 0
-6 -7 -30 -31 -84 0
-9 -33 -34 -61 -63 0
-2 -5 -64 -71 -72 0
-6 -8 -30 -31 -85 0
-9 -33 -34 -61 -63 0
-2 -5 -64 -71 -72 0
-6 -8 -30 -31 -85 0
-10 -33 -35 -61 -63 0
-2 -5 -65 -71 -73 0
-6 -8 -30 -31 -86 0
-10 -33 -35 -61 -63 0
-2 -5 -65 -71 -73 0
-6 -8 -30 -31 -86 0
-11 -33 -36 -61 -63 0
-2 -5 -66 -71 -74 0
-6 -8 -30 -31 -87 0
-11 -33 -36 -61 -63 0
-2 -5 -66 -71 -74 0
-6 -8 -30 -31 -87 0
-12 -33 -37 -61 -63 0
-2 -5 -67 -71 -75 0
-6 -8 -30 -31 -88 0
-12 -33 -37 -61 -63 0
-2 -5 -67 -71 -75 0
-6 -8 -30 -31 -88 0
-13 -33 -38 -61 -63 0
-2 -5 -68 -71 -76 0
-6 -8 -30 -31 -89 0
-13 -33 -38 -61 -63 0
-2 -5 -68 -71 -76 0
-6 -8 -30 -31 -89 0
-14 -33 -39 -61 -63 0
-2 -5 -69 -71 -77 0
-6 -8 -30 -31 -90 0
-14 -33 -39 -61 -63 0
-2 -5 -69 -71 -77 0
-6 -8 -30 -31 -90 0
-10 -34 -35 -61 -64 0
-2 -5 -65 -72 -73 0
-6 -9 -30 -31 -91 0
-10 -34 -35 -61 -64 0
-2 -5 -65 -72 -73 0
-6 -9 -30 -31 -91 0
-11 -34 -36 -61 -64 0
-2 -5 -66 -72 -74 0
-6 -9 -30 -31 -92 0
-11 -34 -36 -61 -64 0
-2 -5 -66 -72 -74 0
-6 -9 -30 -31 -92 0
-12 -34 -37 -61 -64 0
-2 -5 -67 -72 -75 0
-6 -9 -30 -31 -93 0
-12 -34 -37 -61 -64 0
-2 -5 -67 -72 -75 0
-6 -9 -30 -31 -93 0
-13 -34 -38 -61 -64 0
-2 -5 -68 -72 -76 0
-6 -9 -30 -31 -94 0
-13 -34 -38 -61 -64 0
-2 -5 -68 -72 -76 0
-6 -9 -30 -31 -94 0
-14 -34 -39 -61 -64 0
-2 -5 -69 -72 -77 0
-6 -9 -30 -31 -95 0
-14 -34 -39 -61 -64 0
-2 -5 -69 -72 -77 0
-6 -9 -30 -31 -95 0
-11 -35 -36 -61 -65 0
-2 -5 -66 -73 -74 0
-6 -10 -30 -31 -96 0
-11 -35 -36 -61 -65 0
-2 -5 -66 -73 -74 0
-6 -10 -30 -31 -96 0
-12 -35 -37 -61 -65 0
-2 -5 -67 -73 -75 0
-6 -10 -30 -31 -97 0
-12 -35 -37 -61 -65 0
-2 -5 -67 -73 -75 0
-6 -10 -30 -31 -97 0
-13 -35 -38 -61 -65 0
-2 -5 -68 -73 -76 0
-6 -10 -30 -31 -98 0
-13 -35 -38 -61 -65 0
-2 -5 -68 -73 -76 0
-6 -10 -30 -31 -98 0
-14 -35 -39 -61 -65 0
-2 -5 -69 -73 -77 0
-6 -10 -30 -31 -99 0
-14 -35 -39 -61 -65 0
-2 -5 -69 -73 -77 0
-6 -10 -30 -31 -99 0
-12 -36 -37 -61 -66 0
-2 -5 -67 -74 -75 0
-6 -11 -30 -31 -100 0
-12 -36 -37 -61 -66 0
-2 -5 -67 -74 -75 0
-6 -11 -30 -31 -100 0
-13 -36 -38 -61 -66 0
-2 -5 -68 -74 -76 0
-6 -11 -30 -31 -101 0
-13 -36 -38 -61 -66 0
-2 -5 -68 -74 -76 0
-6 -11 -30 -31 -101 0
-14 -36 -39 -61 -66 0
-2 -5 -69 -74 -77 0
-6 -11 -30 -31 -102 0
-14 -36 -39 -61 -66 0
-2 -5 -69 -74 -77 0
-6 -11 -30 -31 -102 0
-13 -37 -38 -61 -67 0
-2 -5 -68 -75 -76 0
-6 -12 -30 -31 -103 0
-13 -37 -38 -61 -67 0
-2 -5 -68 -75 -76 0
-6 -12 -30 -31 -103 0
-14 -37 -39 -61 -67 0
-2 -5 -69 -75 -77 0
-6 -12 -30 -31 -104 0
-14 -37 -39 -61 -67 0
-2 -5 -69 -75 -77 0
-6 -12 -30 -31 -104 0
-14 -38 -39 -61 -68 0
-2 -5 -69 -76 -77 0
-6 -13 -30 -31 -105 0
-14 -38 -39 -61 -68 0
-2 -5 -69 -76 -77 0
-6 -13 -30 -31 -105 0
-9 -33 -34 -62 -63 0
-2 -5 -64 -78 -79 0
-7 -8 -30 -32 -85 0
-9 -33 -34 -62 -63 0
-2 -5 -64 -78 -79 0
-7 -8 -30 -32 -85 0
-10 -33 -35 -62 -63 0
-2 -5 -65 -78 -80 0
-7 -8 -30 -32 -86 0
-10 -33 -35 -62 -63 0
-2 -5 -65 -78 -80 0
-7 -8 -30 -32 -86 0
-11 -33 -36 -62 -63 0
-2 -5 -66 -78 -81 0
-7 -8 -30 -32 -87 0
-11 -33 -36 -62 -63 0
-2 -5 -66 -78 -81 0
-7 -8 -30 -32 -87 0
-12 -33 -37 -62 -63 0
-2 -5 -67 -78 -82 0
-7 -8 -30 -32 -88 0
-12 -33 -37 -62 -63 0
-2 -5 -67 -78 -82 0
-7 -8 -30 -32 -88 0
-13 -33 -38 -62 -63 0
-2 -5 -68 -78 -83 0
-7 -8 -30 -32 -89 0
-13 -33 -38 -62 -63 0
-2 -5 -68 -78 -83 0
-7 -8 -30 -32 -89 0
-14 -33 -39 -62 -63 0
-2 -5 -69 -78 -84 0
-7 -8 -30 -32 -90 0
-14 -33 -39 -62 -63 0
-2 -5 -69 -78 -84 0
-7 -8 -30 -32 -90 0
-10 -34 -35 -62 -64 0
-2 -5 -65 -79 -80 0
-7 -9 -30 -32 -91 0
-10 -34 -35 -62 -64 0
-2 -5 -65 -79 -80 0
-7 -9 -30 -32 -91 0
-11 -34 -36 -62 -64 0
-2 -5 -66 -79 -81 0
-7 -9 -30 -32 -92 0
-11 -34 -36 -62 -64 0
-2 -5 -66 -79 -81 0
-7 -9 -30 -32 -92 0
-12 -34 -37 -62 -64 0
-2 -5 -67 -79 -82 0
-7 -9 -30 -32 -93 0
-12 -34 -37 -62 -64 0
-2 -5 -67 -79 -82 0
-7 -9 -30 -32 -93 0
-13 -34 -38 -62 -64 0
-2 -5 -68 -79 -83 0
-7 -9 -30 -32 -94 0
-13 -34 -38 -62 -64 0
-2 -5 -68 -79 -83 0
-7 -9 -30 -32 -94 0
-14 -34 -39 -62 -64 0
-2 -5 -69 -79 -84 0
-7 -9 -30 -32 -95 0
-14 -34 -39 -62 -64 0
-2 -5 -69 -79 -84 0
-7 -9 -30 -32 -95 0
-11 -35 -36 -62 -65 0
-2 -5 -66 -80 -81 0
-7 -10 -30 -32 -96 0
-11 -35 -36 -62 -65 0
-2 -5 -66 -80 -81 0
-7 -10 -30 -32 -96 0
-12 -35 -37 -62 -65 0
-2 -5 -67 -80 -82 0
-7 -10 -30 -32 -97 0
-12 -35 -37 -62 -65 0
-2 -5 -67 -80 -82 0
-7 -10 -30 -32 -97 0
-13 -35 -38 -62 -65 0
-2 -5 -68 -80 -83 0
-7 -10 -30 -32 -98 0
-13 -35 -38 -62 -65 0
-2 -5 -68 -80 -83 0
-7 -10 -30 -32 -98 0
-14 -35 -39 -62 -65 0
-2 -5 -69 -80 -84 0
-7 -10 -30 -32 -99 0
-14 -35 -39 -62 -65 0
-2 -5 -69 -80 -84 0
-7 -10 -30 -32 -99 0
-12 -36 -37 -62 -66 0
-2 -5 -67 -81 -82 0
-7 -11 -30 -32 -100 0
-12 -36 -37 -62 -66 0
-2 -5 -67 -81 -82 0
-7 -11 -30 -32 -100 0
-13 -36 -38 -62 -66 0
-2 -5 -68 -81 -83 0
-7 -11 -30 -32 -101 0
-13 -36 -38 -62 -66 0
-2 -5 -68 -81 -83 0
-7 -11 -30 -32 -101 0
-14 -36 -39 -62 -66 0
-2 -5 -69 -81 -84 0
-7 -11 -30 -32 -102 0
-14 -36 -39 -62 -66 0
-2 -5 -69 -81 -84 0
-7 -11 -30 -32 -102 0
-13 -37 -38 -62 -67 0
-2 -5 -68 -82 -83 0
-7 -12 -30 -32 -103 0
-13 -37 -38 -62 -67 0
-2 -5 -68 -82 -83 0
-7 -12 -30 -32 -103 0
-14 -37 -39 -62 -67 0
-2 -5 -69 -82 -84 0
-7 -12 -30 -32 -104 0
-14 -37 -39 -62 -67 0
-2 -5 -69 -82 -84 0
-7 -12 -30 -32 -104 0
-14 -38 -39 -62 -68 0
-2 -5 -69 -83 -84 0
-7 -13 -30 -32 -105 0
-14 -38 -39 -62 -68 0
-2 -5 -69 -83 -84 0
-7 -13 -30 -32 -105 0
-10 -34 -35 -63 -64 0
-2 -5 -65 -85 -86 0
-8 -9 -30 -33 -91 0
-10 -34 -35 -63 -64 0
-2 -5 -65 -85 -86 0
-8 -9 -30 -33 -91 0
-11 -34 -36 -63 -64 0
-2 -5 -66 -85 -87 0
-8 -9 -30 -33 -92 0
-11 -34 -36 -63 -64 0
-2 -5 -66 -85 -87 0
-8 -9 -30 -33 -92 0
-12 -34 -37 -63 -64 0
-2 -5 -67 -85 -88 0
-8 -9 -30 -33 -93 0
-12 -34 -37 -63 -64 0
-2 -5 -67 -85 -88 0
-8 -9 -30 -33 -93 0
-13 -34 -38 -63 -64 0
-2 -5 -68 -85 -89 0
-8 -9 -30 -33 -94 0
-13 -34 -38 -63 -64 0
-2 -5 -68 -85 -89 0
-8 -9 -30 -33 -94 0
-14 -34 -39 -63 -64 0
-2 -5 -69 -85 -90 0
-8 -9 -30 -33 -95 0
-14 -34 -39 -63 -64 0
-2 -5 -69 -85 -90 0
-8 -9 -30 -33 -95 0
-11 -35 -36 -63 -65 0
-2 -5 -66 -86 -87 0
-8 -10 -30 -33 -96 0
-11 -35 -36 -63 -65 0
-2 -5 -66 -86 -87 0
-8 -10 -30 -33 -96 0
-12 -35 -37 -63 -65 0
-2 -5 -67 -86 -88 0
-8 -10 -30 -33 -97 0
-12 -35 -37 -63 -65 0
-2 -5 -67 -86 -88 0
-8 -10 -30 -33 -97 0
-13 -35 -38 -63 -65 0
-2 -5 -68 -86 -89 0
-8 -10 -30 -33 -98 0
-13 -35 -38 -63 -65 0
-2 -5 -68 -86 -89 0
-8 -10 -30 -33 -98 0
-14 -35 -39 -63 -65 0
-2 -5 -69 -86 -90 0
-8 -10 -30 -33 -99 0
-14 -35 -39 -63 -65 0
-2 -5 -69 -86 -90 0
-8 -10 -30 -33 -99 0
-12 -36 -37 -63 -66 0
-2 -5 -67 -87 -88 0
-8 -11 -30 -33 -100 0
-12 -36 -37 -63 -66 0
-2 -5 -67 -87 -88 0
-8 -11 -30 -33 -100 0
-13 -36 -38 -63 -66 0
-2 -5 -68 -87 -89 0
-8 -11 -30 -33 -101 0
-13 -36 -38 -63 -66 0
-2 -5 -68 -87 -89 0
-8 -11 -30 -33 -101 0
-14 -36 -39 -63 -66 0
-2 -5 -69 -87 -90 0
-8 -11 -30 -33 -102 0
-14 -36 -39 -63 -66 0
-2 -5 -69 -87 -90 0
-8 -11 -30 -33 -102 0
-13 -37 -38 -63 -67 0
-2 -5 -68 -88 -89 0
-8 -12 -30 -33 -103 0
-13 -37 -38 -63 -67 0
-2 -5 -68 -88 -89 0
-8 -12 -30 -33 -103 0
-14 -37 -39 -63 -67 0
-2 -5 -69 -88 -90 0
-8 -12 -30 -33 -104 0
-14 -37 -39 -63 -67 0
-2 -5 -69 -88 -90 0
-8 -12 -30 -33 -104 0
-14 -38 -39 -63 -68 0
-2 -5 -69 -89 -90 0
-8 -13 -30 -33 -105 0
-14 -38 -39 -63 -68 0
-2 -5 -69 -89 -90 0
-8 -13 -30 -33 -105 0
-11 -35 -36 -64 -65 0
-2 -5 -66 -91 -92 0
-9 -10 -30 -34 -96 0
-11 -35 -36 -64 -65 0
-2 -5 -66 -91 -92 0
-9 -10 -30 -34 -96 0
-12 -35 -37 -64 -65 0
-2 -5 -67 -91 -93 0
-9 -10 -30 -34 -97 0
-12 -35 -37 -64 -65 0
-2 -5 -67 -91 -93 0
-9 -10 -30 -34 -97 0
-13 -35 -38 -64 -65 0
-2 -5 -68 -91 -94 0
-9 -10 -30 -34 -98 0
-13 -35 -38 -64 -65 0
-2 -5 -68 -91 -94 0
-9 -10 -30 -34 -98 0
-14 -35 -39 -64 -65 0
-2 -5 -69 -91 -95 0
-9 -10 -30 -34 -99 0
-14 -35 -39 -64 -65 0
-2 -5 -69 -91 -95 0
-9 -10 -30 -34 -99 0
-12 -36 -37 -64 -66 0
-2 -5 -67 -92 -93 0
-9 -11 -30 -34 -100 0
-12 -36 -37 -64 -66 0
-2 -5 -67 -92 -93 0
-9 -11 -30 -34 -100 0
-13 -36 -38 -64 -66 0
-2 -5 -68 -92 -94 0
-9 -11 -30 -34 -101 0
-13 -36 -38 -64 -66 0
-2 -5 -68 -92 -94 0
-9 -11 -30 -34 -101 0
-14 -36 -39 -64 -66 0
-2 -5 -69 -92 -95 0
-9 -11 -30 -34 -102 0
-14 -36 -39 -64 -66 0
-2 -5 -69 -92 -95 0
-9 -11 -30 -34 -102 0
-13 -37 -38 -64 -67 0
-2 -5 -68 -93 -94 0
-9 -12 -30 -34 -103 0
-13 -37 -38 -64 -67 0
-2 -5 -68 -93 -94 0
-9 -12 -30 -34 -103 0
-14 -37 -39 -64 -67 0
-2 -5 -69 -93 -95 0
-9 -12 -30 -34 -104 0
-14 -37 -39 -64 -67 0
-2 -5 -69 -93 -95 0
-9 -12 -30 -34 -104 0
-14 -38 -39 -64 -68 0
-2 -5 -69 -94 -95 0
-9 -13 -30 -34 -105 0
-14 -38 -39 -64 -68 0
-2 -5 -69 -94 -95 0
-9 -13 -30 -34 -105 0
-12 -36 -37 -65 -66 0
-2 -5 -67 -96 -97 0
-10 -11 -30 -35 -100 0
-12 -36 -37 -65 -66 0
-2 -5 -67 -96 -97 0
-10 -11 -30 -35 -100 0
-13 -36 -38 -65 -66 0
-2 -5 -68 -96 -98 0
-10 -11 -30 -35 -101 0
-13 -36 -38 -65 -66 0
-2 -5 -68 -96 -98 0
-10 -11 -30 -35 -101 0
-14 -36 -39 -65 -66 0
-2 -5 -69 -96 -99 0
-10 -11 -30 -35 -102 0
-14 -36 -39 -65 -66 0
-2 -5 -69 -96 -99 0
-10 -11 -30 -35 -102 0
-13 -37 -38 -65 -67 0
-2 -5 -68 -97 -98 0
-10 -12 -30 -35 -103 0
-13 -37 -38 -65 -67 0
-2 -5 -68 -97 -98 0
-10 -12 -30 -35 -103 0
-14 -37 -39 -65 -67 0
-2 -5 -69 -97 -99 0
-10 -12 -30 -35 -104 0
-14 -37 -39 -65 -67 0
-2 -5 -69 -97 -99 0
-10 -12 -30 -35 -104 0
-14 -38 -39 -65 -68 0
-2 -5 -69 -98 -99 0
-10 -13 -30 -35 -105 0
-14 -38 -39 -65 -68 0
-2 -5 -69 -98 -99 0
-10 -13 -30 -35 -105 0
-13 -37 -38 -66 -67 0
-2 -5 -68 -100 -101 0
-11 -12 -30 -36 -103 0
-13 -37 -38 -66 -67 0
-2 -5 -68 -100 -101 0
-11 -12 -30 -36 -103 0
-14 -37 -39 -66 -67 0
-2 -5 -69 -100 -102 0
-11 -12 -30 -36 -104 0
-14 -37 -39 -66 -67 0
-2 -5 -69 -100 -102 0
-11 -12 -30 -36 -104 0
-14 -38 -39 -66 -68 0
-2 -5 -69 -101 -102 0
-11 -13 -30 -36 -105 0
-14 -38 -39 -66 -68 0
-2 -5 -69 -101 -102 0
-11 -13 -30 -36 -105 0
-14 -38 -39 -67 -68 0
-2 -5 -69 -103 -104 0
-12 -13 -30 -37 -105 0
-14 -38 -39 -67 -68 0
-2 -5 -69 -103 -104 0
-12 -13 -30 -37 -105 0
-9 -33 -34 -70 -71 0
-2 -6 -72 -78 -79 0
-7 -8 -31 -32 -85 0
-9 -33 -34 -70 -71 0
-2 -6 -72 -78 -79 0
-7 -8 -31 -32 -85 0
-10 -33 -35 -70 -71 0
-2 -6 -73 -78 -80 0
-7 -8 -31 -32 -86 0
-10 -33 -35 -70 -71 0
-2 -6 -73 -78 -80 0
-7 -8 -31 -32 -86 0
-11 -33 -36 -70 -71 0
-2 -6 -74 -78 -81 0
-7 -8 -31 -32 -87 0
-11 -33 -36 -70 -71 0
-2 -6 -74 -78 -81 0
-7 -8 -31 -32 -87 0
-12 -33 -37 -70 -71 0
-2 -6 -75 -78 -82 0
-7 -8 -31 -32 -88 0
-12 -33 -37 -70 -71 0
-2 -6 -75 -78 -82 0
-7 -8 -31 -32 -88 0
-13 -33 -38 -70 -71 0
-2 -6 -76 -78 -83 0
-7 -8 -31 -32 -89 0
-13 -33 -38 -70 -71 0
-2 -6 -76 -78 -83 0
-7 -8 -31 -32 -89 0
-14 -33 -39 -70 -71 0
-2 -6 -77 -78 -84 0
-7 -8 -31 -32 -90 0
-14 -33 -39 -70 -71 0
-2 -6 -77 -78 -84 0
-7 -8 -31 -32 -90 0
-10 -34 -35 -70 -72 0
-2 -6 -73 -79 -80 0
-7 -9 -31 -32 -91 0
-10 -34 -35 -70 -72 0
-2 -6 -73 -79 -80 0
-7 -9 -31 -32 -91 0
-11 -34 -36 -70 -72 0
-2 -6 -74 -79 -81 0
-7 -9 -31 -32 -92 0
-11 -34 -36 -70 -72 0
-2 -6 -74 -79 -81 0
-7 -9 -31 -32 -92 0
-12 -34 -37 -70 -72 0
-2 -6 -75 -79 -82 0
-7 -9 -31 -32 -93 0
-12 -34 -37 -70 -72 0
-2 -6 -75 -79 -82 0
-7 -9 -31 -32 -93 0
-13 -34 -38 -70 -72 0
-2 -6 -76 -79 -83 0
-7 -9 -31 -32 -94 0
-13 -34 -38 -70 -72 0
-2 -6 -76 -79 -83 0
-7 -9 -31 -32 -94 0
-14 -34 -39 -70 -72 0
-2 -6 -77 -79 -84 0
-7 -9 -31 -32 -95 0
-14 -34 -39 -70 -72 0
-2 -6 -77 -79 -84 0
-7 -9 -31 -32 -95 0
-11 -35 -36 -70 -73 0
-2 -6 -74 -80 -81 0
-7 -10 -31 -32 -96 0
-11 -35 -36 -70 -73 0
-2 -6 -74 -80 -81 0
-7 -10 -31 -32 -96 0
-12 -35 -37 -70 -73 0
-2 -6 -75 -80 -82 0
-7 -10 -31 -32 -97 0
-12 -35 -37 -70 -73 0
-2 -6 -75 -80 -82 0
-7 -10 -31 -32 -97 0
-13 -35 -38 -70 -73 0
-2 -6 -76 -80 -83 0
-7 -10 -31 -32 -98 0
-13 -35 -38 -70 -73 0
-2 -6 -76 -80 -83 0
-7 -10 -31 -32 -98 0
-14 -35 -39 -70 -73 0
-2 -6 -77 -80 -84 0
-7 -10 -31 -32 -99 0
-14 -35 -39 -70 -73 0
-2 -6 -77 -80 -84 0
-7 -10 -31 -32 -99 0
-12 -36 -37 -70 -74 0
-2 -6 -75 -81 -82 0
-7 -11 -31 -32 -100 0
-12 -36 -37 -70 -74 0
-2 -6 -75 -81 -82 0
-7 -11 -31 -32 -100 0
-13 -36 -38 -70 -74 0
-2 -6 -76 -81 -83 0
-7 -11 -31 -32 -101 0
-13 -36 -38 -70 -74 0
-2 -6 -76 -81 -83 0
-7 -11 -31 -32 -101 0
-14 -36 -39 -70 -74 0
-2 -6 -77 -81 -84 0
-7 -11 -31 -32 -102 0
-14 -36 -39 -70 -74 0
-2 -6 -77 -81 -84 0
-7 -11 -31 -32 -102 0
-13 -37 -38 -70 -75 0
-2 -6 -76 -82 -83 0
-7 -12 -31 -32 -103 0
-13 -37 -38 -70 -75 0
-2 -6 -76 -82 -83 0
-7 -12 -31 -32 -103 0
-14 -37 -39 -70 -75 0
-2 -6 -77 -82 -84 0
-7 -12 -31 -32 -104 0
-14 -37 -39 -70 -75 0
-2 -6 -77 -82 -84 0
-7 -12 -31 -32 -104 0
-14 -38 -39 -70 -76 0
-2 -6 -77 -83 -84 0
-7 -13 -31 -32 -105 0
-14 -38 -39 -70 -76 0
-2 -6 -77 -83 -84 0
-7 -13 -31 -32 -105 0
-10 -34 -35 -71 -72 0
-2 -6 -73 -85 -86 0
-8 -9 -31 -33 -91 0
-10 -34 -35 -71 -72 0
-2 -6 -73 -85 -86 0
-8 -9 -31 -33 -91 0
-11 -34 -36 -71 -72 0
-2 -6 -74 -85 -87 0
-8 -9 -31 -33 -92 0
-11 -34 -36 -71 -72 0
-2 -6 -74 -85 -87 0
-8 -9 -31 -33 -92 0
-12 -34 -37 -71 -72 0
-2 -6 -75 -85 -88 0
-8 -9 -31 -33 -93 0
-12 -34 -37 -71 -72 0
-2 -6 -75 -85 -88 0
-8 -9 -31 -33 -93 0
-13 -34 -38 -71 -72 0
-2 -6 -76 -85 -89 0
-8 -9 -31 -33 -94 0
-13 -34 -38 -71 -72 0
-2 -6 -76 -85 -89 0
-8 -9 -31 -33 -94 0
-14 -34 -39 -71 -72 0
-2 -6 -77 -85 -90 0
-8 -9 -31 -33 -95 0
-14 -34 -39 -71 -72 0
-2 -6 -77 -85 -90 0
-8 -9 -31 -33 -95 0
-11 -35 -36 -71 -73 0
-2 -6 -74 -86 -87 0
-8 -10 -31 -33 -96 0
-11 -35 -36 -71 -73 0
-2 -6 -74 -86 -87 0
-8 -10 -31 -33 -96 0
-12 -35 -37 -71 -73 0
-2 -6 -75 -86 -88 0
-8 -10 -31 -33 -97 0
-12 -35 -37 -71 -73 0
-2 -6 -75 -86 -88 0
-8 -10 -31 -33 -97 0
-13 -35 -38 -71 -73 0
-2 -6 -76 -86 -89 0
-8 -10 -31 -33 -98 0
-13 -35 -38 -71 -73 0
-2 -6 -76 -86 -89 0
-8 -10 -31 -33 -98 0
-14 -35 -39 -71 -73 0
-2 -6 -77 -86 -90 0
-8 -10 -31 -33 -99 0
-14 -35 -39 -71 -73 0
-2 -6 -77 -86 -90 0
-8 -10 -31 -33 -99 0
-12 -36 -37 -71 -74 0
-2 -6 -75 -87 -88 0
-8 -11 -31 -33 -100 0
-12 -36 -37 -71 -74 0
-2 -6 -75 -87 -88 0
-8 -11 -31 -33 -100 0
-13 -36 -38 -71 -74 0
-2 -6 -76 -87 -89 0
-8 -11 -31 -33 -101 0
-13 -36 -38 -71 -74 0
-2 -6 -76 -87 -89 0
-8 -11 -31 -33 -101 0
-14 -36 -39 -71 -74 0
-2 -6 -77 -87 -90 0
-8 -11 -31 -33 -102 0
-14 -36 -39 -71 -74 0
-2 -6 -77 -87 -90 0
-8 -11 -31 -33 -102 0
-13 -37 -38 -71 -75 0
-2 -6 -76 -88 -89 0
-8 -12 -31 -33 -103 0
-13 -37 -38 -71 -75 0
-2 -6 -76 -88 -89 0
-8 -12 -31 -33 -103 0
-14 -37 -39 -71 -75 0
-2 -6 -77 -88 -90 0
-8 -12 -31 -33 -104 0
-14 -37 -39 -71 -75 0
-2 -6 -77 -88 -90 0
-8 -12 -31 -33 -104 0
-14 -38 -39 -71 -76 0
-2 -6 -77 -89 -90 0
-8 -13 -31 -33 -105 0
-14 -38 -39 -71 -76 0
-2 -6 -77 -89 -90 0
-8 -13 -31 -33 -105 0
-11 -35 -36 -72 -73 0
-2 -6 -74 -91 -92 0
-9 -10 -31 -34 -96 0
-11 -35 -36 -72 -73 0
-2 -6 -74 -91 -92 0
-9 -10 -31 -34 -96 0
-12 -35 -37 -72 -73 0
-2 -6 -75 -91 -93 0
-9 -10 -31 -34 -97 0
-12 -35 -37 -72 -73 0
-2 -6 -75 -91 -93 0
-9 -10 -31 -34 -97 0
-13 -35 -38 -72 -73 0
-2 -6 -76 -91 -94 0
-9 -10 -31 -34 -98 0
-13 -35 -38 -72 -73 0
-2 -6 -76 -91 -94 0
-9 -10 -31 -34 -98 0
-14 -35 -39 -72 -73 0
-2 -6 -77 -91 -95 0
-9 -10 -31 -34 -99 0
-14 -35 -39 -72 -73 0
-2 -6 -77 -91 -95 0
-9 -10 -31 -34 -99 0
-12 -36 -37 -72 -74 0
-2 -6 -75 -92 -93 0
-9 -11 -31 -34 -100 0
-12 -36 -37 -72 -74 0
-2 -6 -75 -92 -93 0
-9 -11 -31 -34 -100 0
-13 -36 -38 -72 -74 0
-2 -6 -76 -92 -94 0
-9 -11 -31 -34 -101 0
-13 -36 -38 -72 -74 0
-2 -6 -76 -92 -94 0
-9 -11 -31 -34 -101 0
-14 -36 -39 -72 -74 0
-2 -6 -77 -92 -95 0
-9 -11 -31 -34 -102 0
-14 -36 -39 -72 -74 0
-2 -6 -77 -92 -95 0
-9 -11 -31 -34 -102 0
-13 -37 -38 -72 -75 0
-2 -6 -76 -93 -94 0
-9 -12 -31 -34 -103 0
-13 -37 -38 -72 -75 0
-2 -6 -76 -93 -94 0
-9 -12 -31 -34 -103 0
-14 -37 -39 -72 -75 0
-2 -6 -77 -93 -95 0
-9 -12 -31 -34 -104 0
-14 -37 -39 -72 -75 0
-2 -6 -77 -93 -95 0
-9 -12 -31 -34 -104 0
-14 -38 -39 -72 -76 0
-2 -6 -77 -94 -95 0
-9 -13 -31 -34 -105 0
-14 -38 -39 -72 -76 0
-2 -6 -77 -94 -95 0
-9 -13 -31 -34 -105 0
-12 -36 -37 -73 -74 0
-2 -6 -75 -96 -97 0
-10 -11 -31 -35 -100 0
-12 -36 -37 -73 -74 0
-2 -6 -75 -96 -97 0
-10 -11 -31 -35 -100 0
-13 -36 -38 -73 -74 0
-2 -6 -76 -96 -98 0
-10 -11 -31 -35 -101 0
-13 -36 -38 -73 -74 0
-2 -6 -76 -96 -98 0
-10 -11 -31 -35 -101 0
-14 -36 -39 -73 -74 0
-2 -6 -77 -96 -99 0
-10 -11 -31 -35 -102 0
-14 -36 -39 -73 -74 0
-2 -6 -77 -96 -99 0
-10 -11 -31 -35 -102 0
-13 -37 -38 -73 -75 0
-2 -6 -76 -97 -98 0
-10 -12 -31 -35 -103 0
-13 -37 -38 -73 -75 0
-2 -6 -76 -97 -98 0
-10 -12 -31 -35 -103 0
-14 -37 -39 -73 -75 0
-2 -6 -77 -97 -99 0
-10 -12 -31 -35 -104 0
-14 -37 -39 -73 -75 0
-2 -6 -77 -97 -99 0
-10 -12 -31 -35 -104 0
-14 -38 -39 -73 -76 0
-2 -6 -77 -98 -99 0
-10 -13 -31 -35 -105 0
-14 -38 -39 -73 -76 0
-2 -6 -77 -98 -99 0
-10 -13 -31 -35 -105 0
-13 -37 -38 -74 -75 0
-2 -6 -76 -100 -101 0
-11 -12 -31 -36 -103 0
-13 -37 -38 -74 -75 0
-2 -6 -76 -100 -101 0
-11 -12 -31 -36 -103 0
-14 -37 -39 -74 -75 0
-2 -6 -77 -100 -102 0
-11 -12 -31 -36 -104 0
-14 -37 -39 -74 -75 0
-2 -6 -77 -100 -102 0
-11 -12 -31 -36 -104 0
-14 -38 -39 -74 -76 0
-2 -6 -77 -101 -102 0
-11 -13 -31 -36 -105 0
-14 -38 -39 -74 -76 0
-2 -6 -77 -101 -102 0
-11 -13 -31 -36 -105 0
-14 -38 -39 -75 -76 0
-2 -6 -77 -103 -104 0
-12 -13 -31 -37 -105 0
-14 -38 -39 -75 -76 0
-2 -6 -77 -103 -104 0
-12 -13 -31 -37 -105 0
-10 -34 -35 -78 -79 0
-2 -7 -80 -85 -86 0
-8 -9 -32 -33 -91 0
-10 -34 -35 -78 -79 0
-2 -7 -80 -85 -86 0
-8 -9 -32 -33 -91 0
-11 -34 -36 -78 -79 0
-2 -7 -81 -85 -87 0
-8 -9 -32 -33 -92 0
-11 -34 -36 -78 -79 0
-2 -7 -81 -85 -87 0
-8 -9 -32 -33 -92 0
-12 -34 -37 -78 -79 0
-2 -7 -82 -85 -88 0
-8 -9 -32 -33 -93 0
-12 -34 -37 -78 -79 0
-2 -7 -82 -85 -88 0
-8 -9 -32 -33 -93 0
-13 -34 -38 -78 -79 0
-2 -7 -83 -85 -89 0
-8 -9 -32 -33 -94 0
-13 -34 -38 -78 -79 0
-2 -7 -83 -85 -89 0
-8 -9 -32 -33 -94 0
-14 -34 -39 -78 -79 0
-2 -7 -84 -85 -90 0
-8 -9 -32 -33 -95 0
-14 -34 -39 -78 -79 0
-2 -7 -84 -85 -90 0
-8 -9 -32 -33 -95 0
-11 -35 -36 -78 -80 0
-2 -7 -81 -86 -87 0
-8 -10 -32 -33 -96 0
-11 -35 -36 -78 -80 0
-2 -7 -81 -86 -87 0
-8 -10 -32 -33 -96 0
-12 -35 -37 -78 -80 0
-2 -7 -82 -86 -88 0
-8 -10 -32 -33 -97 0
-12 -35 -37 -78 -80 0
-2 -7 -82 -86 -88 0
-8 -10 -32 -33 -97 0
-13 -35 -38 -78 -80 0
-2 -7 -83 -86 -89 0
-8 -10 -32 -33 -98 0
-13 -35 -38 -78 -80 0
-2 -7 -83 -86 -89 0
-8 -10 -32 -33 -98 0
-14 -35 -39 -78 -80 0
-2 -7 -84 -86 -90 0
-8 -10 -32 -33 -99 0
-14 -35 -39 -78 -80 0
-2 -7 -84 -86 -90 0
-8 -10 -32 -33 -99 0
-12 -36 -37 -78 -81 0
-2 -7 -82 -87 -88 0
-8 -11 -32 -33 -100 0
-12 -36 -37 -78 -81 0
-2 -7 -82 -87 -88 0
-8 -11 -32 -33 -100 0
-13 -36 -38 -78 -81 0
-2 -7 -83 -87 -89 0
-8 -11 -32 -33 -101 0
-13 -36 -38 -78 -81 0
-2 -7 -83 -87 -89 0
-8 -11 -32 -33 -101 0
-14 -36 -39 -78 -81 0
-2 -7 -84 -87 -90 0
-8 -11 -32 -33 -102 0
-14 -36 -39 -78 -81 0
-2 -7 -84 -87 -90 0
-8 -11 -32 -33 -102 0
-13 -37 -38 -78 -82 0
-2 -7 -83 -88 -89 0
-8 -12 -32 -33 -103 0
-13 -37 -38 -78 -82 0
-2 -7 -83 -88 -89 0
-8 -12 -32 -33 -103 0
-14 -37 -39 -78 -82 0
-2 -7 -84 -88 -90 0
-8 -12 -32 -33 -104 0
-14 -37 -39 -78 -82 0
-2 -7 -84 -88 -90 0
-8 -12 -32 -33 -104 0
-14 -38 -39 -78 -83 0
-2 -7 -84 -89 -90 0
-8 -13 -32 -33 -105 0
-14 -38 -39 -78 -83 0
-2 -7 -84 -89 -90 0
-8 -13 -32 -33 -105 0
-11 -35 -36 -79 -80 0
-2 -7 -81 -91 -92 0
-9 -10 -32 -34 -96 0
-11 -35 -36 -79 -80 0
-2 -7 -81 -91 -92 0
-9 -10 -32 -34 -96 0
-12 -35 -37 -79 -80 0
-2 -7 -82 -91 -93 0
-9 -10 -32 -34 -97 0
-12 -35 -37 -79 -80 0
-2 -7 -82 -91 -93 0
-9 -10 -32 -34 -97 0
-13 -35 -38 -79 -80 0
-2 -7 -83 -91 -94 0
-9 -10 -32 -34 -98 0
-13 -35 -38 -79 -80 0
-2 -7 -83 -91 -94 0
-9 -10 -32 -34 -98 0
-14 -35 -39 -79 -80 0
-2 -7 -84 -91 -95 0
-9 -10 -32 -34 -99 0
-14 -35 -39 -79 -80 0
-2 -7 -84 -91 -95 0
-9 -10 -32 -34 -99 0
-12 -36 -37 -79 -81 0
-2 -7 -82 -92 -93 0
-9 -11 -32 -34 -100 0
-12 -36 -37 -79 -81 0
-2 -7 -82 -92 -93 0
-9 -11 -32 -34 -100 0
-13 -36 -38 -79 -81 0
-2 -7 -83 -92 -94 0
-9 -11 -32 -34 -101 0
-13 -36 -38 -79 -81 0
-2 -7 -83 -92 -94 0
-9 -11 -32 -34 -101 0
-14 -36 -39 -79 -81 0
-2 -7 -84 -92 -95 0
-9 -11 -32 -34 -102 0
-14 -36 -39 -79 -81 0
-2 -7 -84 -92 -95 0
-9 -11 -32 -34 -102 0
-13 -37 -38 -79 -82 0
-2 -7 -83 -93 -94 0
-9 -12 -32 -34 -103 0
-13 -37 -38 -79 -82 0
-2 -7 -83 -93 -94 0
-9 -12 -32 -34 -103 0
-14 -37 -39 -79 -82 0
-2 -7 -84 -93 -95 0
-9 -12 -32 -34 -104 0
-14 -37 -39 -79 -82 0
-2 -7 -84 -93 -95 0
-9 -12 -32 -34 -104 0
-14 -38 -39 -79 -83 0
-2 -7 -84 -94 -95 0
-9 -13 -32 -34 -105 0
-14 -38 -39 -79 -83 0
-2 -7 -84 -94 -95 0
-9 -13 -32 -34 -105 0
-12 -36 -37 -80 -81 0
-2 -7 -82 -96 -97 0
-10 -11 -32 -35 -100 0
-12 -36 -37 -80 -81 0
-2 -7 -82 -96 -97 0
-10 -11 -32 -35 -100 0
-13 -36 -38 -80 -81 0
-2 -7 -83 -96 -98 0
-10 -11 -32 -35 -101 0
-13 -36 -38 -80 -81 0
-2 -7 -83 -96 -98 0
-10 -11 -32 -35 -101 0
-14 -36 -39 -80 -81 0
-2 -7 -84 -96 -99 0
-10 -11 -32 -35 -102 0
-14 -36 -39 -80 -81 0
-2 -7 -84 -96 -99 0
-10 -11 -32 -35 -102 0
-13 -37 -38 -80 -82 0
-2 -7 -83 -97 -98 0
-10 -12 -32 -35 -103 0
-13 -37 -38 -80 -82 0
-2 -7 -83 -97 -98 0
-10 -12 -32 -35 -103 0
-14 -37 -39 -80 -82 0
-2 -7 -84 -97 -99 0
-10 -12 -32 -35 -104 0
-14 -37 -39 -80 -82 0
-2 -7 -84 -97 -99 0
-10 -12 -32 -35 -104 0
-14 -38 -39 -80 -83 0
-2 -7 -84 -98 -99 0
-10 -13 -32 -35 -105 0
-14 -38 -39 -80 -83 0
-2 -7 -84 -98 -99 0
-10 -13 -32 -35 -105 0
-13 -37 -38 -81 -82 0
-2 -7 -83 -100 -101 0
-11 -12 -32 -36 -103 0
-13 -37 -38 -81 -82 0
-2 -7 -83 -100 -101 0
-11 -12 -32 -36 -103 0
-14 -37 -39 -81 -82 0
-2 -7 -84 -100 -102 0
-11 -12 -32 -36 -104 0
-14 -37 -39 -81 -82 0
-2 -7 -84 -100 -102 0
-11 -12 -32 -36 -104 0
-14 -38 -39 -81 -83 0
-2 -7 -84 -101 -102 0
-11 -13 -32 -36 -105 0
-14 -38 -39 -81 -83 0
-2 -7 -84 -101 -102 0
-11 -13 -32 -36 -105 0
-14 -38 -39 -82 -83 0
-2 -7 -84 -103 -104 0
-12 -13 -32 -37 -105 0
-14 -38 -39 -82 -83 0
-2 -7 -84 -103 -104 0
-12 -13 -32 -37 -105 0
-11 -35 -36 -85 -86 0
-2 -8 -87 -91 -92 0
-9 -10 -33 -34 -96 0
-11 -35 -36 -85 -86 0
-2 -8 -87 -91 -92 0
-9 -10 -33 -34 -96 0
-12 -35 -37 -85 -86 0
-2 -8 -88 -91 -93 0
-9 -10 -33 -34 -97 0
-12 -35 -37 -85 -86 0
-2 -8 -88 -91 -93 0
-9 -10 -33 -34 -97 0
-13 -35 -38 -85 -86 0
-2 -8 -89 -91 -94 0
-9 -10 -33 -34 -98 0
-13 -35 -38 -85 -86 0
-2 -8 -89 -91 -94 0
-9 -10 -33 -34 -98 0
-14 -35 -39 -85 -86 0
-2 -8 -90 -91 -95 0
-9 -10 -33 -34 -99 0
-14 -35 -39 -85 -86 0
-2 -8 -90 -91 -95 0
-9 -10 -33 -34 -99 0
-12 -36 -37 -85 -87 0
-2 -8 -88 -92 -93 0
-9 -11 -33 -34 -100 0
-12 -36 -37 -85 -87 0
-2 -8 -88 -92 -93 0
-9 -11 -33 -34 -100 0
-13 -36 -38 -85 -87 0
-2 -8 -89 -92 -94 0
-9 -11 -33 -34 -101 0
-13 -36 -38 -85 -87 0
-2 -8 -89 -92 -94 0
-9 -11 -33 -34 -101 0
-14 -36 -39 -85 -87 0
-2 -8 -90 -92 -95 0
-9 -11 -33 -34 -102 0
-14 -36 -39 -85 -87 0
-2 -8 -90 -92 -95 0
-9 -11 -33 -34 -102 0
-13 -37 -38 -85 -88 0
-2 -8 -89 -93 -94 0
-9 -12 -33 -34 -103 0
-13 -37 -38 -85 -88 0
-2 -8 -89 -93 -94 0
-9 -12 -33 -34 -103 0
-14 -37 -39 -85 -88 0
-2 -8 -90 -93 -95 0
-9 -12 -33 -34 -104 0
-14 -37 -39 -85 -88 0
-2 -8 -90 -93 -95 0
-9 -12 -33 -34 -104 0
-14 -38 -39 -85 -89 0
-2 -8 -90 -94 -95 0
-9 -13 -33 -34 -105 0
-14 -38 -39 -85 -89 0
-2 -8 -90 -94 -95 0
-9 -13 -33 -34 -105 0
-12 -36 -37 -86 -87 0
-2 -8 -88 -96 -97 0
-10 -11 -33 -35 -100 0
-12 -36 -37 -86 -87 0
-2 -8 -88 -96 -97 0
-10 -11 -33 -35 -100 0
-13 -36 -38 -86 -87 0
-2 -8 -89 -96 -98 0
-10 -11 -33 -35 -101 0
-13 -36 -38 -86 -87 0
-2 -8 -89 -96 -98 0
-10 -11 -33 -35 -101 0
-14 -36 -39 -86 -87 0
-2 -8 -90 -96 -99 0
-10 -11 -33 -35 -102 0
-14 -36 -39 -86 -87 0
-2 -8 -90 -96 -99 0
-10 -11 -33 -35 -102 0
-13 -37 -38 -86 -88 0
-2 -8 -89 -97 -98 0
-10 -12 -33 -35 -103 0
-13 -37 -38 -86 -88 0
-2 -8 -89 -97 -98 0
-10 -12 -33 -35 -103 0
-14 -37 -39 -86 -88 0
-2 -8 -90 -97 -99 0
-10 -12 -33 -35 -104 0
-14 -37 -39 -86 -88 0
-2 -8 -90 -97 -99 0
-10 -12 -33 -35 -104 0
-14 -38 -39 -86 -89 0
-2 -8 -90 -98 -99 0
-10 -13 -33 -35 -105 0
-14 -38 -39 -86 -89 0
-2 -8 -90 -98 -99 0
-10 -13 -33 -35 -105 0
-13 -37 -38 -87 -88 0
-2 -8 -89 -100 -101 0
-11 -12 -33 -36 -103 0
-13 -37 -38 -87 -88 0
-2 -8 -89 -100 -101 0
-11 -12 -33 -36 -103 0
-14 -37 -39 -87 -88 0
-2 -8 -90 -100 -102 0
-11 -12 -33 -36 -104 0
-14 -37 -39 -87 -88 0
-2 -8 -90 -100 -102 0
-11 -12 -33 -36 -104 0
-14 -38 -39 -87 -89 0
-2 -8 -90 -101 -102 0
-11 -13 -33 -36 -105 0
-14 -38 -39 -87 -89 0
-2 -8 -90 -101 -102 0
-11 -13 -33 -36 -105 0
-14 -38 -39 -88 -89 0
-2 -8 -90 -103 -104 0
-12 -13 -33 -37 -105 0
-14 -38 -39 -88 -89 0
-2 -8 -90 -103 -104 0
-12 -13 -33 -37 -105 0
-12 -36 -37 -91 -92 0
-2 -9 -93 -96 -97 0
-10 -11 -34 -35 -100 0
-12 -36 -37 -91 -92 0
-2 -9 -93 -96 -97 0
-10 -11 -34 -35 -100 0
-13 -36 -38 -91 -92 0
-2 -9 -94 -96 -98 0
-10 -11 -34 -35 -101 0
-13 -36 -38 -91 -92 0
-2 -9 -94 -96 -98 0
-10 -11 -34 -35 -101 0
-14 -36 -39 -91 -92 0
-2 -9 -95 -96 -99 0
-10 -11 -34 -35 -102 0
-14 -36 -39 -91 -92 0
-2 -9 -95 -96 -99 0
-10 -11 -34 -35 -102 0
-13 -37 -38 -91 -93 0
-2 -9 -94 -97 -98 0
-10 -12 -34 -35 -103 0
-13 -37 -38 -91 -93 0
-2 -9 -94 -97 -98 0
-10 -12 -34 -35 -103 0
-14 -37 -39 -91 -93 0
-2 -9 -95 -97 -99 0
-10 -12 -34 -35 -104 0
-14 -37 -39 -91 -93 0
-2 -9 -95 -97 -99 0
-10 -12 -34 -35 -104 0
-14 -38 -39 -91 -94 0
-2 -9 -95 -98 -99 0
-10 -13 -34 -35 -105 0
-14 -38 -39 -91 -94 0
-2 -9 -95 -98 -99 0
-10 -13 -34 -35 -105 0
-13 -37 -38 -92 -93 0
-2 -9 -94 -100 -101 0
-11 -12 -34 -36 -103 0
-13 -37 -38 -92 -93 0
-2 -9 -94 -100 -101 0
-11 -12 -34 -36 -103 0
-14 -37 -39 -92 -93 0
-2 -9 -95 -100 -102 0
-11 -12 -34 -36 -104 0
-14 -37 -39 -92 -93 0
-2 -9 -95 -100 -102 0
-11 -12 -34 -36 -104 0
-14 -38 -39 -92 -94 0
-2 -9 -95 -101 -102 0
-11 -13 -34 -36 -105 0
-14 -38 -39 -92 -94 0
-2 -9 -95 -101 -102 0
-11 -13 -34 -36 -105 0
-14 -38 -39 -93 -94 0
-2 -9 -95 -103 -104 0
-12 -13 -34 -37 -105 0
-14 -38 -39 -93 -94 0
-2 -9 -95 -103 -104 0
-12 -13 -34 -37 -105 0
-13 -37 -38 -96 -97 0
-2 -10 -98 -100 -101 0
-11 -12 -35 -36 -103 0
-13 -37 -38 -96 -97 0
-2 -10 -98 -100 -101 0
-11 -12 -35 -36 -103 0
-14 -37 -39 -96 -97 0
-2 -10 -99 -100 -102 0
-11 -12 -35 -36 -104 0
-14 -37 -39 -96 -97 0
-2 -10 -99 -100 -102 0
-11 -12 -35 -36 -104 0
-14 -38 -39 -96 -98 0
-2 -10 -99 -101 -102 0
-11 -13 -35 -36 -105 0
-14 -38 -39 -96 -98 0
-2 -10 -99 -101 -102 0
-11 -13 -35 -36 -105 0
-14 -38 -39 -97 -98 0
-2 -10 -99 -103 -104 0
-12 -13 -35 -37 -105 0
-14 -38 -39 -97 -98 0
-2 -10 -99 -103 -104 0
-12 -13 -35 -37 -105 0
-14 -38 -39 -100 -101 0
-2 -11 -102 -103 -104 0
-12 -13 -36 -37 -105 0
-14 -38 -39 -100 -101 0
-2 -11 -102 -103 -104 0
-12 -13 -36 -37 -105 0
-7 -42 -43 -51 -52 0
-3 -4 -53 -61 -62 0
-5 -6 -40 -41 -70 0
-7 -42 -43 -51 -52 0
-3 -4 -53 -61 -62 0
-5 -6 -40 -41 -70 0
-8 -42 -44 -51 -52 0
-3 -4 -54 -61 -63 0
-5 -6 -40 -41 -71 0
-8 -42 -44 -51 -52 0
-3 -4 -54 -61 -63 0
-5 -6 -40 -41 -71 0
-9 -42 -45 -51 -52 0
-3 -4 -55 -61 -64 0
-5 -6 -40 -41 -72 0
-9 -42 -45 -51 -52 0
-3 -4 -55 -61 -64 0
-5 -6 -40 -41 -72 0
-10 -42 -46 -51 -52 0
-3 -4 -56 -61 -65 0
-5 -6 -40 -41 -73 0
-10 -42 -46 -51 -52 0
-3 -4 -56 -61 -65 0
-5 -6 -40 -41 -73 0
-11 -42 -47 -51 -52 0
-3 -4 -57 -61 -66 0
-5 -6 -40 -41 -74 0
-11 -42 -47 -51 -52 0
-3 -4 -57 -61 -66 0
-5 -6 -40 -41 -74 0
-12 -42 -48 -51 -52 0
-3 -4 -58 -61 -67 0
-5 -6 -40 -41 -75 0
-12 -42 -48 -51 -52 0
-3 -4 -58 -61 -67 0
-5 -6 -40 -41 -75 0
-13 -42 -49 -51 -52 0
-3 -4 -59 -61 -68 0
-5 -6 -40 -41 -76 0
-13 -42 -49 -51 -52 0
-3 -4 -59 -61 -68 0
-5 -6 -40 -41 -76 0
-14 -42 -50 -51 -52 0
-3 -4 -60 -61 -69 0
-5 -6 -40 -41 -77 0
-14 -42 -50 -51 -52 0
-3 -4 -60 -61 -69 0
-5 -6 -40 -41 -77 0
-8 -43 -44 -51 -53 0
-3 -4 -54 -62 -63 0
-5 -7 -40 -41 -78 0
-8 -43 -44 -51 -53 0
-3 -4 -54 -62 -63 0
-5 -7 -40 -41 -78 0
-9 -43 -45 -51 -53 0
-3 -4 -55 -62 -64 0
-5 -7 -40 -41 -79 0
-9 -43 -45 -51 -53 0
-3 -4 -55 -62 -64 0
-5 -7 -40 -41 -79 0
-10 -43 -46 -51 -53 0
-3 -4 -56 -62 -65 0
-5 -7 -40 -41 -80 0
-10 -43 -46 -51 -53 0
-3 -4 -56 -62 -65 0
-5 -7 -40 -41 -80 0
-11 -43 -47 -51 -53 0
-3 -4 -57 -62 -66 0
-5 -7 -40 -41 -81 0
-11 -43 -47 -51 -53 0
-3 -4 -57 -62 -66 0
-5 -7 -40 -41 -81 0
-12 -43 -48 -51 -53 0
-3 -4 -58 -62 -67 0
-5 -7 -40 -41 -82 0
-12 -43 -48 -51 -53 0
-3 -4 -58 -62 -67 0
-5 -7 -40 -41 -82 0
-13 -43 -49 -51 -53 0
-3 -4 -59 -62 -68 0
-5 -7 -40 -41 -83 0
-13 -43 -49 -51 -53 0
-3 -4 -59 -62 -68 0
-5 -7 -40 -41 -83 0
-14 -43 -50 -51 -53 0
-3 -4 -60 -62 -69 0
-5 -7 -40 -41 -84 0
-14 -43 -50 -51 -53 0
-3 -4 -60 -62 -69 0
-5 -7 -40 -41 -84 0
-9 -44 -45 -51 -54 0
-3 -4 -55 -63 -64 0
-5 -8 -40 -41 -85 0
-9 -44 -45 -51 -54 0
-3 -4 -55 -63 -64 0
-5 -8 -40 -41 -85 0
-10 -44 -46 -51 -54 0
-3 -4 -56 -63 -65 0
-5 -8 -40 -41 -86 0
-10 -44 -46 -51 -54 0
-3 -4 -56 -63 -65 0
-5 -8 -40 -41 -86 0
-11 -44 -47 -51 -54 0
-3 -4 -57 -63 -66 0
-5 -8 -40 -41 -87 0
-11 -44 -47 -51 -54 0
-3 -4 -57 -63 -66 0
-5 -8 -40 -41 -87 0
-12 -44 -48 -51 -54 0
-3 -4 -58 -63 -67 0
-5 -8 -40 -41 -88 0
-12 -44 -48 -51 -54 0
-3 -4 -58 -63 -67 0
-5 -8 -40 -41 -88 0
-13 -44 -49 -51 -54 0
-3 -4 -59 -63 -68 0
-5 -8 -40 -41 -89 0
-13 -44 -49 -51 -54 0
-3 -4 -59 -63 -68 0
-5 -8 -40 -41 -89 0
-14 -44 -50 -51 -54 0
-3 -4 -60 -63 -69 0
-5 -8 -40 -41 -90 0
-14 -44 -50 -51 -54 0
-3 -4 -60 -63 -69 0
-5 -8 -40 -41 -90 0
-10 -45 -46 -51 -55 0
-3 -4 -56 -64 -65 0
-5 -9 -40 -41 -91 0
-10 -45 -46 -51 -55 0
-3 -4 -56 -64 -65 0
-5 -9 -40 -41 -91 0
-11 -45 -47 -51 -55 0
-3 -4 -57 -64 -66 0
-5 -9 -40 -41 -92 0
-11 -45 -47 -51 -55 0
-3 -4 -57 -64 -66 0
-5 -9 -40 -41 -92 0
-12 -45 -48 -51 -55 0
-3 -4 -58 -64 -67 0
-5 -9 -40 -41 -93 0
-12 -45 -48 -51 -55 0
-3 -4 -58 -64 -67 0
-5 -9 -40 -41 -93 0
-13 -45 -49 -51 -55 0
-3 -4 -59 -64 -68 0
-5 -9 -40 -41 -94 0
-13 -45 -49 -51 -55 0
-3 -4 -59 -64 -68 0
-5 -9 -40 -41 -94 0
-14 -45 -50 -51 -55 0
-3 -4 -60 -64 -69 0
-5 -9 -40 -41 -95 0
-14 -45 -50 -51 -55 0
-3 -4 -60 -64 -69 0
-5 -9 -40 -41 -95 0
-11 -46 -47 -51 -56 0
-3 -4 -57 -65 -66 0
-5 -10 -40 -41 -96 0
-11 -46 -47 -51 -56 0
-3 -4 -57 -65 -66 0
-5 -10 -40 -41 -96 0
-12 -46 -48 -51 -56 0
-3 -4 -58 -65 -67 0
-5 -10 -40 -41 -97 0
-12 -46 -48 -51 -56 0
-3 -4 -58 -65 -67 0
-5 -10 -40 -41 -97 0
-13 -46 -49 -51 -56 0
-3 -4 -59 -65 -68 0
-5 -10 -40 -41 -98 0
-13 -46 -49 -51 -56 0
-3 -4 -59 -65 -68 0
-5 -10 -40 -41 -98 0
-14 -46 -50 -51 -56 0
-3 -4 -60 -65 -69 0
-5 -10 -40 -41 -99 0
-14 -46 -50 -51 -56 0
-3 -4 -60 -65 -69 0
-5 -10 -40 -41 -99 0
-12 -47 -48 -51 -57 0
-3 -4 -58 -66 -67 0
-5 -11 -40 -41 -100 0
-12 -47 -48 -51 -57 0
-3 -4 -58 -66 -67 0
-5 -11 -40 -41 -100 0
-13 -47 -49 -51 -57 0
-3 -4 -59 -66 -68 0
-5 -11 -40 -41 -101 0
-13 -47 -49 -51 -57 0
-3 -4 -59 -66 -68 0
-5 -11 -40 -41 -101 0
-14 -47 -50 -51 -57 0
-3 -4 -60 -66 -69 0
-5 -11 -40 -41 -102 0
-14 -47 -50 -51 -57 0
-3 -4 -60 -66 -69 0
-5 -11 -40 -41 -102 0
-13 -48 -49 -51 -58 0
-3 -4 -59 -67 -68 0
-5 -12 -40 -41 -103 0
-13 -48 -49 -51 -58 0
-3 -4 -59 -67 -68 0
-5 -12 -40 -41 -103 0
-14 -48 -50 -51 -58 0
-3 -4 -60 -67 -69 0
-5 -12 -40 -41 -104 0
-14 -48 -50 -51 -58 0
-3 -4 -60 -67 -69 0
-5 -12 -40 -41 -104 0
-14 -49 -50 -51 -59 0
-3 -4 -60 -68 -69 0
-5 -13 -40 -41 -105 0
-14 -49 -50 -51 -59 0
-3 -4 -60 -68 -69 0
-5 -13 -40 -41 -105 0
-8 -43 -44 -52 -53 0
-3 -4 -54 -70 -71 0
-6 -7 -40 -42 -78 0
-8 -43 -44 -52 -53 0
-3 -4 -54 -70 -71 0
-6 -7 -40 -42 -78 0
-9 -43 -45 -52 -53 0
-3 -4 -55 -70 -72 0
-6 -7 -40 -42 -79 0
-9 -43 -45 -52 -53 0
-3 -4 -55 -70 -72 0
-6 -7 -40 -42 -79 0
-10 -43 -46 -52 -53 0
-3 -4 -56 -70 -73 0
-6 -7 -40 -42 -80 0
-10 -43 -46 -52 -53 0
-3 -4 -56 -70 -73 0
-6 -7 -40 -42 -80 0
-11 -43 -47 -52 -53 0
-3 -4 -57 -70 -74 0
-6 -7 -40 -42 -81 0
-11 -43 -47 -52 -53 0
-3 -4 -57 -70 -74 0
-6 -7 -40 -42 -81 0
-12 -43 -48 -52 -53 0
-3 -4 -58 -70 -75 0
-6 -7 -40 -42 -82 0
-12 -43 -48 -52 -53 0
-3 -4 -58 -70 -75 0
-6 -7 -40 -42 -82 0
-13 -43 -49 -52 -53 0
-3 -4 -59 -70 -76 0
-6 -7 -40 -42 -83 0
-13 -43 -49 -52 -53 0
-3 -4 -59 -70 -76 0
-6 -7 -40 -42 -83 0
-14 -43 -50 -52 -53 0
-3 -4 -60 -70 -77 0
-6 -7 -40 -42 -84 0
-14 -43 -50 -52 -53 0
-3 -4 -60 -70 -77 0
-6 -7 -40 -42 -84 0
-9 -44 -45 -52 -54 0
-3 -4 -55 -71 -72 0
-6 -8 -40 -42 -85 0
-9 -44 -45 -52 -54 0
-3 -4 -55 -71 -72 0
-6 -8 -40 -42 -85 0
-10 -44 -46 -52 -54 0
-3 -4 -56 -71 -73 0
-6 -8 -40 -42 -86 0
-10 -44 -46 -52 -54 0
-3 -4 -56 -71 -73 0
-6 -8 -40 -42 -86 0
-11 -44 -47 -52 -54 0
-3 -4 -57 -71 -74 0
-6 -8 -40 -42 -87 0
-11 -44 -47 -52 -54 0
-3 -4 -57 -71 -74 0
-6 -8 -40 -42 -87 0
-12 -44 -48 -52 -54 0
-3 -4 -58 -71 -75 0
-6 -8 -40 -42 -88 0
-12 -44 -48 -52 -54 0
-3 -4 -58 -71 -75 0
-6 -8 -40 -42 -88 0
-13 -44 -49 -52 -54 0
-3 -4 -59 -71 -76 0
-6 -8 -40 -42 -89 0
-13 -44 -49 -52 -54 0
-3 -4 -59 -71 -76 0
-6 -8 -40 -42 -89 0
-14 -44 -50 -52 -54 0
-3 -4 -60 -71 -77 0
-6 -8 -40 -42 -90 0
-14 -44 -50 -52 -54 0
-3 -4 -60 -71 -77 0
-6 -8 -40 -42 -90 0
-10 -45 -46 -52 -55 0
-3 -4 -56 -72 -73 0
-6 -9 -40 -42 -91 0
-10 -45 -46 -52 -55 0
-3 -4 -56 -72 -73 0
-6 -9 -40 -42 -91 0
-11 -45 -47 -52 -55 0
-3 -4 -57 -72 -74 0
-6 -9 -40 -42 -92 0
-11 -45 -47 -52 -55 0
-3 -4 -57 -72 -74 0
-6 -9 -40 -42 -92 0
-12 -45 -48 -52 -55 0
-3 -4 -58 -72 -75 0
-6 -9 -40 -42 -93 0
-12 -45 -48 -52 -55 0
-3 -4 -58 -72 -75 0
-6 -9 -40 -42 -93 0
-13 -45 -49 -52 -55 0
-3 -4 -59 -72 -76 0
-6 -9 -40 -42 -94 0
-13 -45 -49 -52 -55 0
-3 -4 -59 -72 -76 0
-6 -9 -40 -42 -94 0
-14 -45 -50 -52 -55 0
-3 -4 -60 -72 -77 0
-6 -9 -40 -42 -95 0
-14 -45 -50 -52 -55 0
-3 -4 -60 -72 -77 0
-6 -9 -40 -42 -95 0
-11 -46 -47 -52 -56 0
-3 -4 -57 -73 -74 0
-6 -10 -40 -42 -96 0
-11 -46 -47 -52 -56 0
-3 -4 -57 -73 -74 0
-6 -10 -40 -42 -96 0
-12 -46 -48 -52 -56 0
-3 -4 -58 -73 -75 0
-6 -10 -40 -42 -97 0
-12 -46 -48 -52 -56 0
-3 -4 -58 -73 -75 0
-6 -10 -40 -42 -97 0
-13 -46 -49 -52 -56 0
-3 -4 -59 -73 -76 0
-6 -10 -40 -42 -98 0
-13 -46 -49 -52 -56 0
-3 -4 -59 -73 -76 0
-6 -10 -40 -42 -98 0
-14 -46 -50 -52 -56 0
-3 -4 -60 -73 -77 0
-6 -10 -40 -42 -99 0
-14 -46 -50 -52 -56 0
-3 -4 -60 -73 -77 0
-6 -10 -40 -42 -99 0
-12 -47 -48 -52 -57 0
-3 -4 -58 -74 -75 0
-6 -11 -40 -42 -100 0
-12 -47 -48 -52 -57 0
-3 -4 -58 -74 -75 0
-6 -11 -40 -42 -100 0
-13 -47 -49 -52 -57 0
-3 -4 -59 -74 -76 0
-6 -11 -40 -42 -101 0
-13 -47 -49 -52 -57 0
-3 -4 -59 -74 -76 0
-6 -11 -40 -42 -101 0
-14 -47 -50 -52 -57 0
-3 -4 -60 -74 -77 0
-6 -11 -40 -42 -102 0
-14 -47 -50 -52 -57 0
-3 -4 -60 -74 -77 0
-6 -11 -40 -42 -102 0
-13 -48 -49 -52 -58 0
-3 -4 -59 -75 -76 0
-6 -12 -40 -42 -103 0
-13 -48 -49 -52 -58 0
-3 -4 -59 -75 -76 0
-6 -12 -40 -42 -103 0
-14 -48 -50 -52 -58 0
-3 -4 -60 -75 -77 0
-6 -12 -40 -42 -104 0
-14 -48 -50 -52 -58 0
-3 -4 -60 -75 -77 0
-6 -12 -40 -42 -104 0
-14 -49 -50 -52 -59 0
-3 -4 -60 -76 -77 0
-6 -13 -40 -42 -105 0
-14 -49 -50 -52 -59 0
-3 -4 -60 -76 -77 0
-6 -13 -40 -42 -105 0
-9 -44 -45 -53 -54 0
-3 -4 -55 -78 -79 0
-7 -8 -40 -43 -85 0
-9 -44 -45 -53 -54 0
-3 -4 -55 -78 -79 0
-7 -8 -40 -43 -85 0
-10 -44 -46 -53 -54 0
-3 -4 -56 -78 -80 0
-7 -8 -40 -43 -86 0
-10 -44 -46 -53 -54 0
-3 -4 -56 -78 -80 0
-7 -8 -40 -43 -86 0
-11 -44 -47 -53 -54 0
-3 -4 -57 -78 -81 0
-7 -8 -40 -43 -87 0
-11 -44 -47 -53 -54 0
-3 -4 -57 -78 -81 0
-7 -8 -40 -43 -87 0
-12 -44 -48 -53 -54 0
-3 -4 -58 -78 -82 0
-7 -8 -40 -43 -88 0
-12 -44 -48 -53 -54 0
-3 -4 -58 -78 -82 0
-7 -8 -40 -43 -88 0
-13 -44 -49 -53 -54 0
-3 -4 -59 -78 -83 0
-7 -8 -40 -43 -89 0
-13 -44 -49 -53 -54 0
-3 -4 -59 -78 -83 0
-7 -8 -40 -43 -89 0
-14 -44 -50 -53 -54 0
-3 -4 -60 -78 -84 0
-7 -8 -40 -43 -90 0
-14 -44 -50 -53 -54 0
-3 -4 -60 -78 -84 0
-7 -8 -40 -43 -90 0
-10 -45 -46 -53 -55 0
-3 -4 -56 -79 -80 0
-7 -9 -40 -43 -91 0
-10 -45 -46 -53 -55 0
-3 -4 -56 -79 -80 0
-7 -9 -40 -43 -91 0
-11 -45 -47 -53 -55 0
-3 -4 -57 -79 -81 0
-7 -9 -40 -43 -92 0
-11 -45 -47 -53 -55 0
-3 -4 -57 -79 -81 0
-7 -9 -40 -43 -92 0
-12 -45 -48 -53 -55 0
-3 -4 -58 -79 -82 0
-7 -9 -40 -43 -93 0
-12 -45 -48 -53 -55 0
-3 -4 -58 -79 -82 0
-7 -9 -40 -43 -93 0
-13 -45 -49 -53 -55 0
-3 -4 -59 -79 -83 0
-7 -9 -40 -43 -94 0
-13 -45 -49 -53 -55 0
-3 -4 -59 -79 -83 0
-7 -9 -40 -43 -94 0
-14 -45 -50 -53 -55 0
-3 -4 -60 -79 -84 0
-7 -9 -40 -43 -95 0
-14 -45 -50 -53 -55 0
-3 -4 -60 -79 -84 0
-7 -9 -40 -43 -95 0
-11 -46 -47 -53 -56 0
-3 -4 -57 -80 -81 0
-7 -10 -40 -43 -96 0
-11 -46 -47 -53 -56 0
-3 -4 -57 -80 -81 0
-7 -10 -40 -43 -96 0
-12 -46 -48 -53 -56 0
-3 -4 -58 -80 -82 0
-7 -10 -40 -43 -97 0
-12 -46 -48 -53 -56 0
-3 -4 -58 -80 -82 0
-7 -10 -40 -43 -97 0
-13 -46 -49 -53 -56 0
-3 -4 -59 -80 -83 0
-7 -10 -40 -43 -98 0
-13 -46 -49 -53 -56 0
-3 -4 -59 -80 -83 0
-7 -10 -40 -43 -98 0
-14 -46 -50 -53 -56 0
-3 -4 -60 -80 -84 0
-7 -10 -40 -43 -99 0
-14 -46 -50 -53 -56 0
-3 -4 -60 -80 -84 0
-7 -10 -40 -43 -99 0
-12 -47 -48 -53 -57 0
-3 -4 -58 -81 -82 0
-7 -11 -40 -43 -100 0
-12 -47 -48 -53 -57 0
-3 -4 -58 -81 -82 0
-7 -11 -40 -43 -100 0
-13 -47 -49 -53 -57 0
-3 -4 -59 -81 -83 0
-7 -11 -40 -43 -101 0
-13 -47 -49 -53 -57 0
-3 -4 -59 -81 -83 0
-7 -11 -40 -43 -101 0
-14 -47 -50 -53 -57 0
-3 -4 -60 -81 -84 0
-7 -11 -40 -43 -102 0
-14 -47 -50 -53 -57 0
-3 -4 -60 -81 -84 0
-7 -11 -40 -43 -102 0
-13 -48 -49 -53 -58 0
-3 -4 -59 -82 -83 0
-7 -12 -40 -43 -103 0
-13 -48 -49 -53 -58 0
-3 -4 -59 -82 -83 0
-7 -12 -40 -43 -103 0
-14 -48 -50 -53 -58 0
-3 -4 -60 -82 -84 0
-7 -12 -40 -43 -104 0
-14 -48 -50 -53 -58 0
-3 -4 -60 -82 -84 0
-7 -12 -40 -43 -104 0
-14 -49 -50 -53 -59 0
-3 -4 -60 -83 -84 0
-7 -13 -40 -43 -105 0
-14 -49 -50 -53 -59 0
-3 -4 -60 -83 -84 0
-7 -13 -40 -43 -105 0
-10 -45 -46 -54 -55 0
-3 -4 -56 -85 -86 0
-8 -9 -40 -44 -91 0
-10 -45 -46 -54 -55 0
-3 -4 -56 -85 -86 0
-8 -9 -40 -44 -91 0
-11 -45 -47 -54 -55 0
-3 -4 -57 -85 -87 0
-8 -9 -40 -44 -92 0
-11 -45 -47 -54 -55 0
-3 -4 -57 -85 -87 0
-8 -9 -40 -44 -92 0
-12 -45 -48 -54 -55 0
-3 -4 -58 -85 -88 0
-8 -9 -40 -44 -93 0
-12 -45 -48 -54 -55 0
-3 -4 -58 -85 -88 0
-8 -9 -40 -44 -93 0
-13 -45 -49 -54 -55 0
-3 -4 -59 -85 -89 0
-8 -9 -40 -44 -94 0
-13 -45 -49 -54 -55 0
-3 -4 -59 -85 -89 0
-8 -9 -40 -44 -94 0
-14 -45 -50 -54 -55 0
-3 -4 -60 -85 -90 0
-8 -9 -40 -44 -95 0
-14 -45 -50 -54 -55 0
-3 -4 -60 -85 -90 0
-8 -9 -40 -44 -95 0
-11 -46 -47 -54 -56 0
-3 -4 -57 -86 -87 0
-8 -10 -40 -44 -96 0
-11 -46 -47 -54 -56 0
-3 -4 -57 -86 -87 0
-8 -10 -40 -44 -96 0
-12 -46 -48 -54 -56 0
-3 -4 -58 -86 -88 0
-8 -10 -40 -44 -97 0
-12 -46 -48 -54 -56 0
-3 -4 -58 -86 -88 0
-8 -10 -40 -44 -97 0
-13 -46 -49 -54 -56 0
-3 -4 -59 -86 -89 0
-8 -10 -40 -44 -98 0
-13 -46 -49 -54 -56 0
-3 -4 -59 -86 -89 0
-8 -10 -40 -44 -98 0
-14 -46 -50 -54 -56 0
-3 -4 -60 -86 -90 0
-8 -10 -40 -44 -99 0
-14 -46 -50 -54 -56 0
-3 -4 -60 -86 -90 0
-8 -10 -40 -44 -99 0
-12 -47 -48 -54 -57 0
-3 -4 -58 -87 -88 0
-8 -11 -40 -44 -100 0
-12 -47 -48 -54 -57 0
-3 -4 -58 -87 -88 0
-8 -11 -40 -44 -100 0
-13 -47 -49 -54 -57 0
-3 -4 -59 -87 -89 0
-8 -11 -40 -44 -101 0
-13 -47 -49 -54 -57 0
-3 -4 -59 -87 -89 0
-8 -11 -40 -44 -101 0
-14 -47 -50 -54 -57 0
-3 -4 -60 -87 -90 0
-8 -11 -40 -44 -102 0
-14 -47 -50 -54 -57 0
-3 -4 -60 -87 -90 0
-8 -11 -40 -44 -102 0
-13 -48 -49 -54 -58 0
-3 -4 -59 -88 -89 0
-8 -12 -40 -44 -103 0
-13 -48 -49 -54 -58 0
-3 -4 -59 -88 -89 0
-8 -12 -40 -44 -103 0
-14 -48 -50 -54 -58 0
-3 -4 -60 -88 -90 0
-8 -12 -40 -44 -104 0
-14 -48 -50 -54 -58 0
-3 -4 -60 -88 -90 0
-8 -12 -40 -44 -104 0
-14 -49 -50 -54 -59 0
-3 -4 -60 -89 -90 0
-8 -13 -40 -44 -105 0
-14 -49 -50 -54 -59 0
-3 -4 -60 -89 -90 0
-8 -13 -40 -44 -105 0
-11 -46 -47 -55 -56 0
-3 -4 -57 -91 -92 0
-9 -10 -40 -45 -96 0
-11 -46 -47 -55 -56 0
-3 -4 -57 -91 -92 0
-9 -10 -40 -45 -96 0
-12 -46 -48 -55 -56 0
-3 -4 -58 -91 -93 0
-9 -10 -40 -45 -97 0
-12 -46 -48 -55 -56 0
-3 -4 -58 -91 -93 0
-9 -10 -40 -45 -97 0
-13 -46 -49 -55 -56 0
-3 -4 -59 -91 -94 0
-9 -10 -40 -45 -98 0
-13 -46 -49 -55 -56 0
-3 -4 -59 -91 -94 0
-9 -10 -40 -45 -98 0
-14 -46 -50 -55 -56 0
-3 -4 -60 -91 -95 0
-9 -10 -40 -45 -99 0
-14 -46 -50 -55 -56 0
-3 -4 -60 -91 -95 0
-9 -10 -40 -45 -99 0
-12 -47 -48 -55 -57 0
-3 -4 -58 -92 -93 0
-9 -11 -40 -45 -100 0
-12 -47 -48 -55 -57 0
-3 -4 -58 -92 -93 0
-9 -11 -40 -45 -100 0
-13 -47 -49 -55 -57 0
-3 -4 -59 -92 -94 0
-9 -11 -40 -45 -101 0
-13 -47 -49 -55 -57 0
-3 -4 -59 -92 -94 0
-9 -11 -40 -45 -101 0
-14 -47 -50 -55 -57 0
-3 -4 -60 -92 -95 0
-9 -11 -40 -45 -102 0
-14 -47 -50 -55 -57 0
-3 -4 -60 -92 -95 0
-9 -11 -40 -45 -102 0
-13 -48 -49 -55 -58 0
-3 -4 -59 -93 -94 0
-9 -12 -40 -45 -103 0
-13 -48 -49 -55 -58 0
-3 -4 -59 -93 -94 0
-9 -12 -40 -45 -103 0
-14 -48 -50 -55 -58 0
-3 -4 -60 -93 -95 0
-9 -12 -40 -45 -104 0
-14 -48 -50 -55 -58 0
-3 -4 -60 -93 -95 0
-9 -12 -40 -45 -104 0
-14 -49 -50 -55 -59 0
-3 -4 -60 -94 -95 0
-9 -13 -40 -45 -105 0
-14 -49 -50 -55 -59 0
-3 -4 -60 -94 -95 0
-9 -13 -40 -45 -105 0
-12 -47 -48 -56 -57 0
-3 -4 -58 -96 -97 0
-10 -11 -40 -46 -100 0
-12 -47 -48 -56 -57 0
-3 -4 -58 -96 -97 0
-10 -11 -40 -46 -100 0
-13 -47 -49 -56 -57 0
-3 -4 -59 -96 -98 0
-10 -11 -40 -46 -101 0
-13 -47 -49 -56 -57 0
-3 -4 -59 -96 -98 0
-10 -11 -40 -46 -101 0
-14 -47 -50 -56 -57 0
-3 -4 -60 -96 -99 0
-10 -11 -40 -46 -102 0
-14 -47 -50 -56 -57 0
-3 -4 -60 -96 -99 0
-10 -11 -40 -46 -102 0
-13 -48 -49 -56 -58 0
-3 -4 -59 -97 -98 0
-10 -12 -40 -46 -103 0
-13 -48 -49 -56 -58 0
-3 -4 -59 -97 -98 0
-10 -12 -40 -46 -103 0
-14 -48 -50 -56 -58 0
-3 -4 -60 -97 -99 0
-10 -12 -40 -46 -104 0
-14 -48 -50 -56 -58 0
-3 -4 -60 -97 -99 0
-10 -12 -40 -46 -104 0
-14 -49 -50 -56 -59 0
-3 -4 -60 -98 -99 0
-10 -13 -40 -46 -105 0
-14 -49 -50 -56 -59 0
-3 -4 -60 -98 -99 0
-10 -13 -40 -46 -105 0
-13 -48 -49 -57 -58 0
-3 -4 -59 -100 -101 0
-11 -12 -40 -47 -103 0
-13 -48 -49 -57 -58 0
-3 -4 -59 -100 -101 0
-11 -12 -40 -47 -103 0
-14 -48 -50 -57 -58 0
-3 -4 -60 -100 -102 0
-11 -12 -40 -47 -104 0
-14 -48 -50 -57 -58 0
-3 -4 -60 -100 -102 0
-11 -12 -40 -47 -104 0
-14 -49 -50 -57 -59 0
-3 -4 -60 -101 -102 0
-11 -13 -40 -47 -105 0
-14 -49 -50 -57 -59 0
-3 -4 -60 -101 -102 0
-11 -13 -40 -47 -105 0
-14 -49 -50 -58 -59 0
-3 -4 -60 -103 -104 0
-12 -13 -40 -48 -105 0
-14 -49 -50 -58 -59 0
-3 -4 -60 -103 -104 0
-12 -13 -40 -48 -105 0
-8 -43 -44 -61 -62 0
-3 -5 -63 -70 -71 0
-6 -7 -41 -42 -78 0
-8 -43 -44 -61 -62 0
-3 -5 -63 -70 -71 0
-6 -7 -41 -42 -78 0
-9 -43 -45 -61 -62 0
-3 -5 -64 -70 -72 0
-6 -7 -41 -42 -79 0
-9 -43 -45 -61 -62 0
-3 -5 -64 -70 -72 0
-6 -7 -41 -42 -79 0
-10 -43 -46 -61 -62 0
-3 -5 -65 -70 -73 0
-6 -7 -41 -42 -80 0
-10 -43 -46 -61 -62 0
-3 -5 -65 -70 -73 0
-6 -7 -41 -42 -80 0
-11 -43 -47 -61 -62 0
-3 -5 -66 -70 -74 0
-6 -7 -41 -42 -81 0
-11 -43 -47 -61 -62 0
-3 -5 -66 -70 -74 0
-6 -7 -41 -42 -81 0
-12 -43 -48 -61 -62 0
-3 -5 -67 -70 -75 0
-6 -7 -41 -42 -82 0
-12 -43 -48 -61 -62 0
-3 -5 -67 -70 -75 0
-6 -7 -41 -42 -82 0
-13 -43 -49 -61 -62 0
-3 -5 -68 -70 -76 0
-6 -7 -41 -42 -83 0
-13 -43 -49 -61 -62 0
-3 -5 -68 -70 -76 0
-6 -7 -41 -42 -83 0
-14 -43 -50 -61 -62 0
-3 -5 -69 -70 -77 0
-6 -7 -41 -42 -84 0
-14 -43 -50 -61 -62 0
-3 -5 -69 -70 -77 0
-6 -7 -41 -42 -84 0
-9 -44 -45 -61 -63 0
-3 -5 -64 -71 -72 0
-6 -8 -41 -42 -85 0
-9 -44 -45 -61 -63 0
-3 -5 -64 -71 -72 0
-6 -8 -41 -42 -85 0
-10 -44 -46 -61 -63 0
-3 -5 -65 -71 -73 0
-6 -8 -41 -42 -86 0
-10 -44 -46 -61 -63 0
-3 -5 -65 -71 -73 0
-6 -8 -41 -42 -86 0
-11 -44 -47 -61 -63 0
-3 -5 -66 -71 -74 0
-6 -8 -41 -42 -87 0
-11 -44 -47 -61 -63 0
-3 -5 -66 -71 -74 0
-6 -8 -41 -42 -87 0
-12 -44 -48 -61 -63 0
-3 -5 -67 -71 -75 0
-6 -8 -41 -42 -88 0
-12 -44 -48 -61 -63 0
-3 -5 -67 -71 -75 0
-6 -8 -41 -42 -88 0
-13 -44 -49 -61 -63 0
-3 -5 -68 -71 -76 0
-6 -8 -41 -42 -89 0
-13 -44 -49 -61 -63 0
-3 -5 -68 -71 -76 0
-6 -8 -41 -42 -89 0
-14 -44 -50 -61 -63 0
-3 -5 -69 -71 -77 0
-6 -8 -41 -42 -90 0
-14 -44 -50 -61 -63 0
-3 -5 -69 -71 -77 0
-6 -8 -41 -42 -90 0
-10 -45 -46 -61 -64 0
-3 -5 -65 -72 -73 0
-6 -9 -41 -42 -91 0
-10 -45 -46 -61 -64 0
-3 -5 -65 -72 -73 0
-6 -9 -41 -42 -91 0
-11 -45 -47 -61 -64 0
-3 -5 -66 -72 -74 0
-6 -9 -41 -42 -92 0
-11 -45 -47 -61 -64 0
-3 -5 -66 -72 -74 0
-6 -9 -41 -42 -92 0
-12 -45 -48 -61 -64 0
-3 -5 -67 -72 -75 0
-6 -9 -41 -42 -93 0
-12 -45 -48 -61 -64 0
-3 -5 -67 -72 -75 0
-6 -9 -41 -42 -93 0
-13 -45 -49 -61 -64 0
-3 -5 -68 -72 -76 0
-6 -9 -41 -42 -94 0
-13 -45 -49 -61 -64 0
-3 -5 -68 -72 -76 0
-6 -9 -41 -42 -94 0
-14 -45 -50 -61 -64 0
-3 -5 -69 -72 -77 0
-6 -9 -41 -42 -95 0
-14 -45 -50 -61 -64 0
-3 -5 -69 -72 -77 0
-6 -9 -41 -42 -95 0
-11 -46 -47 -61 -65 0
-3 -5 -66 -73 -74 0
-6 -10 -41 -42 -96 0
-11 -46 -47 -61 -65 0
-3 -5 -66 -73 -74 0
-6 -10 -41 -42 -96 0
-12 -46 -48 -61 -65 0
-3 -5 -67 -73 -75 0
-6 -10 -41 -42 -97 0
-12 -46 -48 -61 -65 0
-3 -5 -67 -73 -75 0
-6 -10 -41 -42 -97 0
-13 -46 -49 -61 -65 0
-3 -5 -68 -73 -76 0
-6 -10 -41 -42 -98 0
-13 -46 -49 -61 -65 0
-3 -5 -68 -73 -76 0
-6 -10 -41 -42 -98 0
-14 -46 -50 -61 -65 0
-3 -5 -69 -73 -77 0
-6 -10 -41 -42 -99 0
-14 -46 -50 -61 -65 0
-3 -5 -69 -73 -77 0
-6 -10 -41 -42 -99 0
-12 -47 -48 -61 -66 0
-3 -5 -67 -74 -75 0
-6 -11 -41 -42 -100 0
-12 -47 -48 -61 -66 0
-3 -5 -67 -74 -75 0
-6 -11 -41 -42 -100 0
-13 -47 -49 -61 -66 0
-3 -5 -68 -74 -76 0
-6 -11 -41 -42 -101 0
-13 -47 -49 -61 -66 0
-3 -5 -68 -74 -76 0
-6 -11 -41 -42 -101 0
-14 -47 -50 -61 -66 0
-3 -5 -69 -74 -77 0
-6 -11 -41 -42 -102 0
-14 -47 -50 -61 -66 0
-3 -5 -69 -74 -77 0
-6 -11 -41 -42 -102 0
-13 -48 -49 -61 -67 0
-3 -5 -68 -75 -76 0
-6 -12 -41 -42 -103 0
-13 -48 -49 -61 -67 0
-3 -5 -68 -75 -76 0
-6 -12 -41 -42 -103 0
-14 -48 -50 -61 -67 0
-3 -5 -69 -75 -77 0
-6 -12 -41 -42 -104 0
-14 -48 -50 -61 -67 0
-3 -5 -69 -75 -77 0
-6 -12 -41 -42 -104 0
-14 -49 -50 -61 -68 0
-3 -5 -69 -76 -77 0
-6 -13 -41 -42 -105 0
-14 -49 -50 -61 -68 0
-3 -5 -69 -76 -77 0
-6 -13 -41 -42 -105 0
-9 -44 -45 -62 -63 0
-3 -5 -64 -78 -79 0
-7 -8 -41 -43 -85 0
-9 -44 -45 -62 -63 0
-3 -5 -64 -78 -79 0
-7 -8 -41 -43 -85 0
-10 -44 -46 -62 -63 0
-3 -5 -65 -78 -80 0
-7 -8 -41 -43 -86 0
-10 -44 -46 -62 -63 0
-3 -5 -65 -78 -80 0
-7 -8 -41 -43 -86 0
-11 -44 -47 -62 -63 0
-3 -5 -66 -78 -81 0
-7 -8 -41 -43 -87 0
-11 -44 -47 -62 -63 0
-3 -5 -66 -78 -81 0
-7 -8 -41 -43 -87 0
-12 -44 -48 -62 -63 0
-3 -5 -67 -78 -82 0
-7 -8 -41 -43 -88 0
-12 -44 -48 -62 -63 0
-3 -5 -67 -78 -82 0
-7 -8 -41 -43 -88 0
-13 -44 -49 -62 -63 0
-3 -5 -68 -78 -83 0
-7 -8 -41 -43 -89 0
-13 -44 -49 -62 -63 0
-3 -5 -68 -78 -83 0
-7 -8 -41 -43 -89 0
-14 -44 -50 -62 -63 0
-3 -5 -69 -78 -84 0
-7 -8 -41 -43 -90 0
-14 -44 -50 -62 -63 0
-3 -5 -69 -78 -84 0
-7 -8 -41 -43 -90 0
-10 -45 -46 -62 -64 0
-3 -5 -65 -79 -80 0
-7 -9 -41 -43 -91 0
-10 -45 -46 -62 -64 0
-3 -5 -65 -79 -80 0
-7 -9 -41 -43 -91 0
-11 -45 -47 -62 -64 0
-3 -5 -66 -79 -81 0
-7 -9 -41 -43 -92 0
-11 -45 -47 -62 -64 0
-3 -5 -66 -79 -81 0
-7 -9 -41 -43 -92 0
-12 -45 -48 -62 -64 0
-3 -5 -67 -79 -82 0
-7 -9 -41 -43 -93 0
-12 -45 -48 -62 -64 0
-3 -5 -67 -79 -82 0
-7 -9 -41 -43 -93 0
-13 -45 -49 -62 -64 0
-3 -5 -68 -79 -83 0
-7 -9 -41 -43 -94 0
-13 -45 -49 -62 -64 0
-3 -5 -68 -79 -83 0
-7 -9 -41 -43 -94 0
-14 -45 -50 -62 -64 0
-3 -5 -69 -79 -84 0
-7 -9 -41 -43 -95 0
-14 -45 -50 -62 -64 0
-3 -5 -69 -79 -84 0
-7 -9 -41 -43 -95 0
-11 -46 -47 -62 -65 0
-3 -5 -66 -80 -81 0
-7 -10 -41 -43 -96 0
-11 -46 -47 -62 -65 0
-3 -5 -66 -80 -81 0
-7 -10 -41 -43 -96 0
-12 -46 -48 -62 -65 0
-3 -5 -67 -80 -82 0
-7 -10 -41 -43 -97 0
-12 -46 -48 -62 -65 0
-3 -5 -67 -80 -82 0
-7 -10 -41 -43 -97 0
-13 -46 -49 -62 -65 0
-3 -5 -68 -80 -83 0
-7 -10 -41 -43 -98 0
-13 -46 -49 -62 -65 0
-3 -5 -68 -80 -83 0
-7 -10 -41 -43 -98 0
-14 -46 -50 -62 -65 0
-3 -5 -69 -80 -84 0
-7 -10 -41 -43 -99 0
-14 -46 -50 -62 -65 0
-3 -5 -69 -80 -84 0
-7 -10 -41 -43 -99 0
-12 -47 -48 -62 -66 0
-3 -5 -67 -81 -82 0
-7 -11 -41 -43 -100 0
-12 -47 -48 -62 -66 0
-3 -5 -67 -81 -82 0
-7 -11 -41 -43 -100 0
-13 -47 -49 -62 -66 0
-3 -5 -68 -81 -83 0
-7 -11 -41 -43 -101 0
-13 -47 -49 -62 -66 0
-3 -5 -68 -81 -83 0
-7 -11 -41 -43 -101 0
-14 -47 -50 -62 -66 0
-3 -5 -69 -81 -84 0
-7 -11 -41 -43 -102 0
-14 -47 -50 -62 -66 0
-3 -5 -69 -81 -84 0
-7 -11 -41 -43 -102 0
-13 -48 -49 -62 -67 0
-3 -5 -68 -82 -83 0
-7 -12 -41 -43 -103 0
-13 -48 -49 -62 -67 0
-3 -5 -68 -82 -83 0
-7 -12 -41 -43 -103 0
-14 -48 -50 -62 -67 0
-3 -5 -69 -82 -84 0
-7 -12 -41 -43 -104 0
-14 -48 -50 -62 -67 0
-3 -5 -69 -82 -84 0
-7 -12 -41 -43 -104 0
-14 -49 -50 -62 -68 0
-3 -5 -69 -83 -84 0
-7 -13 -41 -43 -105 0
-14 -49 -50 -62 -68 0
-3 -5 -69 -83 -84 0
-7 -13 -41 -43 -105 0
-10 -45 -46 -63 -64 0
-3 -5 -65 -85 -86 0
-8 -9 -41 -44 -91 0
-10 -45 -46 -63 -64 0
-3 -5 -65 -85 -86 0
-8 -9 -41 -44 -91 0
-11 -45 -47 -63 -64 0
-3 -5 -66 -85 -87 0
-8 -9 -41 -44 -92 0
-11 -45 -47 -63 -64 0
-3 -5 -66 -85 -87 0
-8 -9 -41 -44 -92 0
-12 -45 -48 -63 -64 0
-3 -5 -67 -85 -88 0
-8 -9 -41 -44 -93 0
-12 -45 -48 -63 -64 0
-3 -5 -67 -85 -88 0
-8 -9 -41 -44 -93 0
-13 -45 -49 -63 -64 0
-3 -5 -68 -85 -89 0
-8 -9 -41 -44 -94 0
-13 -45 -49 -63 -64 0
-3 -5 -68 -85 -89 0
-8 -9 -41 -44 -94 0
-14 -45 -50 -63 -64 0
-3 -5 -69 -85 -90 0
-8 -9 -41 -44 -95 0
-14 -45 -50 -63 -64 0
-3 -5 -69 -85 -90 0
-8 -9 -41 -44 -95 0
-11 -46 -47 -63 -65 0
-3 -5 -66 -86 -87 0
-8 -10 -41 -44 -96 0
-11 -46 -47 -63 -65 0
-3 -5 -66 -86 -87 0
-8 -10 -41 -44 -96 0
-12 -46 -48 -63 -65 0
-3 -5 -67 -86 -88 0
-8 -10 -41 -44 -97 0
-12 -46 -48 -63 -65 0
-3 -5 -67 -86 -88 0
-8 -10 -41 -44 -97 0
-13 -46 -49 -63 -65 0
-3 -5 -68 -86 -89 0
-8 -10 -41 -44 -98 0
-13 -46 -49 -63 -65 0
-3 -5 -68 -86 -89 0
-8 -10 -41 -44 -98 0
-14 -46 -50 -63 -65 0
-3 -5 -69 -86 -90 0
-8 -10 -41 -44 -99 0
-14 -46 -50 -63 -65 0
-3 -5 -69 -86 -90 0
-8 -10 -41 -44 -99 0
-12 -47 -48 -63 -66 0
-3 -5 -67 -87 -88 0
-8 -11 -41 -44 -100 0
-12 -47 -48 -63 -66 0
-3 -5 -67 -87 -88 0
-8 -11 -41 -44 -100 0
-13 -47 -49 -63 -66 0
-3 -5 -68 -87 -89 0
-8 -11 -41 -44 -101 0
-13 -47 -49 -63 -66 0
-3 -5 -68 -87 -89 0
-8 -11 -41 -44 -101 0
-14 -47 -50 -63 -66 0
-3 -5 -69 -87 -90 0
-8 -11 -41 -44 -102 0
-14 -47 -50 -63 -66 0
-3 -5 -69 -87 -90 0
-8 -11 -41 -44 -102 0
-13 -48 -49 -63 -67 0
-3 -5 -68 -88 -89 0
-8 -12 -41 -44 -103 0
-13 -48 -49 -63 -67 0
-3 -5 -68 -88 -89 0
-8 -12 -41 -44 -103 0
-14 -48 -50 -63 -67 0
-3 -5 -69 -88 -90 0
-8 -12 -41 -44 -104 0
-14 -48 -50 -63 -67 0
-3 -5 -69 -88 -90 0
-8 -12 -41 -44 -104 0
-14 -49 -50 -63 -68 0
-3 -5 -69 -89 -90 0
-8 -13 -41 -44 -105 0
-14 -49 -50 -63 -68 0
-3 -5 -69 -89 -90 0
-8 -13 -41 -44 -105 0
-11 -46 -47 -64 -65 0
-3 -5 -66 -91 -92 0
-9 -10 -41 -45 -96 0
-11 -46 -47 -64 -65 0
-3 -5 -66 -91 -92 0
-9 -10 -41 -45 -96 0
-12 -46 -48 -64 -65 0
-3 -5 -67 -91 -93 0
-9 -10 -41 -45 -97 0
-12 -46 -48 -64 -65 0
-3 -5 -67 -91 -93 0
-9 -10 -41 -45 -97 0
-13 -46 -49 -64 -65 0
-3 -5 -68 -91 -94 0
-9 -10 -41 -45 -98 0
-13 -46 -49 -64 -65 0
-3 -5 -68 -91 -94 0
-9 -10 -41 -45 -98 0
-14 -46 -50 -64 -65 0
-3 -5 -69 -91 -95 0
-9 -10 -41 -45 -99 0
-14 -46 -50 -64 -65 0
-3 -5 -69 -91 -95 0
-9 -10 -41 -45 -99 0
-12 -47 -48 -64 -66 0
-3 -5 -67 -92 -93 0
-9 -11 -41 -45 -100 0
-12 -47 -48 -64 -66 0
-3 -5 -67 -92 -93 0
-9 -11 -41 -45 -100 0
-13 -47 -49 -64 -66 0
-3 -5 -68 -92 -94 0
-9 -11 -41 -45 -101 0
-13 -47 -49 -64 -66 0
-3 -5 -68 -92 -94 0
-9 -11 -41 -45 -101 0
-14 -47 -50 -64 -66 0
-3 -5 -69 -92 -95 0
-9 -11 -41 -45 -102 0
-14 -47 -50 -64 -66 0
-3 -5 -69 -92 -95 0
-9 -11 -41 -45 -102 0
-13 -48 -49 -64 -67 0
-3 -5 -68 -93 -94 0
-9 -12 -41 -45 -103 0
-13 -48 -49 -64 -67 0
-3 -5 -68 -93 -94 0
-9 -12 -41 -45 -103 0
-14 -48 -50 -64 -67 0
-3 -5 -69 -93 -95 0
-9 -12 -41 -45 -104 0
-14 -48 -50 -64 -67 0
-3 -5 -69 -93 -95 0
-9 -12 -41 -45 -104 0
-14 -49 -50 -64 -68 0
-3 -5 -69 -94 -95 0
-9 -13 -41 -45 -105 0
-14 -49 -50 -64 -68 0
-3 -5 -69 -94 -95 0
-9 -13 -41 -45 -105 0
-12 -47 -48 -65 -66 0
-3 -5 -67 -96 -97 0
-10 -11 -41 -46 -100 0
-12 -47 -48 -65 -66 0
-3 -5 -67 -96 -97 0
-10 -11 -41 -46 -100 0
-13 -47 -49 -65 -66 0
-3 -5 -68 -96 -98 0
-10 -11 -41 -46 -101 0
-13 -47 -49 -65 -66 0
-3 -5 -68 -96 -98 0
-10 -11 -41 -46 -101 0
-14 -47 -50 -65 -66 0
-3 -5 -69 -96 -99 0
-10 -11 -41 -46 -102 0
-14 -47 -50 -65 -66 0
-3 -5 -69 -96 -99 0
-10 -11 -41 -46 -102 0
-13 -48 -49 -65 -67 0
-3 -5 -68 -97 -98 0
-10 -12 -41 -46 -103 0
-13 -48 -49 -65 -67 0
-3 -5 -68 -97 -98 0
-10 -12 -41 -46 -103 0
-14 -48 -50 -65 -67 0
-3 -5 -69 -97 -99 0
-10 -12 -41 -46 -104 0
-14 -48 -50 -65 -67 0
-3 -5 -69 -97 -99 0
-10 -12 -41 -46 -104 0
-14 -49 -50 -65 -68 0
-3 -5 -69 -98 -99 0
-10 -13 -41 -46 -105 0
-14 -49 -50 -65 -68 0
-3 -5 -69 -98 -99 0
-10 -13 -41 -46 -105 0
-13 -48 -49 -66 -67 0
-3 -5 -68 -100 -101 0
-11 -12 -41 -47 -103 0
-13 -48 -49 -66 -67 0
-3 -5 -68 -100 -101 0
-11 -12 -41 -47 -103 0
-14 -48 -50 -66 -67 0
-3 -5 -69 -100 -102 0
-11 -12 -41 -47 -104 0
-14 -48 -50 -66 -67 0
-3 -5 -69 -100 -102 0
-11 -12 -41 -47 -104 0
-14 -49 -50 -66 -68 0
-3 -5 -69 -101 -102 0
-11 -13 -41 -47 -105 0
-14 -49 -50 -66 -68 0
-3 -5 -69 -101 -102 0
-11 -13 -41 -47 -105 0
-14 -49 -50 -67 -68 0
-3 -5 -69 -103 -104 0
-12 -13 -41 -48 -105 0
-14 -49 -50 -67 -68 0
-3 -5 -69 -103 -104 0
-12 -13 -41 -48 -105 0
-9 -44 -45 -70 -71 0
-3 -6 -72 -78 -79 0
-7 -8 -42 -43 -85 0
-9 -44 -45 -70 -71 0
-3 -6 -72 -78 -79 0
-7 -8 -42 -43 -85 0
-10 -44 -46 -70 -71 0
-3 -6 -73 -78 -80 0
-7 -8 -42 -43 -86 0
-10 -44 -46 -70 -71 0
-3 -6 -73 -78 -80 0
-7 -8 -42 -43 -86 0
-11 -44 -47 -70 -71 0
-3 -6 -74 -78 -81 0
-7 -8 -42 -43 -87 0
-11 -44 -47 -70 -71 0
-3 -6 -74 -78 -81 0
-7 -8 -42 -43 -87 0
-12 -44 -48 -70 -71 0
-3 -6 -75 -78 -82 0
-7 -8 -42 -43 -88 0
-12 -44 -48 -70 -71 0
-3 -6 -75 -78 -82 0
-7 -8 -42 -43 -88 0
-13 -44 -49 -70 -71 0
-3 -6 -76 -78 -83 0
-7 -8 -42 -43 -89 0
-13 -44 -49 -70 -71 0
-3 -6 -76 -78 -83 0
-7 -8 -42 -43 -89 0
-14 -44 -50 -70 -71 0
-3 -6 -77 -78 -84 0
-7 -8 -42 -43 -90 0
-14 -44 -50 -70 -71 0
-3 -6 -77 -78 -84 0
-7 -8 -42 -43 -90 0
-10 -45 -46 -70 -72 0
-3 -6 -73 -79 -80 0
-7 -9 -42 -43 -91 0
-10 -45 -46 -70 -72 0
-3 -6 -73 -79 -80 0
-7 -9 -42 -43 -91 0
-11 -45 -47 -70 -72 0
-3 -6 -74 -79 -81 0
-7 -9 -42 -43 -92 0
-11 -45 -47 -70 -72 0
-3 -6 -74 -79 -81 0
-7 -9 -42 -43 -92 0
-12 -45 -48 -70 -72 0
-3 -6 -75 -79 -82 0
-7 -9 -42 -43 -93 0
-12 -45 -48 -70 -72 0
-3 -6 -75 -79 -82 0
-7 -9 -42 -43 -93 0
-13 -45 -49 -70 -72 0
-3 -6 -76 -79 -83 0
-7 -9 -42 -43 -94 0
-13 -45 -49 -70 -72 0
-3 -6 -76 -79 -83 0
-7 -9 -42 -43 -94 0
-14 -45 -50 -70 -72 0
-3 -6 -77 -79 -84 0
-7 -9 -42 -43 -95 0
-14 -45 -50 -70 -72 0
-3 -6 -77 -79 -84 0
-7 -9 -42 -43 -95 0
-11 -46 -47 -70 -73 0
-3 -6 -74 -80 -81 0
-7 -10 -42 -43 -96 0
-11 -46 -47 -70 -73 0
-3 -6 -74 -80 -81 0
-7 -10 -42 -43 -96 0
-12 -46 -48 -70 -73 0
-3 -6 -75 -80 -82 0
-7 -10 -42 -43 -97 0
-12 -46 -48 -70 -73 0
-3 -6 -75 -80 -82 0
-7 -10 -42 -43 -97 0
-13 -46 -49 -70 -73 0
-3 -6 -76 -80 -83 0
-7 -10 -42 -43 -98 0
-13 -46 -49 -70 -73 0
-3 -6 -76 -80 -83 0
-7 -10 -42 -43 -98 0
-14 -46 -50 -70 -73 0
-3 -6 -77 -80 -84 0
-7 -10 -42 -43 -99 0
-14 -46 -50 -70 -73 0
-3 -6 -77 -80 -84 0
-7 -10 -42 -43 -99 0
-12 -47 -48 -70 -74 0
-3 -6 -75 -81 -82 0
-7 -11 -42 -43 -100 0
-12 -47 -48 -70 -74 0
-3 -6 -75 -81 -82 0
-7 -11 -42 -43 -100 0
-13 -47 -49 -70 -74 0
-3 -6 -76 -81 -83 0
-7 -11 -42 -43 -101 0
-13 -47 -49 -70 -74 0
-3 -6 -76 -81 -83 0
-7 -11 -42 -43 -101 0
-14 -47 -50 -70 -74 0
-3 -6 -77 -81 -84 0
-7 -11 -42 -43 -102 0
-14 -47 -50 -70 -74 0
-3 -6 -77 -81 -84 0
-7 -11 -42 -43 -102 0
-13 -48 -49 -70 -75 0
-3 -6 -76 -82 -83 0
-7 -12 -42 -43 -103 0
-13 -48 -49 -70 -75 0
-3 -6 -76 -82 -83 0
-7 -12 -42 -43 -103 0
-14 -48 -50 -70 -75 0
-3 -6 -77 -82 -84 0
-7 -12 -42 -43 -104 0
-14 -48 -50 -70 -75 0
-3 -6 -77 -82 -84 0
-7 -12 -42 -43 -104 0
-14 -49 -50 -70 -76 0
-3 -6 -77 -83 -84 0
-7 -13 -42 -43 -105 0
-14 -49 -50 -70 -76 0
-3 -6 -77 -83 -84 0
-7 -13 -42 -43 -105 0
-10 -45 -46 -71 -72 0
-3 -6 -73 -85 -86 0
-8 -9 -42 -44 -91 0
-10 -45 -46 -71 -72 0
-3 -6 -73 -85 -86 0
-8 -9 -42 -44 -91 0
-11 -45 -47 -71 -72 0
-3 -6 -74 -85 -87 0
-8 -9 -42 -44 -92 0
-11 -45 -47 -71 -72 0
-3 -6 -74 -85 -87 0
-8 -9 -42 -44 -92 0
-12 -45 -48 -71 -72 0
-3 -6 -75 -85 -88 0
-8 -9 -42 -44 -93 0
-12 -45 -48 -71 -72 0
-3 -6 -75 -85 -88 0
-8 -9 -42 -44 -93 0
-13 -45 -49 -71 -72 0
-3 -6 -76 -85 -89 0
-8 -9 -42 -44 -94 0
-13 -45 -49 -71 -72 0
-3 -6 -76 -85 -89 0
-8 -9 -42 -44 -94 0
-14 -45 -50 -71 -72 0
-3 -6 -77 -85 -90 0
-8 -9 -42 -44 -95 0
-14 -45 -50 -71 -72 0
-3 -6 -77 -85 -90 0
-8 -9 -42 -44 -95 0
-11 -46 -47 -71 -73 0
-3 -6 -74 -86 -87 0
-8 -10 -42 -44 -96 0
-11 -46 -47 -71 -73 0
-3 -6 -74 -86 -87 0
-8 -10 -42 -44 -96 0
-12 -46 -48 -71 -73 0
-3 -6 -75 -86 -88 0
-8 -10 -42 -44 -97 0
-12 -46 -48 -71 -73 0
-3 -6 -75 -86 -88 0
-8 -10 -42 -44 -97 0
-13 -46 -49 -71 -73 0
-3 -6 -76 -86 -89 0
-8 -10 -42 -44 -98 0
-13 -46 -49 -71 -73 0
-3 -6 -76 -86 -89 0
-8 -10 -42 -44 -98 0
-14 -46 -50 -71 -73 0
-3 -6 -77 -86 -90 0
-8 -10 -42 -44 -99 0
-14 -46 -50 -71 -73 0
-3 -6 -77 -86 -90 0
-8 -10 -42 -44 -99 0
-12 -47 -48 -71 -74 0
-3 -6 -75 -87 -88 0
-8 -11 -42 -44 -100 0
-12 -47 -48 -71 -74 0
-3 -6 -75 -87 -88 0
-8 -11 -42 -44 -100 0
-13 -47 -49 -71 -74 0
-3 -6 -76 -87 -89 0
-8 -11 -42 -44 -101 0
-13 -47 -49 -71 -74 0
-3 -6 -76 -87 -89 0
-8 -11 -42 -44 -101 0
-14 -47 -50 -71 -74 0
-3 -6 -77 -87 -90 0
-8 -11 -42 -44 -102 0
-14 -47 -50 -71 -74 0
-3 -6 -77 -87 -90 0
-8 -11 -42 -44 -102 0
-13 -48 -49 -71 -75 0
-3 -6 -76 -88 -89 0
-8 -12 -42 -44 -103 0
-13 -48 -49 -71 -75 0
-3 -6 -76 -88 -89 0
-8 -12 -42 -44 -103 0
-14 -48 -50 -71 -75 0
-3 -6 -77 -88 -90 0
-8 -12 -42 -44 -104 0
-14 -48 -50 -71 -75 0
-3 -6 -77 -88 -90 0
-8 -12 -42 -44 -104 0
-14 -49 -50 -71 -76 0
-3 -6 -77 -89 -90 0
-8 -13 -42 -44 -105 0
-14 -49 -50 -71 -76 0
-3 -6 -77 -89 -90 0
-8 -13 -42 -44 -105 0
-11 -46 -47 -72 -73 0
-3 -6 -74 -91 -92 0
-9 -10 -42 -45 -96 0
-11 -46 -47 -72 -73 0
-3 -6 -74 -91 -92 0
-9 -10 -42 -45 -96 0
-12 -46 -48 -72 -73 0
-3 -6 -75 -91 -93 0
-9 -10 -42 -45 -97 0
-12 -46 -48 -72 -73 0
-3 -6 -75 -91 -93 0
-9 -10 -42 -45 -97 0
-13 -46 -49 -72 -73 0
-3 -6 -76 -91 -94 0
-9 -10 -42 -45 -98 0
-13 -46 -49 -72 -73 0
-3 -6 -76 -91 -94 0
-9 -10 -42 -45 -98 0
-14 -46 -50 -72 -73 0
-3 -6 -77 -91 -95 0
-9 -10 -42 -45 -99 0
-14 -46 -50 -72 -73 0
-3 -6 -77 -91 -95 0
-9 -10 -42 -45 -99 0
-12 -47 -48 -72 -74 0
-3 -6 -75 -92 -93 0
-9 -11 -42 -45 -100 0
-12 -47 -48 -72 -74 0
-3 -6 -75 -92 -93 0
-9 -11 -42 -45 -100 0
-13 -47 -49 -72 -74 0
-3 -6 -76 -92 -94 0
-9 -11 -42 -45 -101 0
-13 -47 -49 -72 -74 0
-3 -6 -76 -92 -94 0
-9 -11 -42 -45 -101 0
-14 -47 -50 -72 -74 0
-3 -6 -77 -92 -95 0
-9 -11 -42 -45 -102 0
-14 -47 -50 -72 -74 0
-3 -6 -77 -92 -95 0
-9 -11 -42 -45 -102 0
-13 -48 -49 -72 -75 0
-3 -6 -76 -93 -94 0
-9 -12 -42 -45 -103 0
-13 -48 -49 -72 -75 0
-3 -6 -76 -93 -94 0
-9 -12 -42 -45 -103 0
-14 -48 -50 -72 -75 0
-3 -6 -77 -93 -95 0
-9 -12 -42 -45 -104 0
-14 -48 -50 -72 -75 0
-3 -6 -77 -93 -95 0
-9 -12 -42 -45 -104 0
-14 -49 -50 -72 -76 0
-3 -6 -77 -94 -95 0
-9 -13 -42 -45 -105 0
-14 -49 -50 -72 -76 0
-3 -6 -77 -94 -95 0
-9 -13 -42 -45 -105 0
-12 -47 -48 -73 -74 0
-3 -6 -75 -96 -97 0
-10 -11 -42 -46 -100 0
-12 -47 -48 -73 -74 0
-3 -6 -75 -96 -97 0
-10 -11 -42 -46 -100 0
-13 -47 -49 -73 -74 0
-3 -6 -76 -96 -98 0
-10 -11 -42 -46 -101 0
-13 -47 -49 -73 -74 0
-3 -6 -76 -96 -98 0
-10 -11 -42 -46 -101 0
-14 -47 -50 -73 -74 0
-3 -6 -77 -96 -99 0
-10 -11 -42 -46 -102 0
-14 -47 -50 -73 -74 0
-3 -6 -77 -96 -99 0
-10 -11 -42 -46 -102 0
-13 -48 -49 -73 -75 0
-3 -6 -76 -97 -98 0
-10 -12 -42 -46 -103 0
-13 -48 -49 -73 -75 0
-3 -6 -76 -97 -98 0
-10 -12 -42 -46 -103 0
-14 -48 -50 -73 -75 0
-3 -6 -77 -97 -99 0
-10 -12 -42 -46 -104 0
-14 -48 -50 -73 -75 0
-3 -6 -77 -97 -99 0
-10 -12 -42 -46 -104 0
-14 -49 -50 -73 -76 0
-3 -6 -77 -98 -99 0
-10 -13 -42 -46 -105 0
-14 -49 -50 -73 -76 0
-3 -6 -77 -98 -99 0
-10 -13 -42 -46 -105 0
-13 -48 -49 -74 -75 0
-3 -6 -76 -100 -101 0
-11 -12 -42 -47 -103 0
-13 -48 -49 -74 -75 0
-3 -6 -76 -100 -101 0
-11 -12 -42 -47 -103 0
-14 -48 -50 -74 -75 0
-3 -6 -77 -100 -102 0
-11 -12 -42 -47 -104 0
-14 -48 -50 -74 -75 0
-3 -6 -77 -100 -102 0
-11 -12 -42 -47 -104 0
-14 -49 -50 -74 -76 0
-3 -6 -77 -101 -102 0
-11 -13 -42 -47 -105 0
-14 -49 -50 -74 -76 0
-3 -6 -77 -101 -102 0
-11 -13 -42 -47 -105 0
-14 -49 -50 -75 -76 0
-3 -6 -77 -103 -104 0
-12 -13 -42 -48 -105 0
-14 -49 -50 -75 -76 0
-3 -6 -77 -103 -104 0
-12 -13 -42 -48 -105 0
-10 -45 -46 -78 -79 0
-3 -7 -80 -85 -86 0
-8 -9 -43 -44 -91 0
-10 -45 -46 -78 -79 0
-3 -7 -80 -85 -86 0
-8 -9 -43 -44 -91 0
-11 -45 -47 -78 -79 0
-3 -7 -81 -85 -87 0
-8 -9 -43 -44 -92 0
-11 -45 -47 -78 -79 0
-3 -7 -81 -85 -87 0
-8 -9 -43 -44 -92 0
-12 -45 -48 -78 -79 0
-3 -7 -82 -85 -88 0
-8 -9 -43 -44 -93 0
-12 -45 -48 -78 -79 0
-3 -7 -82 -85 -88 0
-8 -9 -43 -44 -93 0
-13 -45 -49 -78 -79 0
-3 -7 -83 -85 -89 0
-8 -9 -43 -44 -94 0
-13 -45 -49 -78 -79 0
-3 -7 -83 -85 -89 0
-8 -9 -43 -44 -94 0
-14 -45 -50 -78 -79 0
-3 -7 -84 -85 -90 0
-8 -9 -43 -44 -95 0
-14 -45 -50 -78 -79 0
-3 -7 -84 -85 -90 0
-8 -9 -43 -44 -95 0
-11 -46 -47 -78 -80 0
-3 -7 -81 -86 -87 0
-8 -10 -43 -44 -96 0
-11 -46 -47 -78 -80 0
-3 -7 -81 -86 -87 0
-8 -10 -43 -44 -96 0
-12 -46 -48 -78 -80 0
-3 -7 -82 -86 -88 0
-8 -10 -43 -44 -97 0
-12 -46 -48 -78 -80 0
-3 -7 -82 -86 -88 0
-8 -10 -43 -44 -97 0
-13 -46 -49 -78 -80 0
-3 -7 -83 -86 -89 0
-8 -10 -43 -44 -98 0
-13 -46 -49 -78 -80 0
-3 -7 -83 -86 -89 0
-8 -10 -43 -44 -98 0
-14 -46 -50 -78 -80 0
-3 -7 -84 -86 -90 0
-8 -10 -43 -44 -99 0
-14 -46 -50 -78 -80 0
-3 -7 -84 -86 -90 0
-8 -10 -43 -44 -99 0
-12 -47 -48 -78 -81 0
-3 -7 -82 -87 -88 0
-8 -11 -43 -44 -100 0
-12 -47 -48 -78 -81 0
-3 -7 -82 -87 -88 0
-8 -11 -43 -44 -100 0
-13 -47 -49 -78 -81 0
-3 -7 -83 -87 -89 0
-8 -11 -43 -44 -101 0
-13 -47 -49 -78 -81 0
-3 -7 -83 -87 -89 0
-8 -11 -43 -44 -101 0
-14 -47 -50 -78 -81 0
-3 -7 -84 -87 -90 0
-8 -11 -43 -44 -102 0
-14 -47 -50 -78 -81 0
-3 -7 -84 -87 -90 0
-8 -11 -43 -44 -102 0
-13 -48 -49 -78 -82 0
-3 -7 -83 -88 -89 0
-8 -12 -43 -44 -103 0
-13 -48 -49 -78 -82 0
-3 -7 -83 -88 -89 0
-8 -12 -43 -44 -103 0
-14 -48 -50 -78 -82 0
-3 -7 -84 -88 -90 0
-8 -12 -43 -44 -104 0
-14 -48 -50 -78 -82 0
-3 -7 -84 -88 -90 0
-8 -12 -43 -44 -104 0
-14 -49 -50 -78 -83 0
-3 -7 -84 -89 -90 0
-8 -13 -43 -44 -105 0
-14 -49 -50 -78 -83 0
-3 -7 -84 -89 -90 0
-8 -13 -43 -44 -105 0
-11 -46 -47 -79 -80 0
-3 -7 -81 -91 -92 0
-9 -10 -43 -45 -96 0
-11 -46 -47 -79 -80 0
-3 -7 -81 -91 -92 0
-9 -10 -43 -45 -96 0
-12 -46 -48 -79 -80 0
-3 -7 -82 -91 -93 0
-9 -10 -43 -45 -97 0
-12 -46 -48 -79 -80 0
-3 -7 -82 -91 -93 0
-9 -10 -43 -45 -97 0
-13 -46 -49 -79 -80 0
-3 -7 -83 -91 -94 0
-9 -10 -43 -45 -98 0
-13 -46 -49 -79 -80 0
-3 -7 -83 -91 -94 0
-9 -10 -43 -45 -98 0
-14 -46 -50 -79 -80 0
-3 -7 -84 -91 -95 0
-9 -10 -43 -45 -99 0
-14 -46 -50 -79 -80 0
-3 -7 -84 -91 -95 0
-9 -10 -43 -45 -99 0
-12 -47 -48 -79 -81 0
-3 -7 -82 -92 -93 0
-9 -11 -43 -45 -100 0
-12 -47 -48 -79 -81 0
-3 -7 -82 -92 -93 0
-9 -11 -43 -45 -100 0
-13 -47 -49 -79 -81 0
-3 -7 -83 -92 -94 0
-9 -11 -43 -45 -101 0
-13 -47 -49 -79 -81 0
-3 -7 -83 -92 -94 0
-9 -11 -43 -45 -101 0
-14 -47 -50 -79 -81 0
-3 -7 -84 -92 -95 0
-9 -11 -43 -45 -102 0
-14 -47 -50 -79 -81 0
-3 -7 -84 -92 -95 0
-9 -11 -43 -45 -102 0
-13 -48 -49 -79 -82 0
-3 -7 -83 -93 -94 0
-9 -12 -43 -45 -103 0
-13 -48 -49 -79 -82 0
-3 -7 -83 -93 -94 0
-9 -12 -43 -45 -103 0
-14 -48 -50 -79 -82 0
-3 -7 -84 -93 -95 0
-9 -12 -43 -45 -104 0
-14 -48 -50 -79 -82 0
-3 -7 -84 -93 -95 0
-9 -12 -43 -45 -104 0
-14 -49 -50 -79 -83 0
-3 -7 -84 -94 -95 0
-9 -13 -43 -45 -105 0
-14 -49 -50 -79 -83 0
-3 -7 -84 -94 -95 0
-9 -13 -43 -45 -105 0
-12 -47 -48 -80 -81 0
-3 -7 -82 -96 -97 0
-10 -11 -43 -46 -100 0
-12 -47 -48 -80 -81 0
-3 -7 -82 -96 -97 0
-10 -11 -43 -46 -100 0
-13 -47 -49 -80 -81 0
-3 -7 -83 -96 -98 0
-10 -11 -43 -46 -101 0
-13 -47 -49 -80 -81 0
-3 -7 -83 -96 -98 0
-10 -11 -43 -46 -101 0
-14 -47 -50 -80 -81 0
-3 -7 -84 -96 -99 0
-10 -11 -43 -46 -102 0
-14 -47 -50 -80 -81 0
-3 -7 -84 -96 -99 0
-10 -11 -43 -46 -102 0
-13 -48 -49 -80 -82 0
-3 -7 -83 -97 -98 0
-10 -12 -43 -46 -103 0
-13 -48 -49 -80 -82 0
-3 -7 -83 -97 -98 0
-10 -12 -43 -46 -103 0
-14 -48 -50 -80 -82 0
-3 -7 -84 -97 -99 0
-10 -12 -43 -46 -104 0
-14 -48 -50 -80 -82 0
-3 -7 -84 -97 -99 0
-10 -12 -43 -46 -104 0
-14 -49 -50 -80 -83 0
-3 -7 -84 -98 -99 0
-10 -13 -43 -46 -105 0
-14 -49 -50 -80 -83 0
-3 -7 -84 -98 -99 0
-10 -13 -43 -46 -105 0
-13 -48 -49 -81 -82 0
-3 -7 -83 -100 -101 0
-11 -12 -43 -47 -103 0
-13 -48 -49 -81 -82 0
-3 -7 -83 -100 -101 0
-11 -12 -43 -47 -103 0
-14 -48 -50 -81 -82 0
-3 -7 -84 -100 -102 0
-11 -12 -43 -47 -104 0
-14 -48 -50 -81 -82 0
-3 -7 -84 -100 -102 0
-11 -12 -43 -47 -104 0
-14 -49 -50 -81 -83 0
-3 -7 -84 -101 -102 0
-11 -13 -43 -47 -105 0
-14 -49 -50 -81 -83 0
-3 -7 -84 -101 -102 0
-11 -13 -43 -47 -105 0
-14 -49 -50 -82 -83 0
-3 -7 -84 -103 -104 0
-12 -13 -43 -48 -105 0
-14 -49 -50 -82 -83 0
-3 -7 -84 -103 -104 0
-12 -13 -43 -48 -105 0
-11 -46 -47 -85 -86 0
-3 -8 -87 -91 -92 0
-9 -10 -44 -45 -96 0
-11 -46 -47 -85 -86 0
-3 -8 -87 -91 -92 0
-9 -10 -44 -45 -96 0
-12 -46 -48 -85 -86 0
-3 -8 -88 -91 -93 0
-9 -10 -44 -45 -97 0
-12 -46 -48 -85 -86 0
-3 -8 -88 -91 -93 0
-9 -10 -44 -45 -97 0
-13 -46 -49 -85 -86 0
-3 -8 -89 -91 -94 0
-9 -10 -44 -45 -98 0
-13 -46 -49 -85 -86 0
-3 -8 -89 -91 -94 0
-9 -10 -44 -45 -98 0
-14 -46 -50 -85 -86 0
-3 -8 -90 -91 -95 0
-9 -10 -44 -45 -99 0
-14 -46 -50 -85 -86 0
-3 -8 -90 -91 -95 0
-9 -10 -44 -45 -99 0
-12 -47 -48 -85 -87 0
-3 -8 -88 -92 -93 0
-9 -11 -44 -45 -100 0
-12 -47 -48 -85 -87 0
-3 -8 -88 -92 -93 0
-9 -11 -44 -45 -100 0
-13 -47 -49 -85 -87 0
-3 -8 -89 -92 -94 0
-9 -11 -44 -45 -101 0
-13 -47 -49 -85 -87 0
-3 -8 -89 -92 -94 0
-9 -11 -44 -45 -101 0
-14 -47 -50 -85 -87 0
-3 -8 -90 -92 -95 0
-9 -11 -44 -45 -102 0
-14 -47 -50 -85 -87 0
-3 -8 -90 -92 -95 0
-9 -11 -44 -45 -102 0
-13 -48 -49 -85 -88 0
-3 -8 -89 -93 -94 0
-9 -12 -44 -45 -103 0
-13 -48 -49 -85 -88 0
-3 -8 -89 -93 -94 0
-9 -12 -44 -45 -103 0
-14 -48 -50 -85 -88 0
-3 -8 -90 -93 -95 0
-9 -12 -44 -45 -104 0
-14 -48 -50 -85 -88 0
-3 -8 -90 -93 -95 0
-9 -12 -44 -45 -104 0
-14 -49 -50 -85 -89 0
-3 -8 -90 -94 -95 0
-9 -13 -44 -45 -105 0
-14 -49 -50 -85 -89 0
-3 -8 -90 -94 -95 0
-9 -13 -44 -45 -105 0
-12 -47 -48 -86 -87 0
-3 -8 -88 -96 -97 0
-10 -11 -44 -46 -100 0
-12 -47 -48 -86 -87 0
-3 -8 -88 -96 -97 0
-10 -11 -44 -46 -100 0
-13 -47 -49 -86 -87 0
-3 -8 -89 -96 -98 0
-10 -11 -44 -46 -101 0
-13 -47 -49 -86 -87 0
-3 -8 -89 -96 -98 0
-10 -11 -44 -46 -101 0
-14 -47 -50 -86 -87 0
-3 -8 -90 -96 -99 0
-10 -11 -44 -46 -102 0
-14 -47 -50 -86 -87 0
-3 -8 -90 -96 -99 0
-10 -11 -44 -46 -102 0
-13 -48 -49 -86 -88 0
-3 -8 -89 -97 -98 0
-10 -12 -44 -46 -103 0
-13 -48 -49 -86 -88 0
-3 -8 -89 -97 -98 0
-10 -12 -44 -46 -103 0
-14 -48 -50 -86 -88 0
-3 -8 -90 -97 -99 0
-10 -12 -44 -46 -104 0
-14 -48 -50 -86 -88 0
-3 -8 -90 -97 -99 0
-10 -12 -44 -46 -104 0
-14 -49 -50 -86 -89 0
-3 -8 -90 -98 -99 0
-10 -13 -44 -46 -105 0
-14 -49 -50 -86 -89 0
-3 -8 -90 -98 -99 0
-10 -13 -44 -46 -105 0
-13 -48 -49 -87 -88 0
-3 -8 -89 -100 -101 0
-11 -12 -44 -47 -103 0
-13 -48 -49 -87 -88 0
-3 -8 -89 -100 -101 0
-11 -12 -44 -47 -103 0
-14 -48 -50 -87 -88 0
-3 -8 -90 -100 -102 0
-11 -12 -44 -47 -104 0
-14 -48 -50 -87 -88 0
-3 -8 -90 -100 -102 0
-11 -12 -44 -47 -104 0
-14 -49 -50 -87 -89 0
-3 -8 -90 -101 -102 0
-11 -13 -44 -47 -105 0
-14 -49 -50 -87 -89 0
-3 -8 -90 -101 -102 0
-11 -13 -44 -47 -105 0
-14 -49 -50 -88 -89 0
-3 -8 -90 -103 -104 0
-12 -13 -44 -48 -105 0
-14 -49 -50 -88 -89 0
-3 -8 -90 -103 -104 0
-12 -13 -44 -48 -105 0
-12 -47 -48 -91 -92 0
-3 -9 -93 -96 -97 0
-10 -11 -45 -46 -100 0
-12 -47 -48 -91 -92 0
-3 -9 -93 -96 -97 0
-10 -11 -45 -46 -100 0
-13 -47 -49 -91 -92 0
-3 -9 -94 -96 -98 0
-10 -11 -45 -46 -101 0
-13 -47 -49 -91 -92 0
-3 -9 -94 -96 -98 0
-10 -11 -45 -46 -101 0
-14 -47 -50 -91 -92 0
-3 -9 -95 -96 -99 0
-10 -11 -45 -46 -102 0
-14 -47 -50 -91 -92 0
-3 -9 -95 -96 -99 0
-10 -11 -45 -46 -102 0
-13 -48 -49 -91 -93 0
-3 -9 -94 -97 -98 0
-10 -12 -45 -46 -103 0
-13 -48 -49 -91 -93 0
-3 -9 -94 -97 -98 0
-10 -12 -45 -46 -103 0
-14 -48 -50 -91 -93 0
-3 -9 -95 -97 -99 0
-10 -12 -45 -46 -104 0
-14 -48 -50 -91 -93 0
-3 -9 -95 -97 -99 0
-10 -12 -45 -46 -104 0
-14 -49 -50 -91 -94 0
-3 -9 -95 -98 -99 0
-10 -13 -45 -46 -105 0
-14 -49 -50 -91 -94 0
-3 -9 -95 -98 -99 0
-10 -13 -45 -46 -105 0
-13 -48 -49 -92 -93 0
-3 -9 -94 -100 -101 0
-11 -12 -45 -47 -103 0
-13 -48 -49 -92 -93 0
-3 -9 -94 -100 -101 0
-11 -12 -45 -47 -103 0
-14 -48 -50 -92 -93 0
-3 -9 -95 -100 -102 0
-11 -12 -45 -47 -104 0
-14 -48 -50 -92 -93 0
-3 -9 -95 -100 -102 0
-11 -12 -45 -47 -104 0
-14 -49 -50 -92 -94 0
-3 -9 -95 -101 -102 0
-11 -13 -45 -47 -105 0
-14 -49 -50 -92 -94 0
-3 -9 -95 -101 -102 0
-11 -13 -45 -47 -105 0
-14 -49 -50 -93 -94 0
-3 -9 -95 -103 -104 0
-12 -13 -45 -48 -105 0
-14 -49 -50 -93 -94 0
-3 -9 -95 -103 -104 0
-12 -13 -45 -48 -105 0
-13 -48 -49 -96 -97 0
-3 -10 -98 -100 -101 0
-11 -12 -46 -47 -103 0
-13 -48 -49 -96 -97 0
-3 -10 -98 -100 -101 0
-11 -12 -46 -47 -103 0
-14 -48 -50 -96 -97 0
-3 -10 -99 -100 -102 0
-11 -12 -46 -47 -104 0
-14 -48 -50 -96 -97 0
-3 -10 -99 -100 -102 0
-11 -12 -46 -47 -104 0
-14 -49 -50 -96 -98 0
-3 -10 -99 -101 -102 0
-11 -13 -46 -47 -105 0
-14 -49 -50 -96 -98 0
-3 -10 -99 -101 -102 0
-11 -13 -46 -47 -105 0
-14 -49 -50 -97 -98 0
-3 -10 -99 -103 -104 0
-12 -13 -46 -48 -105 0
-14 -49 -50 -97 -98 0
-3 -10 -99 -103 -104 0
-12 -13 -46 -48 -105 0
-14 -49 -50 -100 -101 0
-3 -11 -102 -103 -104 0
-12 -13 -47 -48 -105 0
-14 -49 -50 -100 -101 0
-3 -11 -102 -103 -104 0
-12 -13 -47 -48 -105 0
-8 -53 -54 -61 -62 0
-4 -5 -63 -70 -71 0
-6 -7 -51 -52 -78 0
-8 -53 -54 -61 -62 0
-4 -5 -63 -70 -71 0
-6 -7 -51 -52 -78 0
-9 -53 -55 -61 -62 0
-4 -5 -64 -70 -72 0
-6 -7 -51 -52 -79 0
-9 -53 -55 -61 -62 0
-4 -5 -64 -70 -72 0
-6 -7 -51 -52 -79 0
-10 -53 -56 -61 -62 0
-4 -5 -65 -70 -73 0
-6 -7 -51 -52 -80 0
-10 -53 -56 -61 -62 0
-4 -5 -65 -70 -73 0
-6 -7 -51 -52 -80 0
-11 -53 -57 -61 -62 0
-4 -5 -66 -70 -74 0
-6 -7 -51 -52 -81 0
-11 -53 -57 -61 -62 0
-4 -5 -66 -70 -74 0
-6 -7 -51 -52 -81 0
-12 -53 -58 -61 -62 0
-4 -5 -67 -70 -75 0
-6 -7 -51 -52 -82 0
-12 -53 -58 -61 -62 0
-4 -5 -67 -70 -75 0
-6 -7 -51 -52 -82 0
-13 -53 -59 -61 -62 0
-4 -5 -68 -70 -76 0
-6 -7 -51 -52 -83 0
-13 -53 -59 -61 -62 0
-4 -5 -68 -70 -76 0
-6 -7 -51 -52 -83 0
-14 -53 -60 -61 -62 0
-4 -5 -69 -70 -77 0
-6 -7 -51 -52 -84 0
-14 -53 -60 -61 -62 0
-4 -5 -69 -70 -77 0
-6 -7 -51 -52 -84 0
-9 -54 -55 -61 -63 0
-4 -5 -64 -71 -72 0
-6 -8 -51 -52 -85 0
-9 -54 -55 -61 -63 0
-4 -5 -64 -71 -72 0
-6 -8 -51 -52 -85 0
-10 -54 -56 -61 -63 0
-4 -5 -65 -71 -73 0
-6 -8 -51 -52 -86 0
-10 -54 -56 -61 -63 0
-4 -5 -65 -71 -73 0
-6 -8 -51 -52 -86 0
-11 -54 -57 -61 -63 0
-4 -5 -66 -71 -74 0
-6 -8 -51 -52 -87 0
-11 -54 -57 -61 -63 0
-4 -5 -66 -71 -74 0
-6 -8 -51 -52 -87 0
-12 -54 -58 -61 -63 0
-4 -5 -67 -71 -75 0
-6 -8 -51 -52 -88 0
-12 -54 -58 -61 -63 0
-4 -5 -67 -71 -75 0
-6 -8 -51 -52 -88 0
-13 -54 -59 -61 -63 0
-4 -5 -68 -71 -76 0
-6 -8 -51 -52 -89 0
-13 -54 -59 -61 -63 0
-4 -5 -68 -71 -76 0
-6 -8 -51 -52 -89 0
-14 -54 -60 -61 -63 0
-4 -5 -69 -71 -77 0
-6 -8 -51 -52 -90 0
-14 -54 -60 -61 -63 0
-4 -5 -69 -71 -77 0
-6 -8 -51 -52 -90 0
-10 -55 -56 -61 -64 0
-4 -5 -65 -72 -73 0
-6 -9 -51 -52 -91 0
-10 -55 -56 -61 -64 0
-4 -5 -65 -72 -73 0
-6 -9 -51 -52 -91 0
-11 -55 -57 -61 -64 0
-4 -5 -66 -72 -74 0
-6 -9 -51 -52 -92 0
-11 -55 -57 -61 -64 0
-4 -5 -66 -72 -74 0
-6 -9 -51 -52 -92 0
-12 -55 -58 -61 -64 0
-4 -5 -67 -72 -75 0
-6 -9 -51 -52 -93 0
-12 -55 -58 -61 -64 0
-4 -5 -67 -72 -75 0
-6 -9 -51 -52 -93 0
-13 -55 -59 -61 -64 0
-4 -5 -68 -72 -76 0
-6 -9 -51 -52 -94 0
-13 -55 -59 -61 -64 0
-4 -5 -68 -72 -76 0
-6 -9 -51 -52 -94 0
-14 -55 -60 -61 -64 0
-4 -5 -69 -72 -77 0
-6 -9 -51 -52 -95 0
-14 -55 -60 -61 -64 0
-4 -5 -69 -72 -77 0
-6 -9 -51 -52 -95 0
-11 -56 -57 -61 -65 0
-4 -5 -66 -73 -74 0
-6 -10 -51 -52 -96 0
-11 -56 -57 -61 -65 0
-4 -5 -66 -73 -74 0
-6 -10 -51 -52 -96 0
-12 -56 -58 -61 -65 0
-4 -5 -67 -73 -75 0
-6 -10 -51 -52 -97 0
-12 -56 -58 -61 -65 0
-4 -5 -67 -73 -75 0
-6 -10 -51 -52 -97 0
-13 -56 -59 -61 -65 0
-4 -5 -68 -73 -76 0
-6 -10 -51 -52 -98 0
-13 -56 -59 -61 -65 0
-4 -5 -68 -73 -76 0
-6 -10 -51 -52 -98 0
-14 -56 -60 -61 -65 0
-4 -5 -69 -73 -77 0
-6 -10 -51 -52 -99 0
-14 -56 -60 -61 -65 0
-4 -5 -69 -73 -77 0
-6 -10 -51 -52 -99 0
-12 -57 -58 -61 -66 0
-4 -5 -67 -74 -75 0
-6 -11 -51 -52 -100 0
-12 -57 -58 -61 -66 0
-4 -5 -67 -74 -75 0
-6 -11 -51 -52 -100 0
-13 -57 -59 -61 -66 0
-4 -5 -68 -74 -76 0
-6 -11 -51 -52 -101 0
-13 -57 -59 -61 -66 0
-4 -5 -68 -74 -76 0
-6 -11 -51 -52 -101 0
-14 -57 -60 -61 -66 0
-4 -5 -69 -74 -77 0
-6 -11 -51 -52 -102 0
-14 -57 -60 -61 -66 0
-4 -5 -69 -74 -77 0
-6 -11 -51 -52 -102 0
-13 -58 -59 -61 -67 0
-4 -5 -68 -75 -76 0
-6 -12 -51 -52 -103 0
-13 -58 -59 -61 -67 0
-4 -5 -68 -75 -76 0
-6 -12 -51 -52 -103 0
-14 -58 -60 -61 -67 0
-4 -5 -69 -75 -77 0
-6 -12 -51 -52 -104 0
-14 -58 -60 -61 -67 0
-4 -5 -69 -75 -77 0
-6 -12 -51 -52 -104 0
-14 -59 -60 -61 -68 0
-4 -5 -69 -76 -77 0
-6 -13 -51 -52 -105 0
-14 -59 -60 -61 -68 0
-4 -5 -69 -76 -77 0
-6 -13 -51 -52 -105 0
-9 -54 -55 -62 -63 0
-4 -5 -64 -78 -79 0
-7 -8 -51 -53 -85 0
-9 -54 -55 -62 -63 0
-4 -5 -64 -78 -79 0
-7 -8 -51 -53 -85 0
-10 -54 -56 -62 -63 0
-4 -5 -65 -78 -80 0
-7 -8 -51 -53 -86 0
-10 -54 -56 -62 -63 0
-4 -5 -65 -78 -80 0
-7 -8 -51 -53 -86 0
-11 -54 -57 -62 -63 0
-4 -5 -66 -78 -81 0
-7 -8 -51 -53 -87 0
-11 -54 -57 -62 -63 0
-4 -5 -66 -78 -81 0
-7 -8 -51 -53 -87 0
-12 -54 -58 -62 -63 0
-4 -5 -67 -78 -82 0
-7 -8 -51 -53 -88 0
-12 -54 -58 -62 -63 0
-4 -5 -67 -78 -82 0
-7 -8 -51 -53 -88 0
-13 -54 -59 -62 -63 0
-4 -5 -68 -78 -83 0
-7 -8 -51 -53 -89 0
-13 -54 -59 -62 -63 0
-4 -5 -68 -78 -83 0
-7 -8 -51 -53 -89 0
-14 -54 -60 -62 -63 0
-4 -5 -69 -78 -84 0
-7 -8 -51 -53 -90 0
-14 -54 -60 -62 -63 0
-4 -5 -69 -78 -84 0
-7 -8 -51 -53 -90 0
-10 -55 -56 -62 -64 0
-4 -5 -65 -79 -80 0
-7 -9 -51 -53 -91 0
-10 -55 -56 -62 -64 0
-4 -5 -65 -79 -80 0
-7 -9 -51 -53 -91 0
-11 -55 -57 -62 -64 0
-4 -5 -66 -79 -81 0
-7 -9 -51 -53 -92 0
-11 -55 -57 -62 -64 0
-4 -5 -66 -79 -81 0
-7 -9 -51 -53 -92 0
-12 -55 -58 -62 -64 0
-4 -5 -67 -79 -82 0
-7 -9 -51 -53 -93 0
-12 -55 -58 -62 -64 0
-4 -5 -67 -79 -82 0
-7 -9 -51 -53 -93 0
-13 -55 -59 -62 -64 0
-4 -5 -68 -79 -83 0
-7 -9 -51 -53 -94 0
-13 -55 -59 -62 -64 0
-4 -5 -68 -79 -83 0
-7 -9 -51 -53 -94 0
-14 -55 -60 -62 -64 0
-4 -5 -69 -79 -84 0
-7 -9 -51 -53 -95 0
-14 -55 -60 -62 -64 0
-4 -5 -69 -79 -84 0
-7 -9 -51 -53 -95 0
-11 -56 -57 -62 -65 0
-4 -5 -66 -80 -81 0
-7 -10 -51 -53 -96 0
-11 -56 -57 -62 -65 0
-4 -5 -66 -80 -81 0
-7 -10 -51 -53 -96 0
-12 -56 -58 -62 -65 0
-4 -5 -67 -80 -82 0
-7 -10 -51 -53 -97 0
-12 -56 -58 -62 -65 0
-4 -5 -67 -80 -82 0
-7 -10 -51 -53 -97 0
-13 -56 -59 -62 -65 0
-4 -5 -68 -80 -83 0
-7 -10 -51 -53 -98 0
-13 -56 -59 -62 -65 0
-4 -5 -68 -80 -83 0
-7 -10 -51 -53 -98 0
-14 -56 -60 -62 -65 0
-4 -5 -69 -80 -84 0
-7 -10 -51 -53 -99 0
-14 -56 -60 -62 -65 0
-4 -5 -69 -80 -84 0
-7 -10 -51 -53 -99 0
-12 -57 -58 -62 -66 0
-4 -5 -67 -81 -82 0
-7 -11 -51 -53 -100 0
-12 -57 -58 -62 -66 0
-4 -5 -67 -81 -82 0
-7 -11 -51 -53 -100 0
-13 -57 -59 -62 -66 0
-4 -5 -68 -81 -83 0
-7 -11 -51 -53 -101 0
-13 -57 -59 -62 -66 0
-4 -5 -68 -81 -83 0
-7 -11 -51 -53 -101 0
-14 -57 -60 -62 -66 0
-4 -5 -69 -81 -84 0
-7 -11 -51 -53 -102 0
-14 -57 -60 -62 -66 0
-4 -5 -69 -81 -84 0
-7 -11 -51 -53 -102 0
-13 -58 -59 -62 -67 0
-4 -5 -68 -82 -83 0
-7 -12 -51 -53 -103 0
-13 -58 -59 -62 -67 0
-4 -5 -68 -82 -83 0
-7 -12 -51 -53 -103 0
-14 -58 -60 -62 -67 0
-4 -5 -69 -82 -84 0
-7 -12 -51 -53 -104 0
-14 -58 -60 -62 -67 0
-4 -5 -69 -82 -84 0
-7 -12 -51 -53 -104 0
-14 -59 -60 -62 -68 0
-4 -5 -69 -83 -84 0
-7 -13 -51 -53 -105 0
-14 -59 -60 -62 -68 0
-4 -5 -69 -83 -84 0
-7 -13 -51 -53 -105 0
-10 -55 -56 -63 -64 0
-4 -5 -65 -85 -86 0
-8 -9 -51 -54 -91 0
-10 -55 -56 -63 -64 0
-4 -5 -65 -85 -86 0
-8 -9 -51 -54 -91 0
-11 -55 -57 -63 -64 0
-4 -5 -66 -85 -87 0
-8 -9 -51 -54 -92 0
-11 -55 -57 -63 -64 0
-4 -5 -66 -85 -87 0
-8 -9 -51 -54 -92 0
-12 -55 -58 -63 -64 0
-4 -5 -67 -85 -88 0
-8 -9 -51 -54 -93 0
-12 -55 -58 -63 -64 0
-4 -5 -67 -85 -88 0
-8 -9 -51 -54 -93 0
-13 -55 -59 -63 -64 0
-4 -5 -68 -85 -89 0
-8 -9 -51 -54 -94 0
-13 -55 -59 -63 -64 0
-4 -5 -68 -85 -89 0
-8 -9 -51 -54 -94 0
-14 -55 -60 -63 -64 0
-4 -5 -69 -85 -90 0
-8 -9 -51 -54 -95 0
-14 -55 -60 -63 -64 0
-4 -5 -69 -85 -90 0
-8 -9 -51 -54 -95 0
-11 -56 -57 -63 -65 0
-4 -5 -66 -86 -87 0
-8 -10 -51 -54 -96 0
-11 -56 -57 -63 -65 0
-4 -5 -66 -86 -87 0
-8 -10 -51 -54 -96 0
-12 -56 -58 -63 -65 0
-4 -5 -67 -86 -88 0
-8 -10 -51 -54 -97 0
-12 -56 -58 -63 -65 0
-4 -5 -67 -86 -88 0
-8 -10 -51 -54 -97 0
-13 -56 -59 -63 -65 0
-4 -5 -68 -86 -89 0
-8 -10 -51 -54 -98 0
-13 -56 -59 -63 -65 0
-4 -5 -68 -86 -89 0
-8 -10 -51 -54 -98 0
-14 -56 -60 -63 -65 0
-4 -5 -69 -86 -90 0
-8 -10 -51 -54 -99 0
-14 -56 -60 -63 -65 0
-4 -5 -69 -86 -90 0
-8 -10 -51 -54 -99 0
-12 -57 -58 -63 -66 0
-4 -5 -67 -87 -88 0
-8 -11 -51 -54 -100 0
-12 -57 -58 -63 -66 0
-4 -5 -67 -87 -88 0
-8 -11 -51 -54 -100 0
-13 -57 -59 -63 -66 0
-4 -5 -68 -87 -89 0
-8 -11 -51 -54 -101 0
-13 -57 -59 -63 -66 0
-4 -5 -68 -87 -89 0
-8 -11 -51 -54 -101 0
-14 -57 -60 -63 -66 0
-4 -5 -69 -87 -90 0
-8 -11 -51 -54 -102 0
-14 -57 -60 -63 -66 0
-4 -5 -69 -87 -90 0
-8 -11 -51 -54 -102 0
-13 -58 -59 -63 -67 0
-4 -5 -68 -88 -89 0
-8 -12 -51 -54 -103 0
-13 -58 -59 -63 -67 0
-4 -5 -68 -88 -89 0
-8 -12 -51 -54 -103 0
-14 -58 -60 -63 -67 0
-4 -5 -69 -88 -90 0
-8 -12 -51 -54 -104 0
-14 -58 -60 -63 -67 0
-4 -5 -69 -88 -90 0
-8 -12 -51 -54 -104 0
-14 -59 -60 -63 -68 0
-4 -5 -69 -89 -90 0
-8 -13 -51 -54 -105 0
-14 -59 -60 -63 -68 0
-4 -5 -69 -89 -90 0
-8 -13 -51 -54 -105 0
-11 -56 -57 -64 -65 0
-4 -5 -66 -91 -92 0
-9 -10 -51 -55 -96 0
-11 -56 -57 -64 -65 0
-4 -5 -66 -91 -92 0
-9 -10 -51 -55 -96 0
-12 -56 -58 -64 -65 0
-4 -5 -67 -91 -93 0
-9 -10 -51 -55 -97 0
-12 -56 -58 -64 -65 0
-4 -5 -67 -91 -93 0
-9 -10 -51 -55 -97 0
-13 -56 -59 -64 -65 0
-4 -5 -68 -91 -94 0
-9 -10 -51 -55 -98 0
-13 -56 -59 -64 -65 0
-4 -5 -68 -91 -94 0
-9 -10 -51 -55 -98 0
-14 -56 -60 -64 -65 0
-4 -5 -69 -91 -95 0
-9 -10 -51 -55 -99 0
-14 -56 -60 -64 -65 0
-4 -5 -69 -91 -95 0
-9 -10 -51 -55 -99 0
-12 -57 -58 -64 -66 0
-4 -5 -67 -92 -93 0
-9 -11 -51 -55 -100 0
-12 -57 -58 -64 -66 0
-4 -5 -67 -92 -93 0
-9 -11 -51 -55 -100 0
-13 -57 -59 -64 -66 0
-4 -5 -68 -92 -94 0
-9 -11 -51 -55 -101 0
-13 -57 -59 -64 -66 0
-4 -5 -68 -92 -94 0
-9 -11 -51 -55 -101 0
-14 -57 -60 -64 -66 0
-4 -5 -69 -92 -95 0
-9 -11 -51 -55 -102 0
-14 -57 -60 -64 -66 0
-4 -5 -69 -92 -95 0
-9 -11 -51 -55 -102 0
-13 -58 -59 -64 -67 0
-4 -5 -68 -93 -94 0
-9 -12 -51 -55 -103 0
-13 -58 -59 -64 -67 0
-4 -5 -68 -93 -94 0
-9 -12 -51 -55 -103 0
-14 -58 -60 -64 -67 0
-4 -5 -69 -93 -95 0
-9 -12 -51 -55 -104 0
-14 -58 -60 -64 -67 0
-4 -5 -69 -93 -95 0
-9 -12 -51 -55 -104 0
-14 -59 -60 -64 -68 0
-4 -5 -69 -94 -95 0
-9 -13 -51 -55 -105 0
-14 -59 -60 -64 -68 0
-4 -5 -69 -94 -95 0
-9 -13 -51 -55 -105 0
-12 -57 -58 -65 -66 0
-4 -5 -67 -96 -97 0
-10 -11 -51 -56 -100 0
-12 -57 -58 -65 -66 0
-4 -5 -67 -96 -97 0
-10 -11 -51 -56 -100 0
-13 -57 -59 -65 -66 0
-4 -5 -68 -96 -98 0
-10 -11 -51 -56 -101 0
-13 -57 -59 -65 -66 0
-4 -5 -68 -96 -98 0
-10 -11 -51 -56 -101 0
-14 -57 -60 -65 -66 0
-4 -5 -69 -96 -99 0
-10 -11 -51 -56 -102 0
-14 -57 -60 -65 -66 0
-4 -5 -69 -96 -99 0
-10 -11 -51 -56 -102 0
-13 -58 -59 -65 -67 0
-4 -5 -68 -97 -98 0
-10 -12 -51 -56 -103 0
-13 -58 -59 -65 -67 0
-4 -5 -68 -97 -98 0
-10 -12 -51 -56 -103 0
-14 -58 -60 -65 -67 0
-4 -5 -69 -97 -99 0
-10 -12 -51 -56 -104 0
-14 -58 -60 -65 -67 0
-4 -5 -69 -97 -99 0
-10 -12 -51 -56 -104 0
-14 -59 -60 -65 -68 0
-4 -5 -69 -98 -99 0
-10 -13 -51 -56 -105 0
-14 -59 -60 -65 -68 0
-4 -5 -69 -98 -99 0
-10 -13 -51 -56 -105 0
-13 -58 -59 -66 -67 0
-4 -5 -68 -100 -101 0
-11 -12 -51 -57 -103 0
-13 -58 -59 -66 -67 0
-4 -5 -68 -100 -101 0
-11 -12 -51 -57 -103 0
-14 -58 -60 -66 -67 0
-4 -5 -69 -100 -102 0
-11 -12 -51 -57 -104 0
-14 -58 -60 -66 -67 0
-4 -5 -69 -100 -102 0
-11 -12 -51 -57 -104 0
-14 -59 -60 -66 -68 0
-4 -5 -69 -101 -102 0
-11 -13 -51 -57 -105 0
-14 -59 -60 -66 -68 0
-4 -5 -69 -101 -102 0
-11 -13 -51 -57 -105 0
-14 -59 -60 -67 -68 0
-4 -5 -69 -103 -104 0
-12 -13 -51 -58 -105 0
-14 -59 -60 -67 -68 0
-4 -5 -69 -103 -104 0
-12 -13 -51 -58 -105 0
-9 -54 -55 -70 -71 0
-4 -6 -72 -78 -79 0
-7 -8 -52 -53 -85 0
-9 -54 -55 -70 -71 0
-4 -6 -72 -78 -79 0
-7 -8 -52 -53 -85 0
-10 -54 -56 -70 -71 0
-4 -6 -73 -78 -80 0
-7 -8 -52 -53 -86 0
-10 -54 -56 -70 -71 0
-4 -6 -73 -78 -80 0
-7 -8 -52 -53 -86 0
-11 -54 -57 -70 -71 0
-4 -6 -74 -78 -81 0
-7 -8 -52 -53 -87 0
-11 -54 -57 -70 -71 0
-4 -6 -74 -78 -81 0
-7 -8 -52 -53 -87 0
-12 -54 -58 -70 -71 0
-4 -6 -75 -78 -82 0
-7 -8 -52 -53 -88 0
-12 -54 -58 -70 -71 0
-4 -6 -75 -78 -82 0
-7 -8 -52 -53 -88 0
-13 -54 -59 -70 -71 0
-4 -6 -76 -78 -83 0
-7 -8 -52 -53 -89 0
-13 -54 -59 -70 -71 0
-4 -6 -76 -78 -83 0
-7 -8 -52 -53 -89 0
-14 -54 -60 -70 -71 0
-4 -6 -77 -78 -84 0
-7 -8 -52 -53 -90 0
-14 -54 -60 -70 -71 0
-4 -6 -77 -78 -84 0
-7 -8 -52 -53 -90 0
-10 -55 -56 -70 -72 0
-4 -6 -73 -79 -80 0
-7 -9 -52 -53 -91 0
-10 -55 -56 -70 -72 0
-4 -6 -73 -79 -80 0
-7 -9 -52 -53 -91 0
-11 -55 -57 -70 -72 0
-4 -6 -74 -79 -81 0
-7 -9 -52 -53 -92 0
-11 -55 -57 -70 -72 0
-4 -6 -74 -79 -81 0
-7 -9 -52 -53 -92 0
-12 -55 -58 -70 -72 0
-4 -6 -75 -79 -82 0
-7 -9 -52 -53 -93 0
-12 -55 -58 -70 -72 0
-4 -6 -75 -79 -82 0
-7 -9 -52 -53 -93 0
-13 -55 -59 -70 -72 0
-4 -6 -76 -79 -83 0
-7 -9 -52 -53 -94 0
-13 -55 -59 -70 -72 0
-4 -6 -76 -79 -83 0
-7 -9 -52 -53 -94 0
-14 -55 -60 -70 -72 0
-4 -6 -77 -79 -84 0
-7 -9 -52 -53 -95 0
-14 -55 -60 -70 -72 0
-4 -6 -77 -79 -84 0
-7 -9 -52 -53 -95 0
-11 -56 -57 -70 -73 0
-4 -6 -74 -80 -81 0
-7 -10 -52 -53 -96 0
-11 -56 -57 -70 -73 0
-4 -6 -74 -80 -81 0
-7 -10 -52 -53 -96 0
-12 -56 -58 -70 -73 0
-4 -6 -75 -80 -82 0
-7 -10 -52 -53 -97 0
-12 -56 -58 -70 -73 0
-4 -6 -75 -80 -82 0
-7 -10 -52 -53 -97 0
-13 -56 -59 -70 -73 0
-4 -6 -76 -80 -83 0
-7 -10 -52 -53 -98 0
-13 -56 -59 -70 -73 0
-4 -6 -76 -80 -83 0
-7 -10 -52 -53 -98 0
-14 -56 -60 -70 -73 0
-4 -6 -77 -80 -84 0
-7 -10 -52 -53 -99 0
-14 -56 -60 -70 -73 0
-4 -6 -77 -80 -84 0
-7 -10 -52 -53 -99 0
-12 -57 -58 -70 -74 0
-4 -6 -75 -81 -82 0
-7 -11 -52 -53 -100 0
-12 -57 -58 -70 -74 0
-4 -6 -75 -81 -82 0
-7 -11 -52 -53 -100 0
-13 -57 -59 -70 -74 0
-4 -6 -76 -81 -83 0
-7 -11 -52 -53 -101 0
-13 -57 -59 -70 -74 0
-4 -6 -76 -81 -83 0
-7 -11 -52 -53 -101 0
-14 -57 -60 -70 -74 0
-4 -6 -77 -81 -84 0
-7 -11 -52 -53 -102 0
-14 -57 -60 -70 -74 0
-4 -6 -77 -81 -84 0
-7 -11 -52 -53 -102 0
-13 -58 -59 -70 -75 0
-4 -6 -76 -82 -83 0
-7 -12 -52 -53 -103 0
-13 -58 -59 -70 -75 0
-4 -6 -76 -82 -83 0
-7 -12 -52 -53 -103 0
-14 -58 -60 -70 -75 0
-4 -6 -77 -82 -84 0
-7 -12 -52 -53 -104 0
-14 -58 -60 -70 -75 0
-4 -6 -77 -82 -84 0
-7 -12 -52 -53 -104 0
-14 -59 -60 -70 -76 0
-4 -6 -77 -83 -84 0
-7 -13 -52 -53 -105 0
-14 -59 -60 -70 -76 0
-4 -6 -77 -83 -84 0
-7 -13 -52 -53 -105 0
-10 -55 -56 -71 -72 0
-4 -6 -73 -85 -86 0
-8 -9 -52 -54 -91 0
-10 -55 -56 -71 -72 0
-4 -6 -73 -85 -86 0
-8 -9 -52 -54 -91 0
-11 -55 -57 -71 -72 0
-4 -6 -74 -85 -87 0
-8 -9 -52 -54 -92 0
-11 -55 -57 -71 -72 0
-4 -6 -74 -85 -87 0
-8 -9 -52 -54 -92 0
-12 -55 -58 -71 -72 0
-4 -6 -75 -85 -88 0
-8 -9 -52 -54 -93 0
-12 -55 -58 -71 -72 0
-4 -6 -75 -85 -88 0
-8 -9 -52 -54 -93 0
-13 -55 -59 -71 -72 0
-4 -6 -76 -85 -89 0
-8 -9 -52 -54 -94 0
-13 -55 -59 -71 -72 0
-4 -6 -76 -85 -89 0
-8 -9 -52 -54 -94 0
-14 -55 -60 -71 -72 0
-4 -6 -77 -85 -90 0
-8 -9 -52 -54 -95 0
-14 -55 -60 -71 -72 0
-4 -6 -77 -85 -90 0
-8 -9 -52 -54 -95 0
-11 -56 -57 -71 -73 0
-4 -6 -74 -86 -87 0
-8 -10 -52 -54 -96 0
-11 -56 -57 -71 -73 0
-4 -6 -74 -86 -87 0
-8 -10 -52 -54 -96 0
-12 -56 -58 -71 -73 0
-4 -6 -75 -86 -88 0
-8 -10 -52 -54 -97 0
-12 -56 -58 -71 -73 0
-4 -6 -75 -86 -88 0
-8 -10 -52 -54 -97 0
-13 -56 -59 -71 -73 0
-4 -6 -76 -86 -89 0
-8 -10 -52 -54 -98 0
-13 -56 -59 -71 -73 0
-4 -6 -76 -86 -89 0
-8 -10 -52 -54 -98 0
-14 -56 -60 -71 -73 0
-4 -6 -77 -86 -90 0
-8 -10 -52 -54 -99 0
-14 -56 -60 -71 -73 0
-4 -6 -77 -86 -90 0
-8 -10 -52 -54 -99 0
-12 -57 -58 -71 -74 0
-4 -6 -75 -87 -88 0
-8 -11 -52 -54 -100 0
-12 -57 -58 -71 -74 0
-4 -6 -75 -87 -88 0
-8 -11 -52 -54 -100 0
-13 -57 -59 -71 -74 0
-4 -6 -76 -87 -89 0
-8 -11 -52 -54 -101 0
-13 -57 -59 -71 -74 0
-4 -6 -76 -87 -89 0
-8 -11 -52 -54 -101 0
-14 -57 -60 -71 -74 0
-4 -6 -77 -87 -90 0
-8 -11 -52 -54 -102 0
-14 -57 -60 -71 -74 0
-4 -6 -77 -87 -90 0
-8 -11 -52 -54 -102 0
-13 -58 -59 -71 -75 0
-4 -6 -76 -88 -89 0
-8 -12 -52 -54 -103 0
-13 -58 -59 -71 -75 0
-4 -6 -76 -88 -89 0
-8 -12 -52 -54 -103 0
-14 -58 -60 -71 -75 0
-4 -6 -77 -88 -90 0
-8 -12 -52 -54 -104 0
-14 -58 -60 -71 -75 0
-4 -6 -77 -88 -90 0
-8 -12 -52 -54 -104 0
-14 -59 -60 -71 -76 0
-4 -6 -77 -89 -90 0
-8 -13 -52 -54 -105 0
-14 -59 -60 -71 -76 0
-4 -6 -77 -89 -90 0
-8 -13 -52 -54 -105 0
-11 -56 -57 -72 -73 0
-4 -6 -74 -91 -92 0
-9 -10 -52 -55 -96 0
-11 -56 -57 -72 -73 0
-4 -6 -74 -91 -92 0
-9 -10 -52 -55 -96 0
-12 -56 -58 -72 -73 0
-4 -6 -75 -91 -93 0
-9 -10 -52 -55 -97 0
-12 -56 -58 -72 -73 0
-4 -6 -75 -91 -93 0
-9 -10 -52 -55 -97 0
-13 -56 -59 -72 -73 0
-4 -6 -76 -91 -94 0
-9 -10 -52 -55 -98 0
-13 -56 -59 -72 -73 0
-4 -6 -76 -91 -94 0
-9 -10 -52 -55 -98 0
-14 -56 -60 -72 -73 0
-4 -6 -77 -91 -95 0
-9 -10 -52 -55 -99 0
-14 -56 -60 -72 -73 0
-4 -6 -77 -91 -95 0
-9 -10 -52 -55 -99 0
-12 -57 -58 -72 -74 0
-4 -6 -75 -92 -93 0
-9 -11 -52 -55 -100 0
-12 -57 -58 -72 -74 0
-4 -6 -75 -92 -93 0
-9 -11 -52 -55 -100 0
-13 -57 -59 -72 -74 0
-4 -6 -76 -92 -94 0
-9 -11 -52 -55 -101 0
-13 -57 -59 -72 -74 0
-4 -6 -76 -92 -94 0
-9 -11 -52 -55 -101 0
-14 -57 -60 -72 -74 0
-4 -6 -77 -92 -95 0
-9 -11 -52 -55 -102 0
-14 -57 -60 -72 -74 0
-4 -6 -77 -92 -95 0
-9 -11 -52 -55 -102 0
-13 -58 -59 -72 -75 0
-4 -6 -76 -93 -94 0
-9 -12 -52 -55 -103 0
-13 -58 -59 -72 -75 0
-4 -6 -76 -93 -94 0
-9 -12 -52 -55 -103 0
-14 -58 -60 -72 -75 0
-4 -6 -77 -93 -95 0
-9 -12 -52 -55 -104 0
-14 -58 -60 -72 -75 0
-4 -6 -77 -93 -95 0
-9 -12 -52 -55 -104 0
-14 -59 -60 -72 -76 0
-4 -6 -77 -94 -95 0
-9 -13 -52 -55 -105 0
-14 -59 -60 -72 -76 0
-4 -6 -77 -94 -95 0
-9 -13 -52 -55 -105 0
-12 -57 -58 -73 -74 0
-4 -6 -75 -96 -97 0
-10 -11 -52 -56 -100 0
-12 -57 -58 -73 -74 0
-4 -6 -75 -96 -97 0
-10 -11 -52 -56 -100 0
-13 -57 -59 -73 -74 0
-4 -6 -76 -96 -98 0
-10 -11 -52 -56 -101 0
-13 -57 -59 -73 -74 0
-4 -6 -76 -96 -98 0
-10 -11 -52 -56 -101 0
-14 -57 -60 -73 -74 0
-4 -6 -77 -96 -99 0
-10 -11 -52 -56 -102 0
-14 -57 -60 -73 -74 0
-4 -6 -77 -96 -99 0
-10 -11 -52 -56 -102 0
-13 -58 -59 -73 -75 0
-4 -6 -76 -97 -98 0
-10 -12 -52 -56 -103 0
-13 -58 -59 -73 -75 0
-4 -6 -76 -97 -98 0
-10 -12 -52 -56 -103 0
-14 -58 -60 -73 -75 0
-4 -6 -77 -97 -99 0
-10 -12 -52 -56 -104 0
-14 -58 -60 -73 -75 0
-4 -6 -77 -97 -99 0
-10 -12 -52 -56 -104 0
-14 -59 -60 -73 -76 0
-4 -6 -77 -98 -99 0
-10 -13 -52 -56 -105 0
-14 -59 -60 -73 -76 0
-4 -6 -77 -98 -99 0
-10 -13 -52 -56 -105 0
-13 -58 -59 -74 -75 0
-4 -6 -76 -100 -101 0
-11 -12 -52 -57 -103 0
-13 -58 -59 -74 -75 0
-4 -6 -76 -100 -101 0
-11 -12 -52 -57 -103 0
-14 -58 -60 -74 -75 0
-4 -6 -77 -100 -102 0
-11 -12 -52 -57 -104 0
-14 -58 -60 -74 -75 0
-4 -6 -77 -100 -102 0
-11 -12 -52 -57 -104 0
-14 -59 -60 -74 -76 0
-4 -6 -77 -101 -102 0
-11 -13 -52 -57 -105 0
-14 -59 -60 -74 -76 0
-4 -6 -77 -101 -102 0
-11 -13 -52 -57 -105 0
-14 -59 -60 -75 -76 0
-4 -6 -77 -103 -104 0
-12 -13 -52 -58 -105 0
-14 -59 -60 -75 -76 0
-4 -6 -77 -103 -104 0
-12 -13 -52 -58 -105 0
-10 -55 -56 -78 -79 0
-4 -7 -80 -85 -86 0
-8 -9 -53 -54 -91 0
-10 -55 -56 -78 -79 0
-4 -7 -80 -85 -86 0
-8 -9 -53 -54 -91 0
-11 -55 -57 -78 -79 0
-4 -7 -81 -85 -87 0
-8 -9 -53 -54 -92 0
-11 -55 -57 -78 -79 0
-4 -7 -81 -85 -87 0
-8 -9 -53 -54 -92 0
-12 -55 -58 -78 -79 0
-4 -7 -82 -85 -88 0
-8 -9 -53 -54 -93 0
-12 -55 -58 -78 -79 0
-4 -7 -82 -85 -88 0
-8 -9 -53 -54 -93 0
-13 -55 -59 -78 -79 0
-4 -7 -83 -85 -89 0
-8 -9 -53 -54 -94 0
-13 -55 -59 -78 -79 0
-4 -7 -83 -85 -89 0
-8 -9 -53 -54 -94 0
-14 -55 -60 -78 -79 0
-4 -7 -84 -85 -90 0
-8 -9 -53 -54 -95 0
-14 -55 -60 -78 -79 0
-4 -7 -84 -85 -90 0
-8 -9 -53 -54 -95 0
-11 -56 -57 -78 -80 0
-4 -7 -81 -86 -87 0
-8 -10 -53 -54 -96 0
-11 -56 -57 -78 -80 0
-4 -7 -81 -86 -87 0
-8 -10 -53 -54 -96 0
-12 -56 -58 -78 -80 0
-4 -7 -82 -86 -88 0
-8 -10 -53 -54 -97 0
-12 -56 -58 -78 -80 0
-4 -7 -82 -86 -88 0
-8 -10 -53 -54 -97 0
-13 -56 -59 -78 -80 0
-4 -7 -83 -86 -89 0
-8 -10 -53 -54 -98 0
-13 -56 -59 -78 -80 0
-4 -7 -83 -86 -89 0
-8 -10 -53 -54 -98 0
-14 -56 -60 -78 -80 0
-4 -7 -84 -86 -90 0
-8 -10 -53 -54 -99 0
-14 -56 -60 -78 -80 0
-4 -7 -84 -86 -90 0
-8 -10 -53 -54 -99 0
-12 -57 -58 -78 -81 0
-4 -7 -82 -87 -88 0
-8 -11 -53 -54 -100 0
-12 -57 -58 -78 -81 0
-4 -7 -82 -87 -88 0
-8 -11 -53 -54 -100 0
-13 -57 -59 -78 -81 0
-4 -7 -83 -87 -89 0
-8 -11 -53 -54 -101 0
-13 -57 -59 -78 -81 0
-4 -7 -83 -87 -89 0
-8 -11 -53 -54 -101 0
-14 -57 -60 -78 -81 0
-4 -7 -84 -87 -90 0
-8 -11 -53 -54 -102 0
-14 -57 -60 -78 -81 0
-4 -7 -84 -87 -90 0
-8 -11 -53 -54 -102 0
-13 -58 -59 -78 -82 0
-4 -7 -83 -88 -89 0
-8 -12 -53 -54 -103 0
-13 -58 -59 -78 -82 0
-4 -7 -83 -88 -89 0
-8 -12 -53 -54 -103 0
-14 -58 -60 -78 -82 0
-4 -7 -84 -88 -90 0
-8 -12 -53 -54 -104 0
-14 -58 -60 -78 -82 0
-4 -7 -84 -88 -90 0
-8 -12 -53 -54 -104 0
-14 -59 -60 -78 -83 0
-4 -7 -84 -89 -90 0
-8 -13 -53 -54 -105 0
-14 -59 -60 -78 -83 0
-4 -7 -84 -89 -90 0
-8 -13 -53 -54 -105 0
-11 -56 -57 -79 -80 0
-4 -7 -81 -91 -92 0
-9 -10 -53 -55 -96 0
-11 -56 -57 -79 -80 0
-4 -7 -81 -91 -92 0
-9 -10 -53 -55 -96 0
-12 -56 -58 -79 -80 0
-4 -7 -82 -91 -93 0
-9 -10 -53 -55 -97 0
-12 -56 -58 -79 -80 0
-4 -7 -82 -91 -93 0
-9 -10 -53 -55 -97 0
-13 -56 -59 -79 -80 0
-4 -7 -83 -91 -94 0
-9 -10 -53 -55 -98 0
-13 -56 -59 -79 -80 0
-4 -7 -83 -91 -94 0
-9 -10 -53 -55 -98 0
-14 -56 -60 -79 -80 0
-4 -7 -84 -91 -95 0
-9 -10 -53 -55 -99 0
-14 -56 -60 -79 -80 0
-4 -7 -84 -91 -95 0
-9 -10 -53 -55 -99 0
-12 -57 -58 -79 -81 0
-4 -7 -82 -92 -93 0
-9 -11 -53 -55 -100 0
-12 -57 -58 -79 -81 0
-4 -7 -82 -92 -93 0
-9 -11 -53 -55 -100 0
-13 -57 -59 -79 -81 0
-4 -7 -83 -92 -94 0
-9 -11 -53 -55 -101 0
-13 -57 -59 -79 -81 0
-4 -7 -83 -92 -94 0
-9 -11 -53 -55 -101 0
-14 -57 -60 -79 -81 0
-4 -7 -84 -92 -95 0
-9 -11 -53 -55 -102 0
-14 -57 -60 -79 -81 0
-4 -7 -84 -92 -95 0
-9 -11 -53 -55 -102 0
-13 -58 -59 -79 -82 0
-4 -7 -83 -93 -94 0
-9 -12 -53 -55 -103 0
-13 -58 -59 -79 -82 0
-4 -7 -83 -93 -94 0
-9 -12 -53 -55 -103 0
-14 -58 -60 -79 -82 0
-4 -7 -84 -93 -95 0
-9 -12 -53 -55 -104 0
-14 -58 -60 -79 -82 0
-4 -7 -84 -93 -95 0
-9 -12 -53 -55 -104 0
-14 -59 -60 -79 -83 0
-4 -7 -84 -94 -95 0
-9 -13 -53 -55 -105 0
-14 -59 -60 -79 -83 0
-4 -7 -84 -94 -95 0
-9 -13 -53 -55 -105 0
-12 -57 -58 -80 -81 0
-4 -7 -82 -96 -97 0
-10 -11 -53 -56 -100 0
-12 -57 -58 -80 -81 0
-4 -7 -82 -96 -97 0
-10 -11 -53 -56 -100 0
-13 -57 -59 -80 -81 0
-4 -7 -83 -96 -98 0
-10 -11 -53 -56 -101 0
-13 -57 -59 -80 -81 0
-4 -7 -83 -96 -98 0
-10 -11 -53 -56 -101 0
-14 -57 -60 -80 -81 0
-4 -7 -84 -96 -99 0
-10 -11 -53 -56 -102 0
-14 -57 -60 -80 -81 0
-4 -7 -84 -96 -99 0
-10 -11 -53 -56 -102 0
-13 -58 -59 -80 -82 0
-4 -7 -83 -97 -98 0
-10 -12 -53 -56 -103 0
-13 -58 -59 -80 -82 0
-4 -7 -83 -97 -98 0
-10 -12 -53 -56 -103 0
-14 -58 -60 -80 -82 0
-4 -7 -84 -97 -99 0
-10 -12 -53 -56 -104 0
-14 -58 -60 -80 -82 0
-4 -7 -84 -97 -99 0
-10 -12 -53 -56 -104 0
-14 -59 -60 -80 -83 0
-4 -7 -84 -98 -99 0
-10 -13 -53 -56 -105 0
-14 -59 -60 -80 -83 0
-4 -7 -84 -98 -99 0
-10 -13 -53 -56 -105 0
-13 -58 -59 -81 -82 0
-4 -7 -83 -100 -101 0
-11 -12 -53 -57 -103 0
-13 -58 -59 -81 -82 0
-4 -7 -83 -100 -101 0
-11 -12 -53 -57 -103 0
-14 -58 -60 -81 -82 0
-4 -7 -84 -100 -102 0
-11 -12 -53 -57 -104 0
-14 -58 -60 -81 -82 0
-4 -7 -84 -100 -102 0
-11 -12 -53 -57 -104 0
-14 -59 -60 -81 -83 0
-4 -7 -84 -101 -102 0
-11 -13 -53 -57 -105 0
-14 -59 -60 -81 -83 0
-4 -7 -84 -101 -102 0
-11 -13 -53 -57 -105 0
-14 -59 -60 -82 -83 0
-4 -7 -84 -103 -104 0
-12 -13 -53 -58 -105 0
-14 -59 -60 -82 -83 0
-4 -7 -84 -103 -104 0
-12 -13 -53 -58 -105 0
-11 -56 -57 -85 -86 0
-4 -8 -87 -91 -92 0
-9 -10 -54 -55 -96 0
-11 -56 -57 -85 -86 0
-4 -8 -87 -91 -92 0
-9 -10 -54 -55 -96 0
-12 -56 -58 -85 -86 0
-4 -8 -88 -91 -93 0
-9 -10 -54 -55 -97 0
-12 -56 -58 -85 -86 0
-4 -8 -88 -91 -93 0
-9 -10 -54 -55 -97 0
-13 -56 -59 -85 -86 0
-4 -8 -89 -91 -94 0
-9 -10 -54 -55 -98 0
-13 -56 -59 -85 -86 0
-4 -8 -89 -91 -94 0
-9 -10 -54 -55 -98 0
-14 -56 -60 -85 -86 0
-4 -8 -90 -91 -95 0
-9 -10 -54 -55 -99 0
-14 -56 -60 -85 -86 0
-4 -8 -90 -91 -95 0
-9 -10 -54 -55 -99 0
-12 -57 -58 -85 -87 0
-4 -8 -88 -92 -93 0
-9 -11 -54 -55 -100 0
-12 -57 -58 -85 -87 0
-4 -8 -88 -92 -93 0
-9 -11 -54 -55 -100 0
-13 -57 -59 -85 -87 0
-4 -8 -89 -92 -94 0
-9 -11 -54 -55 -101 0
-13 -57 -59 -85 -87 0
-4 -8 -89 -92 -94 0
-9 -11 -54 -55 -101 0
-14 -57 -60 -85 -87 0
-4 -8 -90 -92 -95 0
-9 -11 -54 -55 -102 0
-14 -57 -60 -85 -87 0
-4 -8 -90 -92 -95 0
-9 -11 -54 -55 -102 0
-13 -58 -59 -85 -88 0
-4 -8 -89 -93 -94 0
-9 -12 -54 -55 -103 0
-13 -58 -59 -85 -88 0
-4 -8 -89 -93 -94 0
-9 -12 -54 -55 -103 0
-14 -58 -60 -85 -88 0
-4 -8 -90 -93 -95 0
-9 -12 -54 -55 -104 0
-14 -58 -60 -85 -88 0
-4 -8 -90 -93 -95 0
-9 -12 -54 -55 -104 0
-14 -59 -60 -85 -89 0
-4 -8 -90 -94 -95 0
-9 -13 -54 -55 -105 0
-14 -59 -60 -85 -89 0
-4 -8 -90 -94 -95 0
-9 -13 -54 -55 -105 0
-12 -57 -58 -86 -87 0
-4 -8 -88 -96 -97 0
-10 -11 -54 -56 -100 0
-12 -57 -58 -86 -87 0
-4 -8 -88 -96 -97 0
-10 -11 -54 -56 -100 0
-13 -57 -59 -86 -87 0
-4 -8 -89 -96 -98 0
-10 -11 -54 -56 -101 0
-13 -57 -59 -86 -87 0
-4 -8 -89 -96 -98 0
-10 -11 -54 -56 -101 0
-14 -57 -60 -86 -87 0
-4 -8 -90 -96 -99 0
-10 -11 -54 -56 -102 0
-14 -57 -60 -86 -87 0
-4 -8 -90 -96 -99 0
-10 -11 -54 -56 -102 0
-13 -58 -59 -86 -88 0
-4 -8 -89 -97 -98 0
-10 -12 -54 -56 -103 0
-13 -58 -59 -86 -88 0
-4 -8 -89 -97 -98 0
-10 -12 -54 -56 -103 0
-14 -58 -60 -86 -88 0
-4 -8 -90 -97 -99 0
-10 -12 -54 -56 -104 0
-14 -58 -60 -86 -88 0
-4 -8 -90 -97 -99 0
-10 -12 -54 -56 -104 0
-14 -59 -60 -86 -89 0
-4 -8 -90 -98 -99 0
-10 -13 -54 -56 -105 0
-14 -59 -60 -86 -89 0
-4 -8 -90 -98 -99 0
-10 -13 -54 -56 -105 0
-13 -58 -59 -87 -88 0
-4 -8 -89 -100 -101 0
-11 -12 -54 -57 -103 0
-13 -58 -59 -87 -88 0
-4 -8 -89 -100 -101 0
-11 -12 -54 -57 -103 0
-14 -58 -60 -87 -88 0
-4 -8 -90 -100 -102 0
-11 -12 -54 -57 -104 0
-14 -58 -60 -87 -88 0
-4 -8 -90 -100 -102 0
-11 -12 -54 -57 -104 0
-14 -59 -60 -87 -89 0
-4 -8 -90 -101 -102 0
-11 -13 -54 -57 -105 0
-14 -59 -60 -87 -89 0
-4 -8 -90 -101 -102 0
-11 -13 -54 -57 -105 0
-14 -59 -60 -88 -89 0
-4 -8 -90 -103 -104 0
-12 -13 -54 -58 -105 0
-14 -59 -60 -88 -89 0
-4 -8 -90 -103 -104 0
-12 -13 -54 -58 -105 0
-12 -57 -58 -91 -92 0
-4 -9 -93 -96 -97 0
-10 -11 -55 -56 -100 0
-12 -57 -58 -91 -92 0
-4 -9 -93 -96 -97 0
-10 -11 -55 -56 -100 0
-13 -57 -59 -91 -92 0
-4 -9 -94 -96 -98 0
-10 -11 -55 -56 -101 0
-13 -57 -59 -91 -92 0
-4 -9 -94 -96 -98 0
-10 -11 -55 -56 -101 0
-14 -57 -60 -91 -92 0
-4 -9 -95 -96 -99 0
-10 -11 -55 -56 -102 0
-14 -57 -60 -91 -92 0
-4 -9 -95 -96 -99 0
-10 -11 -55 -56 -102 0
-13 -58 -59 -91 -93 0
-4 -9 -94 -97 -98 0
-10 -12 -55 -56 -103 0
-13 -58 -59 -91 -93 0
-4 -9 -94 -97 -98 0
-10 -12 -55 -56 -103 0
-14 -58 -60 -91 -93 0
-4 -9 -95 -97 -99 0
-10 -12 -55 -56 -104 0
-14 -58 -60 -91 -93 0
-4 -9 -95 -97 -99 0
-10 -12 -55 -56 -104 0
-14 -59 -60 -91 -94 0
-4 -9 -95 -98 -99 0
-10 -13 -55 -56 -105 0
-14 -59 -60 -91 -94 0
-4 -9 -95 -98 -99 0
-10 -13 -55 -56 -105 0
-13 -58 -59 -92 -93 0
-4 -9 -94 -100 -101 0
-11 -12 -55 -57 -103 0
-13 -58 -59 -92 -93 0
-4 -9 -94 -100 -101 0
-11 -12 -55 -57 -103 0
-14 -58 -60 -92 -93 0
-4 -9 -95 -100 -102 0
-11 -12 -55 -57 -104 0
-14 -58 -60 -92 -93 0
-4 -9 -95 -100 -102 0
-11 -12 -55 -57 -104 0
-14 -59 -60 -92 -94 0
-4 -9 -95 -101 -102 0
-11 -13 -55 -57 -105 0
-14 -59 -60 -92 -94 0
-4 -9 -95 -101 -102 0
-11 -13 -55 -57 -105 0
-14 -59 -60 -93 -94 0
-4 -9 -95 -103 -104 0
-12 -13 -55 -58 -105 0
-14 -59 -60 -93 -94 0
-4 -9 -95 -103 -104 0
-12 -13 -55 -58 -105 0
-13 -58 -59 -96 -97 0
-4 -10 -98 -100 -101 0
-11 -12 -56 -57 -103 0
-13 -58 -59 -96 -97 0
-4 -10 -98 -100 -101 0
-11 -12 -56 -57 -103 0
-14 -58 -60 -96 -97 0
-4 -10 -99 -100 -102 0
-11 -12 -56 -57 -104 0
-14 -58 -60 -96 -97 0
-4 -10 -99 -100 -102 0
-11 -12 -56 -57 -104 0
-14 -59 -60 -96 -98 0
-4 -10 -99 -101 -102 0
-11 -13 -56 -57 -105 0
-14 -59 -60 -96 -98 0
-4 -10 -99 -101 -102 0
-11 -13 -56 -57 -105 0
-14 -59 -60 -97 -98 0
-4 -10 -99 -103 -104 0
-12 -13 -56 -58 -105 0
-14 -59 -60 -97 -98 0
-4 -10 -99 -103 -104 0
-12 -13 -56 -58 -105 0
-14 -59 -60 -100 -101 0
-4 -11 -102 -103 -104 0
-12 -13 -57 -58 -105 0
-14 -59 -60 -100 -101 0
-4 -11 -102 -103 -104 0
-12 -13 -57 -58 -105 0
-9 -63 -64 -70 -71 0
-5 -6 -72 -78 -79 0
-7 -8 -61 -62 -85 0
-9 -63 -64 -70 -71 0
-5 -6 -72 -78 -79 0
-7 -8 -61 -62 -85 0
-10 -63 -65 -70 -71 0
-5 -6 -73 -78 -80 0
-7 -8 -61 -62 -86 0
-10 -63 -65 -70 -71 0
-5 -6 -73 -78 -80 0
-7 -8 -61 -62 -86 0
-11 -63 -66 -70 -71 0
-5 -6 -74 -78 -81 0
-7 -8 -61 -62 -87 0
-11 -63 -66 -70 -71 0
-5 -6 -74 -78 -81 0
-7 -8 -61 -62 -87 0
-12 -63 -67 -70 -71 0
-5 -6 -75 -78 -82 0
-7 -8 -61 -62 -88 0
-12 -63 -67 -70 -71 0
-5 -6 -75 -78 -82 0
-7 -8 -61 -62 -88 0
-13 -63 -68 -70 -71 0
-5 -6 -76 -78 -83 0
-7 -8 -61 -62 -89 0
-13 -63 -68 -70 -71 0
-5 -6 -76 -78 -83 0
-7 -8 -61 -62 -89 0
-14 -63 -69 -70 -71 0
-5 -6 -77 -78 -84 0
-7 -8 -61 -62 -90 0
-14 -63 -69 -70 -71 0
-5 -6 -77 -78 -84 0
-7 -8 -61 -62 -90 0
-10 -64 -65 -70 -72 0
-5 -6 -73 -79 -80 0
-7 -9 -61 -62 -91 0
-10 -64 -65 -70 -72 0
-5 -6 -73 -79 -80 0
-7 -9 -61 -62 -91 0
-11 -64 -66 -70 -72 0
-5 -6 -74 -79 -81 0
-7 -9 -61 -62 -92 0
-11 -64 -66 -70 -72 0
-5 -6 -74 -79 -81 0
-7 -9 -61 -62 -92 0
-12 -64 -67 -70 -72 0
-5 -6 -75 -79 -82 0
-7 -9 -61 -62 -93 0
-12 -64 -67 -70 -72 0
-5 -6 -75 -79 -82 0
-7 -9 -61 -62 -93 0
-13 -64 -68 -70 -72 0
-5 -6 -76 -79 -83 0
-7 -9 -61 -62 -94 0
-13 -64 -68 -70 -72 0
-5 -6 -76 -79 -83 0
-7 -9 -61 -62 -94 0
-14 -64 -69 -70 -72 0
-5 -6 -77 -79 -84 0
-7 -9 -61 -62 -95 0
-14 -64 -69 -70 -72 0
-5 -6 -77 -79 -84 0
-7 -9 -61 -62 -95 0
-11 -65 -66 -70 -73 0
-5 -6 -74 -80 -81 0
-7 -10 -61 -62 -96 0
-11 -65 -66 -70 -73 0
-5 -6 -74 -80 -81 0
-7 -10 -61 -62 -96 0
-12 -65 -67 -70 -73 0
-5 -6 -75 -80 -82 0
-7 -10 -61 -62 -97 0
-12 -65 -67 -70 -73 0
-5 -6 -75 -80 -82 0
-7 -10 -61 -62 -97 0
-13 -65 -68 -70 -73 0
-5 -6 -76 -80 -83 0
-7 -10 -61 -62 -98 0
-13 -65 -68 -70 -73 0
-5 -6 -76 -80 -83 0
-7 -10 -61 -62 -98 0
-14 -65 -69 -70 -73 0
-5 -6 -77 -80 -84 0
-7 -10 -61 -62 -99 0
-14 -65 -69 -70 -73 0
-5 -6 -77 -80 -84 0
-7 -10 -61 -62 -99 0
-12 -66 -67 -70 -74 0
-5 -6 -75 -81 -82 0
-7 -11 -61 -62 -100 0
-12 -66 -67 -70 -74 0
-5 -6 -75 -81 -82 0
-7 -11 -61 -62 -100 0
-13 -66 -68 -70 -74 0
-5 -6 -76 -81 -83 0
-7 -11 -61 -62 -101 0
-13 -66 -68 -70 -74 0
-5 -6 -76 -81 -83 0
-7 -11 -61 -62 -101 0
-14 -66 -69 -70 -74 0
-5 -6 -77 -81 -84 0
-7 -11 -61 -62 -102 0
-14 -66 -69 -70 -74 0
-5 -6 -77 -81 -84 0
-7 -11 -61 -62 -102 0
-13 -67 -68 -70 -75 0
-5 -6 -76 -82 -83 0
-7 -12 -61 -62 -103 0
-13 -67 -68 -70 -75 0
-5 -6 -76 -82 -83 0
-7 -12 -61 -62 -103 0
-14 -67 -69 -70 -75 0
-5 -6 -77 -82 -84 0
-7 -12 -61 -62 -104 0
-14 -67 -69 -70 -75 0
-5 -6 -77 -82 -84 0
-7 -12 -61 -62 -104 0
-14 -68 -69 -70 -76 0
-5 -6 -77 -83 -84 0
-7 -13 -61 -62 -105 0
-14 -68 -69 -70 -76 0
-5 -6 -77 -83 -84 0
-7 -13 -61 -62 -105 0
-10 -64 -65 -71 -72 0
-5 -6 -73 -85 -86 0
-8 -9 -61 -63 -91 0
-10 -64 -65 -71 -72 0
-5 -6 -73 -85 -86 0
-8 -9 -61 -63 -91 0
-11 -64 -66 -71 -72 0
-5 -6 -74 -85 -87 0
-8 -9 -61 -63 -92 0
-11 -64 -66 -71 -72 0
-5 -6 -74 -85 -87 0
-8 -9 -61 -63 -92 0
-12 -64 -67 -71 -72 0
-5 -6 -75 -85 -88 0
-8 -9 -61 -63 -93 0
-12 -64 -67 -71 -72 0
-5 -6 -75 -85 -88 0
-8 -9 -61 -63 -93 0
-13 -64 -68 -71 -72 0
-5 -6 -76 -85 -89 0
-8 -9 -61 -63 -94 0
-13 -64 -68 -71 -72 0
-5 -6 -76 -85 -89 0
-8 -9 -61 -63 -94 0
-14 -64 -69 -71 -72 0
-5 -6 -77 -85 -90 0
-8 -9 -61 -63 -95 0
-14 -64 -69 -71 -72 0
-5 -6 -77 -85 -90 0
-8 -9 -61 -63 -95 0
-11 -65 -66 -71 -73 0
-5 -6 -74 -86 -87 0
-8 -10 -61 -63 -96 0
-11 -65 -66 -71 -73 0
-5 -6 -74 -86 -87 0
-8 -10 -61 -63 -96 0
-12 -65 -67 -71 -73 0
-5 -6 -75 -86 -88 0
-8 -10 -61 -63 -97 0
-12 -65 -67 -71 -73 0
-5 -6 -75 -86 -88 0
-8 -10 -61 -63 -97 0
-13 -65 -68 -71 -73 0
-5 -6 -76 -86 -89 0
-8 -10 -61 -63 -98 0
-13 -65 -68 -71 -73 0
-5 -6 -76 -86 -89 0
-8 -10 -61 -63 -98 0
-14 -65 -69 -71 -73 0
-5 -6 -77 -86 -90 0
-8 -10 -61 -63 -99 0
-14 -65 -69 -71 -73 0
-5 -6 -77 -86 -90 0
-8 -10 -61 -63 -99 0
-12 -66 -67 -71 -74 0
-5 -6 -75 -87 -88 0
-8 -11 -61 -63 -100 0
-12 -66 -67 -71 -74 0
-5 -6 -75 -87 -88 0
-8 -11 -61 -63 -100 0
-13 -66 -68 -71 -74 0
-5 -6 -76 -87 -89 0
-8 -11 -61 -63 -101 0
-13 -66 -68 -71 -74 0
-5 -6 -76 -87 -89 0
-8 -11 -61 -63 -101 0
-14 -66 -69 -71 -74 0
-5 -6 -77 -87 -90 0
-8 -11 -61 -63 -102 0
-14 -66 -69 -71 -74 0
-5 -6 -77 -87 -90 0
-8 -11 -61 -63 -102 0
-13 -67 -68 -71 -75 0
-5 -6 -76 -88 -89 0
-8 -12 -61 -63 -103 0
-13 -67 -68 -71 -75 0
-5 -6 -76 -88 -89 0
-8 -12 -61 -63 -103 0
-14 -67 -69 -71 -75 0
-5 -6 -77 -88 -90 0
-8 -12 -61 -63 -104 0
-14 -67 -69 -71 -75 0
-5 -6 -77 -88 -90 0
-8 -12 -61 -63 -104 0
-14 -68 -69 -71 -76 0
-5 -6 -77 -89 -90 0
-8 -13 -61 -63 -105 0
-14 -68 -69 -71 -76 0
-5 -6 -77 -89 -90 0
-8 -13 -61 -63 -105 0
-11 -65 -66 -72 -73 0
-5 -6 -74 -91 -92 0
-9 -10 -61 -64 -96 0
-11 -65 -66 -72 -73 0
-5 -6 -74 -91 -92 0
-9 -10 -61 -64 -96 0
-12 -65 -67 -72 -73 0
-5 -6 -75 -91 -93 0
-9 -10 -61 -64 -97 0
-12 -65 -67 -72 -73 0
-5 -6 -75 -91 -93 0
-9 -10 -61 -64 -97 0
-13 -65 -68 -72 -73 0
-5 -6 -76 -91 -94 0
-9 -10 -61 -64 -98 0
-13 -65 -68 -72 -73 0
-5 -6 -76 -91 -94 0
-9 -10 -61 -64 -98 0
-14 -65 -69 -72 -73 0
-5 -6 -77 -91 -95 0
-9 -10 -61 -64 -99 0
-14 -65 -69 -72 -73 0
-5 -6 -77 -91 -95 0
-9 -10 -61 -64 -99 0
-12 -66 -67 -72 -74 0
-5 -6 -75 -92 -93 0
-9 -11 -61 -64 -100 0
-12 -66 -67 -72 -74 0
-5 -6 -75 -92 -93 0
-9 -11 -61 -64 -100 0
-13 -66 -68 -72 -74 0
-5 -6 -76 -92 -94 0
-9 -11 -61 -64 -101 0
-13 -66 -68 -72 -74 0
-5 -6 -76 -92 -94 0
-9 -11 -61 -64 -101 0
-14 -66 -69 -72 -74 0
-5 -6 -77 -92 -95 0
-9 -11 -61 -64 -102 0
-14 -66 -69 -72 -74 0
-5 -6 -77 -92 -95 0
-9 -11 -61 -64 -102 0
-13 -67 -68 -72 -75 0
-5 -6 -76 -93 -94 0
-9 -12 -61 -64 -103 0
-13 -67 -68 -72 -75 0
-5 -6 -76 -93 -94 0
-9 -12 -61 -64 -103 0
-14 -67 -69 -72 -75 0
-5 -6 -77 -93 -95 0
-9 -12 -61 -64 -104 0
-14 -67 -69 -72 -75 0
-5 -6 -77 -93 -95 0
-9 -12 -61 -64 -104 0
-14 -68 -69 -72 -76 0
-5 -6 -77 -94 -95 0
-9 -13 -61 -64 -105 0
-14 -68 -69 -72 -76 0
-5 -6 -77 -94 -95 0
-9 -13 -61 -64 -105 0
-12 -66 -67 -73 -74 0
-5 -6 -75 -96 -97 0
-10 -11 -61 -65 -100 0
-12 -66 -67 -73 -74 0
-5 -6 -75 -96 -97 0
-10 -11 -61 -65 -100 0
-13 -66 -68 -73 -74 0
-5 -6 -76 -96 -98 0
-10 -11 -61 -65 -101 0
-13 -66 -68 -73 -74 0
-5 -6 -76 -96 -98 0
-10 -11 -61 -65 -101 0
-14 -66 -69 -73 -74 0
-5 -6 -77 -96 -99 0
-10 -11 -61 -65 -102 0
-14 -66 -69 -73 -74 0
-5 -6 -77 -96 -99 0
-10 -11 -61 -65 -102 0
-13 -67 -68 -73 -75 0
-5 -6 -76 -97 -98 0
-10 -12 -61 -65 -103 0
-13 -67 -68 -73 -75 0
-5 -6 -76 -97 -98 0
-10 -12 -61 -65 -103 0
-14 -67 -69 -73 -75 0
-5 -6 -77 -97 -99 0
-10 -12 -61 -65 -104 0
-14 -67 -69 -73 -75 0
-5 -6 -77 -97 -99 0
-10 -12 -61 -65 -104 0
-14 -68 -69 -73 -76 0
-5 -6 -77 -98 -99 0
-10 -13 -61 -65 -105 0
-14 -68 -69 -73 -76 0
-5 -6 -77 -98 -99 0
-10 -13 -61 -65 -105 0
-13 -67 -68 -74 -75 0
-5 -6 -76 -100 -101 0
-11 -12 -61 -66 -103 0
-13 -67 -68 -74 -75 0
-5 -6 -76 -100 -101 0
-11 -12 -61 -66 -103 0
-14 -67 -69 -74 -75 0
-5 -6 -77 -100 -102 0
-11 -12 -61 -66 -104 0
-14 -67 -69 -74 -75 0
-5 -6 -77 -100 -102 0
-11 -12 -61 -66 -104 0
-14 -68 -69 -74 -76 0
-5 -6 -77 -101 -102 0
-11 -13 -61 -66 -105 0
-14 -68 -69 -74 -76 0
-5 -6 -77 -101 -102 0
-11 -13 -61 -66 -105 0
-14 -68 -69 -75 -76 0
-5 -6 -77 -103 -104 0
-12 -13 -61 -67 -105 0
-14 -68 -69 -75 -76 0
-5 -6 -77 -103 -104 0
-12 -13 -61 -67 -105 0
-10 -64 -65 -78 -79 0
-5 -7 -80 -85 -86 0
-8 -9 -62 -63 -91 0
-10 -64 -65 -78 -79 0
-5 -7 -80 -85 -86 0
-8 -9 -62 -63 -91 0
-11 -64 -66 -78 -79 0
-5 -7 -81 -85 -87 0
-8 -9 -62 -63 -92 0
-11 -64 -66 -78 -79 0
-5 -7 -81 -85 -87 0
-8 -9 -62 -63 -92 0
-12 -64 -67 -78 -79 0
-5 -7 -82 -85 -88 0
-8 -9 -62 -63 -93 0
-12 -64 -67 -78 -79 0
-5 -7 -82 -85 -88 0
-8 -9 -62 -63 -93 0
-13 -64 -68 -78 -79 0
-5 -7 -83 -85 -89 0
-8 -9 -62 -63 -94 0
-13 -64 -68 -78 -79 0
-5 -7 -83 -85 -89 0
-8 -9 -62 -63 -94 0
-14 -64 -69 -78 -79 0
-5 -7 -84 -85 -90 0
-8 -9 -62 -63 -95 0
-14 -64 -69 -78 -79 0
-5 -7 -84 -85 -90 0
-8 -9 -62 -63 -95 0
-11 -65 -66 -78 -80 0
-5 -7 -81 -86 -87 0
-8 -10 -62 -63 -96 0
-11 -65 -66 -78 -80 0
-5 -7 -81 -86 -87 0
-8 -10 -62 -63 -96 0
-12 -65 -67 -78 -80 0
-5 -7 -82 -86 -88 0
-8 -10 -62 -63 -97 0
-12 -65 -67 -78 -80 0
-5 -7 -82 -86 -88 0
-8 -10 -62 -63 -97 0
-13 -65 -68 -78 -80 0
-5 -7 -83 -86 -89 0
-8 -10 -62 -63 -98 0
-13 -65 -68 -78 -80 0
-5 -7 -83 -86 -89 0
-8 -10 -62 -63 -98 0
-14 -65 -69 -78 -80 0
-5 -7 -84 -86 -90 0
-8 -10 -62 -63 -99 0
-14 -65 -69 -78 -80 0
-5 -7 -84 -86 -90 0
-8 -10 -62 -63 -99 0
-12 -66 -67 -78 -81 0
-5 -7 -82 -87 -88 0
-8 -11 -62 -63 -100 0
-12 -66 -67 -78 -81 0
-5 -7 -82 -87 -88 0
-8 -11 -62 -63 -100 0
-13 -66 -68 -78 -81 0
-5 -7 -83 -87 -89 0
-8 -11 -62 -63 -101 0
-13 -66 -68 -78 -81 0
-5 -7 -83 -87 -89 0
-8 -11 -62 -63 -101 0
-14 -66 -69 -78 -81 0
-5 -7 -84 -87 -90 0
-8 -11 -62 -63 -102 0
-14 -66 -69 -78 -81 0
-5 -7 -84 -87 -90 0
-8 -11 -62 -63 -102 0
-13 -67 -68 -78 -82 0
-5 -7 -83 -88 -89 0
-8 -12 -62 -63 -103 0
-13 -67 -68 -78 -82 0
-5 -7 -83 -88 -89 0
-8 -12 -62 -63 -103 0
-14 -67 -69 -78 -82 0
-5 -7 -84 -88 -90 0
-8 -12 -62 -63 -104 0
-14 -67 -69 -78 -82 0
-5 -7 -84 -88 -90 0
-8 -12 -62 -63 -104 0
-14 -68 -69 -78 -83 0
-5 -7 -84 -89 -90 0
-8 -13 -62 -63 -105 0
-14 -68 -69 -78 -83 0
-5 -7 -84 -89 -90 0
-8 -13 -62 -63 -105 0
-11 -65 -66 -79 -80 0
-5 -7 -81 -91 -92 0
-9 -10 -62 -64 -96 0
-11 -65 -66 -79 -80 0
-5 -7 -81 -91 -92 0
-9 -10 -62 -64 -96 0
-12 -65 -67 -79 -80 0
-5 -7 -82 -91 -93 0
-9 -10 -62 -64 -97 0
-12 -65 -67 -79 -80 0
-5 -7 -82 -91 -93 0
-9 -10 -62 -64 -97 0
-13 -65 -68 -79 -80 0
-5 -7 -83 -91 -94 0
-9 -10 -62 -64 -98 0
-13 -65 -68 -79 -80 0
-5 -7 -83 -91 -94 0
-9 -10 -62 -64 -98 0
-14 -65 -69 -79 -80 0
-5 -7 -84 -91 -95 0
-9 -10 -62 -64 -99 0
-14 -65 -69 -79 -80 0
-5 -7 -84 -91 -95 0
-9 -10 -62 -64 -99 0
-12 -66 -67 -79 -81 0
-5 -7 -82 -92 -93 0
-9 -11 -62 -64 -100 0
-12 -66 -67 -79 -81 0
-5 -7 -82 -92 -93 0
-9 -11 -62 -64 -100 0
-13 -66 -68 -79 -81 0
-5 -7 -83 -92 -94 0
-9 -11 -62 -64 -101 0
-13 -66 -68 -79 -81 0
-5 -7 -83 -92 -94 0
-9 -11 -62 -64 -101 0
-14 -66 -69 -79 -81 0
-5 -7 -84 -92 -95 0
-9 -11 -62 -64 -102 0
-14 -66 -69 -79 -81 0
-5 -7 -84 -92 -95 0
-9 -11 -62 -64 -102 0
-13 -67 -68 -79 -82 0
-5 -7 -83 -93 -94 0
-9 -12 -62 -64 -103 0
-13 -67 -68 -79 -82 0
-5 -7 -83 -93 -94 0
-9 -12 -62 -64 -103 0
-14 -67 -69 -79 -82 0
-5 -7 -84 -93 -95 0
-9 -12 -62 -64 -104 0
-14 -67 -69 -79 -82 0
-5 -7 -84 -93 -95 0
-9 -12 -62 -64 -104 0
-14 -68 -69 -79 -83 0
-5 -7 -84 -94 -95 0
-9 -13 -62 -64 -105 0
-14 -68 -69 -79 -83 0
-5 -7 -84 -94 -95 0
-9 -13 -62 -64 -105 0
-12 -66 -67 -80 -81 0
-5 -7 -82 -96 -97 0
-10 -11 -62 -65 -100 0
-12 -66 -67 -80 -81 0
-5 -7 -82 -96 -97 0
-10 -11 -62 -65 -100 0
-13 -66 -68 -80 -81 0
-5 -7 -83 -96 -98 0
-10 -11 -62 -65 -101 0
-13 -66 -68 -80 -81 0
-5 -7 -83 -96 -98 0
-10 -11 -62 -65 -101 0
-14 -66 -69 -80 -81 0
-5 -7 -84 -96 -99 0
-10 -11 -62 -65 -102 0
-14 -66 -69 -80 -81 0
-5 -7 -84 -96 -99 0
-10 -11 -62 -65 -102 0
-13 -67 -68 -80 -82 0
-5 -7 -83 -97 -98 0
-10 -12 -62 -65 -103 0
-13 -67 -68 -80 -82 0
-5 -7 -83 -97 -98 0
-10 -12 -62 -65 -103 0
-14 -67 -69 -80 -82 0
-5 -7 -84 -97 -99 0
-10 -12 -62 -65 -104 0
-14 -67 -69 -80 -82 0
-5 -7 -84 -97 -99 0
-10 -12 -62 -65 -104 0
-14 -68 -69 -80 -83 0
-5 -7 -84 -98 -99 0
-10 -13 -62 -65 -105 0
-14 -68 -69 -80 -83 0
-5 -7 -84 -98 -99 0
-10 -13 -62 -65 -105 0
-13 -67 -68 -81 -82 0
-5 -7 -83 -100 -101 0
-11 -12 -62 -66 -103 0
-13 -67 -68 -81 -82 0
-5 -7 -83 -100 -101 0
-11 -12 -62 -66 -103 0
-14 -67 -69 -81 -82 0
-5 -7 -84 -100 -102 0
-11 -12 -62 -66 -104 0
-14 -67 -69 -81 -82 0
-5 -7 -84 -100 -102 0
-11 -12 -62 -66 -104 0
-14 -68 -69 -81 -83 0
-5 -7 -84 -101 -102 0
-11 -13 -62 -66 -105 0
-14 -68 -69 -81 -83 0
-5 -7 -84 -101 -102 0
-11 -13 -62 -66 -105 0
-14 -68 -69 -82 -83 0
-5 -7 -84 -103 -104 0
-12 -13 -62 -67 -105 0
-14 -68 -69 -82 -83 0
-5 -7 -84 -103 -104 0
-12 -13 -62 -67 -105 0
-11 -65 -66 -85 -86 0
-5 -8 -87 -91 -92 0
-9 -10 -63 -64 -96 0
-11 -65 -66 -85 -86 0
-5 -8 -87 -91 -92 0
-9 -10 -63 -64 -96 0
-12 -65 -67 -85 -86 0
-5 -8 -88 -91 -93 0
-9 -10 -63 -64 -97 0
-12 -65 -67 -85 -86 0
-5 -8 -88 -91 -93 0
-9 -10 -63 -64 -97 0
-13 -65 -68 -85 -86 0
-5 -8 -89 -91 -94 0
-9 -10 -63 -64 -98 0
-13 -65 -68 -85 -86 0
-5 -8 -89 -91 -94 0
-9 -10 -63 -64 -98 0
-14 -65 -69 -85 -86 0
-5 -8 -90 -91 -95 0
-9 -10 -63 -64 -99 0
-14 -65 -69 -85 -86 0
-5 -8 -90 -91 -95 0
-9 -10 -63 -64 -99 0
-12 -66 -67 -85 -87 0
-5 -8 -88 -92 -93 0
-9 -11 -63 -64 -100 0
-12 -66 -67 -85 -87 0
-5 -8 -88 -92 -93 0
-9 -11 -63 -64 -100 0
-13 -66 -68 -85 -87 0
-5 -8 -89 -92 -94 0
-9 -11 -63 -64 -101 0
-13 -66 -68 -85 -87 0
-5 -8 -89 -92 -94 0
-9 -11 -63 -64 -101 0
-14 -66 -69 -85 -87 0
-5 -8 -90 -92 -95 0
-9 -11 -63 -64 -102 0
-14 -66 -69 -85 -87 0
-5 -8 -90 -92 -95 0
-9 -11 -63 -64 -102 0
-13 -67 -68 -85 -88 0
-5 -8 -89 -93 -94 0
-9 -12 -63 -64 -103 0
-13 -67 -68 -85 -88 0
-5 -8 -89 -93 -94 0
-9 -12 -63 -64 -103 0
-14 -67 -69 -85 -88 0
-5 -8 -90 -93 -95 0
-9 -12 -63 -64 -104 0
-14 -67 -69 -85 -88 0
-5 -8 -90 -93 -95 0
-9 -12 -63 -64 -104 0
-14 -68 -69 -85 -89 0
-5 -8 -90 -94 -95 0
-9 -13 -63 -64 -105 0
-14 -68 -69 -85 -89 0
-5 -8 -90 -94 -95 0
-9 -13 -63 -64 -105 0
-12 -66 -67 -86 -87 0
-5 -8 -88 -96 -97 0
-10 -11 -63 -65 -100 0
-12 -66 -67 -86 -87 0
-5 -8 -88 -96 -97 0
-10 -11 -63 -65 -100 0
-13 -66 -68 -86 -87 0
-5 -8 -89 -96 -98 0
-10 -11 -63 -65 -101 0
-13 -66 -68 -86 -87 0
-5 -8 -89 -96 -98 0
-10 -11 -63 -65 -101 0
-14 -66 -69 -86 -87 0
-5 -8 -90 -96 -99 0
-10 -11 -63 -65 -102 0
-14 -66 -69 -86 -87 0
-5 -8 -90 -96 -99 0
-10 -11 -63 -65 -102 0
-13 -67 -68 -86 -88 0
-5 -8 -89 -97 -98 0
-10 -12 -63 -65 -103 0
-13 -67 -68 -86 -88 0
-5 -8 -89 -97 -98 0
-10 -12 -63 -65 -103 0
-14 -67 -69 -86 -88 0
-5 -8 -90 -97 -99 0
-10 -12 -63 -65 -104 0
-14 -67 -69 -86 -88 0
-5 -8 -90 -97 -99 0
-10 -12 -63 -65 -104 0
-14 -68 -69 -86 -89 0
-5 -8 -90 -98 -99 0
-10 -13 -63 -65 -105 0
-14 -68 -69 -86 -89 0
-5 -8 -90 -98 -99 0
-10 -13 -63 -65 -105 0
-13 -67 -68 -87 -88 0
-5 -8 -89 -100 -101 0
-11 -12 -63 -66 -103 0
-13 -67 -68 -87 -88 0
-5 -8 -89 -100 -101 0
-11 -12 -63 -66 -103 0
-14 -67 -69 -87 -88 0
-5 -8 -90 -100 -102 0
-11 -12 -63 -66 -104 0
-14 -67 -69 -87 -88 0
-5 -8 -90 -100 -102 0
-11 -12 -63 -66 -104 0
-14 -68 -69 -87 -89 0
-5 -8 -90 -101 -102 0
-11 -13 -63 -66 -105 0
-14 -68 -69 -87 -89 0
-5 -8 -90 -101 -102 0
-11 -13 -63 -66 -105 0
-14 -68 -69 -88 -89 0
-5 -8 -90 -103 -104 0
-12 -13 -63 -67 -105 0
-14 -68 -69 -88 -89 0
-5 -8 -90 -103 -104 0
-12 -13 -63 -67 -105 0
-12 -66 -67 -91 -92 0
-5 -9 -93 -96 -97 0
-10 -11 -64 -65 -100 0
-12 -66 -67 -91 -92 0
-5 -9 -93 -96 -97 0
-10 -11 -64 -65 -100 0
-13 -66 -68 -91 -92 0
-5 -9 -94 -96 -98 0
-10 -11 -64 -65 -101 0
-13 -66 -68 -91 -92 0
-5 -9 -94 -96 -98 0
-10 -11 -64 -65 -101 0
-14 -66 -69 -91 -92 0
-5 -9 -95 -96 -99 0
-10 -11 -64 -65 -102 0
-14 -66 -69 -91 -92 0
-5 -9 -95 -96 -99 0
-10 -11 -64 -65 -102 0
-13 -67 -68 -91 -93 0
-5 -9 -94 -97 -98 0
-10 -12 -64 -65 -103 0
-13 -67 -68 -91 -93 0
-5 -9 -94 -97 -98 0
-10 -12 -64 -65 -103 0
-14 -67 -69 -91 -93 0
-5 -9 -95 -97 -99 0
-10 -12 -64 -65 -104 0
-14 -67 -69 -91 -93 0
-5 -9 -95 -97 -99 0
-10 -12 -64 -65 -104 0
-14 -68 -69 -91 -94 0
-5 -9 -95 -98 -99 0
-10 -13 -64 -65 -105 0
-14 -68 -69 -91 -94 0
-5 -9 -95 -98 -99 0
-10 -13 -64 -65 -105 0
-13 -67 -68 -92 -93 0
-5 -9 -94 -100 -101 0
-11 -12 -64 -66 -103 0
-13 -67 -68 -92 -93 0
-5 -9 -94 -100 -101 0
-11 -12 -64 -66 -103 0
-14 -67 -69 -92 -93 0
-5 -9 -95 -100 -102 0
-11 -12 -64 -66 -104 0
-14 -67 -69 -92 -93 0
-5 -9 -95 -100 -102 0
-11 -12 -64 -66 -104 0
-14 -68 -69 -92 -94 0
-5 -9 -95 -101 -102 0
-11 -13 -64 -66 -105 0
-14 -68 -69 -92 -94 0
-5 -9 -95 -101 -102 0
-11 -13 -64 -66 -105 0
-14 -68 -69 -93 -94 0
-5 -9 -95 -103 -104 0
-12 -13 -64 -67 -105 0
-14 -68 -69 -93 -94 0
-5 -9 -95 -103 -104 0
-12 -13 -64 -67 -105 0
-13 -67 -68 -96 -97 0
-5 -10 -98 -100 -101 0
-11 -12 -65 -66 -103 0
-13 -67 -68 -96 -97 0
-5 -10 -98 -100 -101 0
-11 -12 -65 -66 -103 0
-14 -67 -69 -96 -97 0
-5 -10 -99 -100 -102 0
-11 -12 -65 -66 -104 0
-14 -67 -69 -96 -97 0
-5 -10 -99 -100 -102 0
-11 -12 -65 -66 -104 0
-14 -68 -69 -96 -98 0
-5 -10 -99 -101 -102 0
-11 -13 -65 -66 -105 0
-14 -68 -69 -96 -98 0
-5 -10 -99 -101 -102 0
-11 -13 -65 -66 -105 0
-14 -68 -69 -97 -98 0
-5 -10 -99 -103 -104 0
-12 -13 -65 -67 -105 0
-14 -68 -69 -97 -98 0
-5 -10 -99 -103 -104 0
-12 -13 -65 -67 -105 0
-14 -68 -69 -100 -101 0
-5 -11 -102 -103 -104 0
-12 -13 -66 -67 -105 0
-14 -68 -69 -100 -101 0
-5 -11 -102 -103 -104 0
-12 -13 -66 -67 -105 0
-10 -72 -73 -78 -79 0
-6 -7 -80 -85 -86 0
-8 -9 -70 -71 -91 0
-10 -72 -73 -78 -79 0
-6 -7 -80 -85 -86 0
-8 -9 -70 -71 -91 0
-11 -72 -74 -78 -79 0
-6 -7 -81 -85 -87 0
-8 -9 -70 -71 -92 0
-11 -72 -74 -78 -79 0
-6 -7 -81 -85 -87 0
-8 -9 -70 -71 -92 0
-12 -72 -75 -78 -79 0
-6 -7 -82 -85 -88 0
-8 -9 -70 -71 -93 0
-12 -72 -75 -78 -79 0
-6 -7 -82 -85 -88 0
-8 -9 -70 -71 -93 0
-13 -72 -76 -78 -79 0
-6 -7 -83 -85 -89 0
-8 -9 -70 -71 -94 0
-13 -72 -76 -78 -79 0
-6 -7 -83 -85 -89 0
-8 -9 -70 -71 -94 0
-14 -72 -77 -78 -79 0
-6 -7 -84 -85 -90 0
-8 -9 -70 -71 -95 0
-14 -72 -77 -78 -79 0
-6 -7 -84 -85 -90 0
-8 -9 -70 -71 -95 0
-11 -73 -74 -78 -80 0
-6 -7 -81 -86 -87 0
-8 -10 -70 -71 -96 0
-11 -73 -74 -78 -80 0
-6 -7 -81 -86 -87 0
-8 -10 -70 -71 -96 0
-12 -73 -75 -78 -80 0
-6 -7 -82 -86 -88 0
-8 -10 -70 -71 -97 0
-12 -73 -75 -78 -80 0
-6 -7 -82 -86 -88 0
-8 -10 -70 -71 -97 0
-13 -73 -76 -78 -80 0
-6 -7 -83 -86 -89 0
-8 -10 -70 -71 -98 0
-13 -73 -76 -78 -80 0
-6 -7 -83 -86 -89 0
-8 -10 -70 -71 -98 0
-14 -73 -77 -78 -80 0
-6 -7 -84 -86 -90 0
-8 -10 -70 -71 -99 0
-14 -73 -77 -78 -80 0
-6 -7 -84 -86 -90 0
-8 -10 -70 -71 -99 0
-12 -74 -75 -78 -81 0
-6 -7 -82 -87 -88 0
-8 -11 -70 -71 -100 0
-12 -74 -75 -78 -81 0
-6 -7 -82 -87 -88 0
-8 -11 -70 -71 -100 0
-13 -74 -76 -78 -81 0
-6 -7 -83 -87 -89 0
-8 -11 -70 -71 -101 0
-13 -74 -76 -78 -81 0
-6 -7 -83 -87 -89 0
-8 -11 -70 -71 -101 0
-14 -74 -77 -78 -81 0
-6 -7 -84 -87 -90 0
-8 -11 -70 -71 -102 0
-14 -74 -77 -78 -81 0
-6 -7 -84 -87 -90 0
-8 -11 -70 -71 -102 0
-13 -75 -76 -78 -82 0
-6 -7 -83 -88 -89 0
-8 -12 -70 -71 -103 0
-13 -75 -76 -78 -82 0
-6 -7 -83 -88 -89 0
-8 -12 -70 -71 -103 0
-14 -75 -77 -78 -82 0
-6 -7 -84 -88 -90 0
-8 -12 -70 -71 -104 0
-14 -75 -77 -78 -82 0
-6 -7 -84 -88 -90 0
-8 -12 -70 -71 -104 0
-14 -76 -77 -78 -83 0
-6 -7 -84 -89 -90 0
-8 -13 -70 -71 -105 0
-14 -76 -77 -78 -83 0
-6 -7 -84 -89 -90 0
-8 -13 -70 -71 -105 0
-11 -73 -74 -79 -80 0
-6 -7 -81 -91 -92 0
-9 -10 -70 -72 -96 0
-11 -73 -74 -79 -80 0
-6 -7 -81 -91 -92 0
-9 -10 -70 -72 -96 0
-12 -73 -75 -79 -80 0
-6 -7 -82 -91 -93 0
-9 -10 -70 -72 -97 0
-12 -73 -75 -79 -80 0
-6 -7 -82 -91 -93 0
-9 -10 -70 -72 -97 0
-13 -73 -76 -79 -80 0
-6 -7 -83 -91 -94 0
-9 -10 -70 -72 -98 0
-13 -73 -76 -79 -80 0
-6 -7 -83 -91 -94 0
-9 -10 -70 -72 -98 0
-14 -73 -77 -79 -80 0
-6 -7 -84 -91 -95 0
-9 -10 -70 -72 -99 0
-14 -73 -77 -79 -80 0
-6 -7 -84 -91 -95 0
-9 -10 -70 -72 -99 0
-12 -74 -75 -79 -81 0
-6 -7 -82 -92 -93 0
-9 -11 -70 -72 -100 0
-12 -74 -75 -79 -81 0
-6 -7 -82 -92 -93 0
-9 -11 -70 -72 -100 0
-13 -74 -76 -79 -81 0
-6 -7 -83 -92 -94 0
-9 -11 -70 -72 -101 0
-13 -74 -76 -79 -81 0
-6 -7 -83 -92 -94 0
-9 -11 -70 -72 -101 0
-14 -74 -77 -79 -81 0
-6 -7 -84 -92 -95 0
-9 -11 -70 -72 -102 0
-14 -74 -77 -79 -81 0
-6 -7 -84 -92 -95 0
-9 -11 -70 -72 -102 0
-13 -75 -76 -79 -82 0
-6 -7 -83 -93 -94 0
-9 -12 -70 -72 -103 0
-13 -75 -76 -79 -82 0
-6 -7 -83 -93 -94 0
-9 -12 -70 -72 -103 0
-14 -75 -77 -79 -82 0
-6 -7 -84 -93 -95 0
-9 -12 -70 -72 -104 0
-14 -75 -77 -79 -82 0
-6 -7 -84 -93 -95 0
-9 -12 -70 -72 -104 0
-14 -76 -77 -79 -83 0
-6 -7 -84 -94 -95 0
-9 -13 -70 -72 -105 0
-14 -76 -77 -79 -83 0
-6 -7 -84 -94 -95 0
-9 -13 -70 -72 -105 0
-12 -74 -75 -80 -81 0
-6 -7 -82 -96 -97 0
-10 -11 -70 -73 -100 0
-12 -74 -75 -80 -81 0
-6 -7 -82 -96 -97 0
-10 -11 -70 -73 -100 0
-13 -74 -76 -80 -81 0
-6 -7 -83 -96 -98 0
-10 -11 -70 -73 -101 0
-13 -74 -76 -80 -81 0
-6 -7 -83 -96 -98 0
-10 -11 -70 -73 -101 0
-14 -74 -77 -80 -81 0
-6 -7 -84 -96 -99 0
-10 -11 -70 -73 -102 0
-14 -74 -77 -80 -81 0
-6 -7 -84 -96 -99 0
-10 -11 -70 -73 -102 0
-13 -75 -76 -80 -82 0
-6 -7 -83 -97 -98 0
-10 -12 -70 -73 -103 0
-13 -75 -76 -80 -82 0
-6 -7 -83 -97 -98 0
-10 -12 -70 -73 -103 0
-14 -75 -77 -80 -82 0
-6 -7 -84 -97 -99 0
-10 -12 -70 -73 -104 0
-14 -75 -77 -80 -82 0
-6 -7 -84 -97 -99 0
-10 -12 -70 -73 -104 0
-14 -76 -77 -80 -83 0
-6 -7 -84 -98 -99 0
-10 -13 -70 -73 -105 0
-14 -76 -77 -80 -83 0
-6 -7 -84 -98 -99 0
-10 -13 -70 -73 -105 0
-13 -75 -76 -81 -82 0
-6 -7 -83 -100 -101 0
-11 -12 -70 -74 -103 0
-13 -75 -76 -81 -82 0
-6 -7 -83 -100 -101 0
-11 -12 -70 -74 -103 0
-14 -75 -77 -81 -82 0
-6 -7 -84 -100 -102 0
-11 -12 -70 -74 -104 0
-14 -75 -77 -81 -82 0
-6 -7 -84 -100 -102 0
-11 -12 -70 -74 -104 0
-14 -76 -77 -81 -83 0
-6 -7 -84 -101 -102 0
-11 -13 -70 -74 -105 0
-14 -76 -77 -81 -83 0
-6 -7 -84 -101 -102 0
-11 -13 -70 -74 -105 0
-14 -76 -77 -82 -83 0
-6 -7 -84 -103 -104 0
-12 -13 -70 -75 -105 0
-14 -76 -77 -82 -83 0
-6 -7 -84 -103 -104 0
-12 -13 -70 -75 -105 0
-11 -73 -74 -85 -86 0
-6 -8 -87 -91 -92 0
-9 -10 -71 -72 -96 0
-11 -73 -74 -85 -86 0
-6 -8 -87 -91 -92 0
-9 -10 -71 -72 -96 0
-12 -73 -75 -85 -86 0
-6 -8 -88 -91 -93 0
-9 -10 -71 -72 -97 0
-12 -73 -75 -85 -86 0
-6 -8 -88 -91 -93 0
-9 -10 -71 -72 -97 0
-13 -73 -76 -85 -86 0
-6 -8 -89 -91 -94 0
-9 -10 -71 -72 -98 0
-13 -73 -76 -85 -86 0
-6 -8 -89 -91 -94 0
-9 -10 -71 -72 -98 0
-14 -73 -77 -85 -86 0
-6 -8 -90 -91 -95 0
-9 -10 -71 -72 -99 0
-14 -73 -77 -85 -86 0
-6 -8 -90 -91 -95 0
-9 -10 -71 -72 -99 0
-12 -74 -75 -85 -87 0
-6 -8 -88 -92 -93 0
-9 -11 -71 -72 -100 0
-12 -74 -75 -85 -87 0
-6 -8 -88 -92 -93 0
-9 -11 -71 -72 -100 0
-13 -74 -76 -85 -87 0
-6 -8 -89 -92 -94 0
-9 -11 -71 -72 -101 0
-13 -74 -76 -85 -87 0
-6 -8 -89 -92 -94 0
-9 -11 -71 -72 -101 0
-14 -74 -77 -85 -87 0
-6 -8 -90 -92 -95 0
-9 -11 -71 -72 -102 0
-14 -74 -77 -85 -87 0
-6 -8 -90 -92 -95 0
-9 -11 -71 -72 -102 0
-13 -75 -76 -85 -88 0
-6 -8 -89 -93 -94 0
-9 -12 -71 -72 -103 0
-13 -75 -76 -85 -88 0
-6 -8 -89 -93 -94 0
-9 -12 -71 -72 -103 0
-14 -75 -77 -85 -88 0
-6 -8 -90 -93 -95 0
-9 -12 -71 -72 -104 0
-14 -75 -77 -85 -88 0
-6 -8 -90 -93 -95 0
-9 -12 -71 -72 -104 0
-14 -76 -77 -85 -89 0
-6 -8 -90 -94 -95 0
-9 -13 -71 -72 -105 0
-14 -76 -77 -85 -89 0
-6 -8 -90 -94 -95 0
-9 -13 -71 -72 -105 0
-12 -74 -75 -86 -87 0
-6 -8 -88 -96 -97 0
-10 -11 -71 -73 -100 0
-12 -74 -75 -86 -87 0
-6 -8 -88 -96 -97 0
-10 -11 -71 -73 -100 0
-13 -74 -76 -86 -87 0
-6 -8 -89 -96 -98 0
-10 -11 -71 -73 -101 0
-13 -74 -76 -86 -87 0
-6 -8 -89 -96 -98 0
-10 -11 -71 -73 -101 0
-14 -74 -77 -86 -87 0
-6 -8 -90 -96 -99 0
-10 -11 -71 -73 -102 0
-14 -74 -77 -86 -87 0
-6 -8 -90 -96 -99 0
-10 -11 -71 -73 -102 0
-13 -75 -76 -86 -88 0
-6 -8 -89 -97 -98 0
-10 -12 -71 -73 -103 0
-13 -75 -76 -86 -88 0
-6 -8 -89 -97 -98 0
-10 -12 -71 -73 -103 0
-14 -75 -77 -86 -88 0
-6 -8 -90 -97 -99 0
-10 -12 -71 -73 -104 0
-14 -75 -77 -86 -88 0
-6 -8 -90 -97 -99 0
-10 -12 -71 -73 -104 0
-14 -76 -77 -86 -89 0
-6 -8 -90 -98 -99 0
-10 -13 -71 -73 -105 0
-14 -76 -77 -86 -89 0
-6 -8 -90 -98 -99 0
-10 -13 -71 -73 -105 0
-13 -75 -76 -87 -88 0
-6 -8 -89 -100 -101 0
-11 -12 -71 -74 -103 0
-13 -75 -76 -87 -88 0
-6 -8 -89 -100 -101 0
-11 -12 -71 -74 -103 0
-14 -75 -77 -87 -88 0
-6 -8 -90 -100 -102 0
-11 -12 -71 -74 -104 0
-14 -75 -77 -87 -88 0
-6 -8 -90 -100 -102 0
-11 -12 -71 -74 -104 0
-14 -76 -77 -87 -89 0
-6 -8 -90 -101 -102 0
-11 -13 -71 -74 -105 0
-14 -76 -77 -87 -89 0
-6 -8 -90 -101 -102 0
-11 -13 -71 -74 -105 0
-14 -76 -77 -88 -89 0
-6 -8 -90 -103 -104 0
-12 -13 -71 -75 -105 0
-14 -76 -77 -88 -89 0
-6 -8 -90 -103 -104 0
-12 -13 -71 -75 -105 0
-12 -74 -75 -91 -92 0
-6 -9 -93 -96 -97 0
-10 -11 -72 -73 -100 0
-12 -74 -75 -91 -92 0
-6 -9 -93 -96 -97 0
-10 -11 -72 -73 -100 0
-13 -74 -76 -91 -92 0
-6 -9 -94 -96 -98 0
-10 -11 -72 -73 -101 0
-13 -74 -76 -91 -92 0
-6 -9 -94 -96 -98 0
-10 -11 -72 -73 -101 0
-14 -74 -77 -91 -92 0
-6 -9 -95 -96 -99 0
-10 -11 -72 -73 -102 0
-14 -74 -77 -91 -92 0
-6 -9 -95 -96 -99 0
-10 -11 -72 -73 -102 0
-13 -75 -76 -91 -93 0
-6 -9 -94 -97 -98 0
-10 -12 -72 -73 -103 0
-13 -75 -76 -91 -93 0
-6 -9 -94 -97 -98 0
-10 -12 -72 -73 -103 0
-14 -75 -77 -91 -93 0
-6 -9 -95 -97 -99 0
-10 -12 -72 -73 -104 0
-14 -75 -77 -91 -93 0
-6 -9 -95 -97 -99 0
-10 -12 -72 -73 -104 0
-14 -76 -77 -91 -94 0
-6 -9 -95 -98 -99 0
-10 -13 -72 -73 -105 0
-14 -76 -77 -91 -94 0
-6 -9 -95 -98 -99 0
-10 -13 -72 -73 -105 0
-13 -75 -76 -92 -93 0
-6 -9 -94 -100 -101 0
-11 -12 -72 -74 -103 0
-13 -75 -76 -92 -93 0
-6 -9 -94 -100 -101 0
-11 -12 -72 -74 -103 0
-14 -75 -77 -92 -93 0
-6 -9 -95 -100 -102 0
-11 -12 -72 -74 -104 0
-14 -75 -77 -92 -93 0
-6 -9 -95 -100 -102 0
-11 -12 -72 -74 -104 0
-14 -76 -77 -92 -94 0
-6 -9 -95 -101 -102 0
-11 -13 -72 -74 -105 0
-14 -76 -77 -92 -94 0
-6 -9 -95 -101 -102 0
-11 -13 -72 -74 -105 0
-14 -76 -77 -93 -94 0
-6 -9 -95 -103 -104 0
-12 -13 -72 -75 -105 0
-14 -76 -77 -93 -94 0
-6 -9 -95 -103 -104 0
-12 -13 -72 -75 -105 0
-13 -75 -76 -96 -97 0
-6 -10 -98 -100 -101 0
-11 -12 -73 -74 -103 0
-13 -75 -76 -96 -97 0
-6 -10 -98 -100 -101 0
-11 -12 -73 -74 -103 0
-14 -75 -77 -96 -97 0
-6 -10 -99 -100 -102 0
-11 -12 -73 -74 -104 0
-14 -75 -77 -96 -97 0
-6 -10 -99 -100 -102 0
-11 -12 -73 -74 -104 0
-14 -76 -77 -96 -98 0
-6 -10 -99 -101 -102 0
-11 -13 -73 -74 -105 0
-14 -76 -77 -96 -98 0
-6 -10 -99 -101 -102 0
-11 -13 -73 -74 -105 0
-14 -76 -77 -97 -98 0
-6 -10 -99 -103 -104 0
-12 -13 -73 -75 -105 0
-14 -76 -77 -97 -98 0
-6 -10 -99 -103 -104 0
-12 -13 -73 -75 -105 0
-14 -76 -77 -100 -101 0
-6 -11 -102 -103 -104 0
-12 -13 -74 -75 -105 0
-14 -76 -77 -100 -101 0
-6 -11 -102 -103 -104 0
-12 -13 -74 -75 -105 0
-11 -80 -81 -85 -86 0
-7 -8 -87 -91 -92 0
-9 -10 -78 -79 -96 0
-11 -80 -81 -85 -86 0
-7 -8 -87 -91 -92 0
-9 -10 -78 -79 -96 0
-12 -80 -82 -85 -86 0
-7 -8 -88 -91 -93 0
-9 -10 -78 -79 -97 0
-12 -80 -82 -85 -86 0
-7 -8 -88 -91 -93 0
-9 -10 -78 -79 -97 0
-13 -80 -83 -85 -86 0
-7 -8 -89 -91 -94 0
-9 -10 -78 -79 -98 0
-13 -80 -83 -85 -86 0
-7 -8 -89 -91 -94 0
-9 -10 -78 -79 -98 0
-14 -80 -84 -85 -86 0
-7 -8 -90 -91 -95 0
-9 -10 -78 -79 -99 0
-14 -80 -84 -85 -86 0
-7 -8 -90 -91 -95 0
-9 -10 -78 -79 -99 0
-12 -81 -82 -85 -87 0
-7 -8 -88 -92 -93 0
-9 -11 -78 -79 -100 0
-12 -81 -82 -85 -87 0
-7 -8 -88 -92 -93 0
-9 -11 -78 -79 -100 0
-13 -81 -83 -85 -87 0
-7 -8 -89 -92 -94 0
-9 -11 -78 -79 -101 0
-13 -81 -83 -85 -87 0
-7 -8 -89 -92 -94 0
-9 -11 -78 -79 -101 0
-14 -81 -84 -85 -87 0
-7 -8 -90 -92 -95 0
-9 -11 -78 -79 -102 0
-14 -81 -84 -85 -87 0
-7 -8 -90 -92 -95 0
-9 -11 -78 -79 -102 0
-13 -82 -83 -85 -88 0
-7 -8 -89 -93 -94 0
-9 -12 -78 -79 -103 0
-13 -82 -83 -85 -88 0
-7 -8 -89 -93 -94 0
-9 -12 -78 -79 -103 0
-14 -82 -84 -85 -88 0
-7 -8 -90 -93 -95 0
-9 -12 -78 -79 -104 0
-14 -82 -84 -85 -88 0
-7 -8 -90 -93 -95 0
-9 -12 -78 -79 -104 0
-14 -83 -84 -85 -89 0
-7 -8 -90 -94 -95 0
-9 -13 -78 -79 -105 0
-14 -83 -84 -85 -89 0
-7 -8 -90 -94 -95 0
-9 -13 -78 -79 -105 0
-12 -81 -82 -86 -87 0
-7 -8 -88 -96 -97 0
-10 -11 -78 -80 -100 0
-12 -81 -82 -86 -87 0
-7 -8 -88 -96 -97 0
-10 -11 -78 -80 -100 0
-13 -81 -83 -86 -87 0
-7 -8 -89 -96 -98 0
-10 -11 -78 -80 -101 0
-13 -81 -83 -86 -87 0
-7 -8 -89 -96 -98 0
-10 -11 -78 -80 -101 0
-14 -81 -84 -86 -87 0
-7 -8 -90 -96 -99 0
-10 -11 -78 -80 -102 0
-14 -81 -84 -86 -87 0
-7 -8 -90 -96 -99 0
-10 -11 -78 -80 -102 0
-13 -82 -83 -86 -88 0
-7 -8 -89 -97 -98 0
-10 -12 -78 -80 -103 0
-13 -82 -83 -86 -88 0
-7 -8 -89 -97 -98 0
-10 -12 -78 -80 -103 0
-14 -82 -84 -86 -88 0
-7 -8 -90 -97 -99 0
-10 -12 -78 -80 -104 0
-14 -82 -84 -86 -88 0
-7 -8 -90 -97 -99 0
-10 -12 -78 -80 -104 0
-14 -83 -84 -86 -89 0
-7 -8 -90 -98 -99 0
-10 -13 -78 -80 -105 0
-14 -83 -84 -86 -89 0
-7 -8 -90 -98 -99 0
-10 -13 -78 -80 -105 0
-13 -82 -83 -87 -88 0
-7 -8 -89 -100 -101 0
-11 -12 -78 -81 -103 0
-13 -82 -83 -87 -88 0
-7 -8 -89 -100 -101 0
-11 -12 -78 -81 -103 0
-14 -82 -84 -87 -88 0
-7 -8 -90 -100 -102 0
-11 -12 -78 -81 -104 0
-14 -82 -84 -87 -88 0
-7 -8 -90 -100 -102 0
-11 -12 -78 -81 -104 0
-14 -83 -84 -87 -89 0
-7 -8 -90 -101 -102 0
-11 -13 -78 -81 -105 0
-14 -83 -84 -87 -89 0
-7 -8 -90 -101 -102 0
-11 -13 -78 -81 -105 0
-14 -83 -84 -88 -89 0
-7 -8 -90 -103 -104 0
-12 -13 -78 -82 -105 0
-14 -83 -84 -88 -89 0
-7 -8 -90 -103 -104 0
-12 -13 -78 -82 -105 0
-12 -81 -82 -91 -92 0
-7 -9 -93 -96 -97 0
-10 -11 -79 -80 -100 0
-12 -81 -82 -91 -92 0
-7 -9 -93 -96 -97 0
-10 -11 -79 -80 -100 0
-13 -81 -83 -91 -92 0
-7 -9 -94 -96 -98 0
-10 -11 -79 -80 -101 0
-13 -81 -83 -91 -92 0
-7 -9 -94 -96 -98 0
-10 -11 -79 -80 -101 0
-14 -81 -84 -91 -92 0
-7 -9 -95 -96 -99 0
-10 -11 -79 -80 -102 0
-14 -81 -84 -91 -92 0
-7 -9 -95 -96 -99 0
-10 -11 -79 -80 -102 0
-13 -82 -83 -91 -93 0
-7 -9 -94 -97 -98 0
-10 -12 -79 -80 -103 0
-13 -82 -83 -91 -93 0
-7 -9 -94 -97 -98 0
-10 -12 -79 -80 -103 0
-14 -82 -84 -91 -93 0
-7 -9 -95 -97 -99 0
-10 -12 -79 -80 -104 0
-14 -82 -84 -91 -93 0
-7 -9 -95 -97 -99 0
-10 -12 -79 -80 -104 0
-14 -83 -84 -91 -94 0
-7 -9 -95 -98 -99 0
-10 -13 -79 -80 -105 0
-14 -83 -84 -91 -94 0
-7 -9 -95 -98 -99 0
-10 -13 -79 -80 -105 0
-13 -82 -83 -92 -93 0
-7 -9 -94 -100 -101 0
-11 -12 -79 -81 -103 0
-13 -82 -83 -92 -93 0
-7 -9 -94 -100 -101 0
-11 -12 -79 -81 -103 0
-14 -82 -84 -92 -93 0
-7 -9 -95 -100 -102 0
-11 -12 -79 -81 -104 0
-14 -82 -84 -92 -93 0
-7 -9 -95 -100 -102 0
-11 -12 -79 -81 -104 0
-14 -83 -84 -92 -94 0
-7 -9 -95 -101 -102 0
-11 -13 -79 -81 -105 0
-14 -83 -84 -92 -94 0
-7 -9 -95 -101 -102 0
-11 -13 -79 -81 -105 0
-14 -83 -84 -93 -94 0
-7 -9 -95 -103 -104 0
-12 -13 -79 -82 -105 0
-14 -83 -84 -93 -94 0
-7 -9 -95 -103 -104 0
-12 -13 -79 -82 -105 0
-13 -82 -83 -96 -97 0
-7 -10 -98 -100 -101 0
-11 -12 -80 -81 -103 0
-13 -82 -83 -96 -97 0
-7 -10 -98 -100 -101 0
-11 -12 -80 -81 -103 0
-14 -82 -84 -96 -97 0
-7 -10 -99 -100 -102 0
-11 -12 -80 -81 -104 0
-14 -82 -84 -96 -97 0
-7 -10 -99 -100 -102 0
-11 -12 -80 -81 -104 0
-14 -83 -84 -96 -98 0
-7 -10 -99 -101 -102 0
-11 -13 -80 -81 -105 0
-14 -83 -84 -96 -98 0
-7 -10 -99 -101 -102 0
-11 -13 -80 -81 -105 0
-14 -83 -84 -97 -98 0
-7 -10 -99 -103 -104 0
-12 -13 -80 -82 -105 0
-14 -83 -84 -97 -98 0
-7 -10 -99 -103 -104 0
-12 -13 -80 -82 -105 0
-14 -83 -84 -100 -101 0
-7 -11 -102 -103 -104 0
-12 -13 -81 -82 -105 0
-14 -83 -84 -100 -101 0
-7 -11 -102 -103 -104 0
-12 -13 -81 -82 -105 0
-12 -87 -88 -91 -92 0
-8 -9 -93 -96 -97 0
-10 -11 -85 -86 -100 0
-12 -87 -88 -91 -92 0
-8 -9 -93 -96 -97 0
-10 -11 -85 -86 -100 0
-13 -87 -89 -91 -92 0
-8 -9 -94 -96 -98 0
-10 -11 -85 -86 -101 0
-13 -87 -89 -91 -92 0
-8 -9 -94 -96 -98 0
-10 -11 -85 -86 -101 0
-14 -87 -90 -91 -92 0
-8 -9 -95 -96 -99 0
-10 -11 -85 -86 -102 0
-14 -87 -90 -91 -92 0
-8 -9 -95 -96 -99 0
-10 -11 -85 -86 -102 0
-13 -88 -89 -91 -93 0
-8 -9 -94 -97 -98 0
-10 -12 -85 -86 -103 0
-13 -88 -89 -91 -93 0
-8 -9 -94 -97 -98 0
-10 -12 -85 -86 -103 0
-14 -88 -90 -91 -93 0
-8 -9 -95 -97 -99 0
-10 -12 -85 -86 -104 0
-14 -88 -90 -91 -93 0
-8 -9 -95 -97 -99 0
-10 -12 -85 -86 -104 0
-14 -89 -90 -91 -94 0
-8 -9 -95 -98 -99 0
-10 -13 -85 -86 -105 0
-14 -89 -90 -91 -94 0
-8 -9 -95 -98 -99 0
-10 -13 -85 -86 -105 0
-13 -88 -89 -92 -93 0
-8 -9 -94 -100 -101 0
-11 -12 -85 -87 -103 0
-13 -88 -89 -92 -93 0
-8 -9 -94 -100 -101 0
-11 -12 -85 -87 -103 0
-14 -88 -90 -92 -93 0
-8 -9 -95 -100 -102 0
-11 -12 -85 -87 -104 0
-14 -88 -90 -92 -93 0
-8 -9 -95 -100 -102 0
-11 -12 -85 -87 -104 0
-14 -89 -90 -92 -94 0
-8 -9 -95 -101 -102 0
-11 -13 -85 -87 -105 0
-14 -89 -90 -92 -94 0
-8 -9 -95 -101 -102 0
-11 -13 -85 -87 -105 0
-14 -89 -90 -93 -94 0
-8 -9 -95 -103 -104 0
-12 -13 -85 -88 -105 0
-14 -89 -90 -93 -94 0
-8 -9 -95 -103 -104 0
-12 -13 -85 -88 -105 0
-13 -88 -89 -96 -97 0
-8 -10 -98 -100 -101 0
-11 -12 -86 -87 -103 0
-13 -88 -89 -96 -97 0
-8 -10 -98 -100 -101 0
-11 -12 -86 -87 -103 0
-14 -88 -90 -96 -97 0
-8 -10 -99 -100 -102 0
-11 -12 -86 -87 -104 0
-14 -88 -90 -96 -97 0
-8 -10 -99 -100 -102 0
-11 -12 -86 -87 -104 0
-14 -89 -90 -96 -98 0
-8 -10 -99 -101 -102 0
-11 -13 -86 -87 -105 0
-14 -89 -90 -96 -98 0
-8 -10 -99 -101 -102 0
-11 -13 -86 -87 -105 0
-14 -89 -90 -97 -98 0
-8 -10 -99 -103 -104 0
-12 -13 -86 -88 -105 0
-14 -89 -90 -97 -98 0
-8 -10 -99 -103 -104 0
-12 -13 -86 -88 -105 0
-14 -89 -90 -100 -101 0
-8 -11 -102 -103 -104 0
-12 -13 -87 -88 -105 0
-14 -89 -90 -100 -101 0
-8 -11 -102 -103 -104 0
-12 -13 -87 -88 -105 0
-13 -93 -94 -96 -97 0
-9 -10 -98 -100 -101 0
-11 -12 -91 -92 -103 0
-13 -93 -94 -96 -97 0
-9 -10 -98 -100 -101 0
-11 -12 -91 -92 -103 0
-14 -93 -95 -96 -97 0
-9 -10 -99 -100 -102 0
-11 -12 -91 -92 -104 0
-14 -93 -95 -96 -97 0
-9 -10 -99 -100 -102 0
-11 -12 -91 -92 -104 0
-14 -94 -95 -96 -98 0
-9 -10 -99 -101 -102 0
-11 -13 -91 -92 -105 0
-14 -94 -95 -96 -98 0
-9 -10 -99 -101 -102 0
-11 -13 -91 -92 -105 0
-14 -94 -95 -97 -98 0
-9 -10 -99 -103 -104 0
-12 -13 -91 -93 -105 0
-14 -94 -95 -97 -98 0
-9 -10 -99 -103 -104 0
-12 -13 -91 -93 -105 0
-14 -94 -95 -100 -101 0
-9 -11 -102 -103 -104 0
-12 -13 -92 -93 -105 0
-14 -94 -95 -100 -101 0
-9 -11 -102 -103 -104 0
-12 -13 -92 -93 -105 0
-14 -98 -99 -100 -101 0
-10 -11 -102 -103 -104 0
-12 -13 -96 -97 -105 0
-14 -98 -99 -100 -101 0
-10 -11 -102 -103 -104 0
-12 -13 -96 -97 -105 0
-19 -30 -31 -40 -41 0
-15 -16 -42 -51 -52 0
-17 -18 -28 -29 -61 0
-19 -30 -31 -40 -41 0
-15 -16 -42 -51 -52 0
-17 -18 -28 -29 -61 0
-20 -30 -32 -40 -41 0
-15 -16 -43 -51 -53 0
-17 -18 -28 -29 -62 0
-20 -30 -32 -40 -41 0
-15 -16 -43 -51 -53 0
-17 -18 -28 -29 -62 0
-21 -30 -33 -40 -41 0
-15 -16 -44 -51 -54 0
-17 -18 -28 -29 -63 0
-21 -30 -33 -40 -41 0
-15 -16 -44 -51 -54 0
-17 -18 -28 -29 -63 0
-22 -30 -34 -40 -41 0
-15 -16 -45 -51 -55 0
-17 -18 -28 -29 -64 0
-22 -30 -34 -40 -41 0
-15 -16 -45 -51 -55 0
-17 -18 -28 -29 -64 0
-23 -30 -35 -40 -41 0
-15 -16 -46 -51 -56 0
-17 -18 -28 -29 -65 0
-23 -30 -35 -40 -41 0
-15 -16 -46 -51 -56 0
-17 -18 -28 -29 -65 0
-24 -30 -36 -40 -41 0
-15 -16 -47 -51 -57 0
-17 -18 -28 -29 -66 0
-24 -30 -36 -40 -41 0
-15 -16 -47 -51 -57 0
-17 -18 -28 -29 -66 0
-25 -30 -37 -40 -41 0
-15 -16 -48 -51 -58 0
-17 -18 -28 -29 -67 0
-25 -30 -37 -40 -41 0
-15 -16 -48 -51 -58 0
-17 -18 -28 -29 -67 0
-26 -30 -38 -40 -41 0
-15 -16 -49 -51 -59 0
-17 -18 -28 -29 -68 0
-26 -30 -38 -40 -41 0
-15 -16 -49 -51 -59 0
-17 -18 -28 -29 -68 0
-27 -30 -39 -40 -41 0
-15 -16 -50 -51 -60 0
-17 -18 -28 -29 -69 0
-27 -30 -39 -40 -41 0
-15 -16 -50 -51 -60 0
-17 -18 -28 -29 -69 0
-20 -31 -32 -40 -42 0
-15 -16 -43 -52 -53 0
-17 -19 -28 -29 -70 0
-20 -31 -32 -40 -42 0
-15 -16 -43 -52 -53 0
-17 -19 -28 -29 -70 0
-21 -31 -33 -40 -42 0
-15 -16 -44 -52 -54 0
-17 -19 -28 -29 -71 0
-21 -31 -33 -40 -42 0
-15 -16 -44 -52 -54 0
-17 -19 -28 -29 -71 0
-22 -31 -34 -40 -42 0
-15 -16 -45 -52 -55 0
-17 -19 -28 -29 -72 0
-22 -31 -34 -40 -42 0
-15 -16 -45 -52 -55 0
-17 -19 -28 -29 -72 0
-23 -31 -35 -40 -42 0
-15 -16 -46 -52 -56 0
-17 -19 -28 -29 -73 0
-23 -31 -35 -40 -42 0
-15 -16 -46 -52 -56 0
-17 -19 -28 -29 -73 0
-24 -31 -36 -40 -42 0
-15 -16 -47 -52 -57 0
-17 -19 -28 -29 -74 0
-24 -31 -36 -40 -42 0
-15 -16 -47 -52 -57 0
-17 -19 -28 -29 -74 0
-25 -31 -37 -40 -42 0
-15 -16 -48 -52 -58 0
-17 -19 -28 -29 -75 0
-25 -31 -37 -40 -42 0
-15 -16 -48 -52 -58 0
-17 -19 -28 -29 -75 0
-26 -31 -38 -40 -42 0
-15 -16 -49 -52 -59 0
-17 -19 -28 -29 -76 0
-26 -31 -38 -40 -42 0
-15 -16 -49 -52 -59 0
-17 -19 -28 -29 -76 0
-27 -31 -39 -40 -42 0
-15 -16 -50 -52 -60 0
-17 -19 -28 -29 -77 0
-27 -31 -39 -40 -42 0
-15 -16 -50 -52 -60 0
-17 -19 -28 -29 -77 0
-21 -32 -33 -40 -43 0
-15 -16 -44 -53 -54 0
-17 -20 -28 -29 -78 0
-21 -32 -33 -40 -43 0
-15 -16 -44 -53 -54 0
-17 -20 -28 -29 -78 0
-22 -32 -34 -40 -43 0
-15 -16 -45 -53 -55 0
-17 -20 -28 -29 -79 0
-22 -32 -34 -40 -43 0
-15 -16 -45 -53 -55 0
-17 -20 -28 -29 -79 0
-23 -32 -35 -40 -43 0
-15 -16 -46 -53 -56 0
-17 -20 -28 -29 -80 0
-23 -32 -35 -40 -43 0
-15 -16 -46 -53 -56 0
-17 -20 -28 -29 -80 0
-24 -32 -36 -40 -43 0
-15 -16 -47 -53 -57 0
-17 -20 -28 -29 -81 0
-24 -32 -36 -40 -43 0
-15 -16 -47 -53 -57 0
-17 -20 -28 -29 -81 0
-25 -32 -37 -40 -43 0
-15 -16 -48 -53 -58 0
-17 -20 -28 -29 -82 0
-25 -32 -37 -40 -43 0
-15 -16 -48 -53 -58 0
-17 -20 -28 -29 -82 0
-26 -32 -38 -40 -43 0
-15 -16 -49 -53 -59 0
-17 -20 -28 -29 -83 0
-26 -32 -38 -40 -43 0
-15 -16 -49 -53 -59 0
-17 -20 -28 -29 -83 0
-27 -32 -39 -40 -43 0
-15 -16 -50 -53 -60 0
-17 -20 -28 -29 -84 0
-27 -32 -39 -40 -43 0
-15 -16 -50 -53 -60 0
-17 -20 -28 -29 -84 0
-22 -33 -34 -40 -44 0
-15 -16 -45 -54 -55 0
-17 -21 -28 -29 -85 0
-22 -33 -34 -40 -44 0
-15 -16 -45 -54 -55 0
-17 -21 -28 -29 -85 0
-23 -33 -35 -40 -44 0
-15 -16 -46 -54 -56 0
-17 -21 -28 -29 -86 0
-23 -33 -35 -40 -44 0
-15 -16 -46 -54 -56 0
-17 -21 -28 -29 -86 0
-24 -33 -36 -40 -44 0
-15 -16 -47 -54 -57 0
-17 -21 -28 -29 -87 0
-24 -33 -36 -40 -44 0
-15 -16 -47 -54 -57 0
-17 -21 -28 -29 -87 0
-25 -33 -37 -40 -44 0
-15 -16 -48 -54 -58 0
-17 -21 -28 -29 -88 0
-25 -33 -37 -40 -44 0
-15 -16 -48 -54 -58 0
-17 -21 -28 -29 -88 0
-26 -33 -38 -40 -44 0
-15 -16 -49 -54 -59 0
-17 -21 -28 -29 -89 0
-26 -33 -38 -40 -44 0
-15 -16 -49 -54 -59 0
-17 -21 -28 -29 -89 0
-27 -33 -39 -40 -44 0
-15 -16 -50 -54 -60 0
-17 -21 -28 -29 -90 0
-27 -33 -39 -40 -44 0
-15 -16 -50 -54 -60 0
-17 -21 -28 -29 -90 0
-23 -34 -35 -40 -45 0
-15 -16 -46 -55 -56 0
-17 -22 -28 -29 -91 0
-23 -34 -35 -40 -45 0
-15 -16 -46 -55 -56 0
-17 -22 -28 -29 -91 0
-24 -34 -36 -40 -45 0
-15 -16 -47 -55 -57 0
-17 -22 -28 -29 -92 0
-24 -34 -36 -40 -45 0
-15 -16 -47 -55 -57 0
-17 -22 -28 -29 -92 0
-25 -34 -37 -40 -45 0
-15 -16 -48 -55 -58 0
-17 -22 -28 -29 -93 0
-25 -34 -37 -40 -45 0
-15 -16 -48 -55 -58 0
-17 -22 -28 -29 -93 0
-26 -34 -38 -40 -45 0
-15 -16 -49 -55 -59 0
-17 -22 -28 -29 -94 0
-26 -34 -38 -40 -45 0
-15 -16 -49 -55 -59 0
-17 -22 -28 -29 -94 0
-27 -34 -39 -40 -45 0
-15 -16 -50 -55 -60 0
-17 -22 -28 -29 -95 0
-27 -34 -39 -40 -45 0
-15 -16 -50 -55 -60 0
-17 -22 -28 -29 -95 0
-24 -35 -36 -40 -46 0
-15 -16 -47 -56 -57 0
-17 -23 -28 -29 -96 0
-24 -35 -36 -40 -46 0
-15 -16 -47 -56 -57 0
-17 -23 -28 -29 -96 0
-25 -35 -37 -40 -46 0
-15 -16 -48 -56 -58 0
-17 -23 -28 -29 -97 0
-25 -35 -37 -40 -46 0
-15 -16 -48 -56 -58 0
-17 -23 -28 -29 -97 0
-26 -35 -38 -40 -46 0
-15 -16 -49 -56 -59 0
-17 -23 -28 -29 -98 0
-26 -35 -38 -40 -46 0
-15 -16 -49 -56 -59 0
-17 -23 -28 -29 -98 0
-27 -35 -39 -40 -46 0
-15 -16 -50 -56 -60 0
-17 -23 -28 -29 -99 0
-27 -35 -39 -40 -46 0
-15 -16 -50 -56 -60 0
-17 -23 -28 -29 -99 0
-25 -36 -37 -40 -47 0
-15 -16 -48 -57 -58 0
-17 -24 -28 -29 -100 0
-25 -36 -37 -40 -47 0
-15 -16 -48 -57 -58 0
-17 -24 -28 -29 -100 0
-26 -36 -38 -40 -47 0
-15 -16 -49 -57 -59 0
-17 -24 -28 -29 -101 0
-26 -36 -38 -40 -47 0
-15 -16 -49 -57 -59 0
-17 -24 -28 -29 -101 0
-27 -36 -39 -40 -47 0
-15 -16 -50 -57 -60 0
-17 -24 -28 -29 -102 0
-27 -36 -39 -40 -47 0
-15 -16 -50 -57 -60 0
-17 -24 -28 -29 -102 0
-26 -37 -38 -40 -48 0
-15 -16 -49 -58 -59 0
-17 -25 -28 -29 -103 0
-26 -37 -38 -40 -48 0
-15 -16 -49 -58 -59 0
-17 -25 -28 -29 -103 0
-27 -37 -39 -40 -48 0
-15 -16 -50 -58 -60 0
-17 -25 -28 -29 -104 0
-27 -37 -39 -40 -48 0
-15 -16 -50 -58 -60 0
-17 -25 -28 -29 -104 0
-27 -38 -39 -40 -49 0
-15 -16 -50 -59 -60 0
-17 -26 -28 -29 -105 0
-27 -38 -39 -40 -49 0
-15 -16 -50 -59 -60 0
-17 -26 -28 -29 -105 0
-20 -31 -32 -41 -42 0
-15 -16 -43 -61 -62 0
-18 -19 -28 -30 -70 0
-20 -31 -32 -41 -42 0
-15 -16 -43 -61 -62 0
-18 -19 -28 -30 -70 0
-21 -31 -33 -41 -42 0
-15 -16 -44 -61 -63 0
-18 -19 -28 -30 -71 0
-21 -31 -33 -41 -42 0
-15 -16 -44 -61 -63 0
-18 -19 -28 -30 -71 0
-22 -31 -34 -41 -42 0
-15 -16 -45 -61 -64 0
-18 -19 -28 -30 -72 0
-22 -31 -34 -41 -42 0
-15 -16 -45 -61 -64 0
-18 -19 -28 -30 -72 0
-23 -31 -35 -41 -42 0
-15 -16 -46 -61 -65 0
-18 -19 -28 -30 -73 0
-23 -31 -35 -41 -42 0
-15 -16 -46 -61 -65 0
-18 -19 -28 -30 -73 0
-24 -31 -36 -41 -42 0
-15 -16 -47 -61 -66 0
-18 -19 -28 -30 -74 0
-24 -31 -36 -41 -42 0
-15 -16 -47 -61 -66 0
-18 -19 -28 -30 -74 0
-25 -31 -37 -41 -42 0
-15 -16 -48 -61 -67 0
-18 -19 -28 -30 -75 0
-25 -31 -37 -41 -42 0
-15 -16 -48 -61 -67 0
-18 -19 -28 -30 -75 0
-26 -31 -38 -41 -42 0
-15 -16 -49 -61 -68 0
-18 -19 -28 -30 -76 0
-26 -31 -38 -41 -42 0
-15 -16 -49 -61 -68 0
-18 -19 -28 -30 -76 0
-27 -31 -39 -41 -42 0
-15 -16 -50 -61 -69 0
-18 -19 -28 -30 -77 0
-27 -31 -39 -41 -42 0
-15 -16 -50 -61 -69 0
-18 -19 -28 -30 -77 0
-21 -32 -33 -41 -43 0
-15 -16 -44 -62 -63 0
-18 -20 -28 -30 -78 0
-21 -32 -33 -41 -43 0
-15 -16 -44 -62 -63 0
-18 -20 -28 -30 -78 0
-22 -32 -34 -41 -43 0
-15 -16 -45 -62 -64 0
-18 -20 -28 -30 -79 0
-22 -32 -34 -41 -43 0
-15 -16 -45 -62 -64 0
-18 -20 -28 -30 -79 0
-23 -32 -35 -41 -43 0
-15 -16 -46 -62 -65 0
-18 -20 -28 -30 -80 0
-23 -32 -35 -41 -43 0
-15 -16 -46 -62 -65 0
-18 -20 -28 -30 -80 0
-24 -32 -36 -41 -43 0
-15 -16 -47 -62 -66 0
-18 -20 -28 -30 -81 0
-24 -32 -36 -41 -43 0
-15 -16 -47 -62 -66 0
-18 -20 -28 -30 -81 0
-25 -32 -37 -41 -43 0
-15 -16 -48 -62 -67 0
-18 -20 -28 -30 -82 0
-25 -32 -37 -41 -43 0
-15 -16 -48 -62 -67 0
-18 -20 -28 -30 -82 0
-26 -32 -38 -41 -43 0
-15 -16 -49 -62 -68 0
-18 -20 -28 -30 -83 0
-26 -32 -38 -41 -43 0
-15 -16 -49 -62 -68 0
-18 -20 -28 -30 -83 0
-27 -32 -39 -41 -43 0
-15 -16 -50 -62 -69 0
-18 -20 -28 -30 -84 0
-27 -32 -39 -41 -43 0
-15 -16 -50 -62 -69 0
-18 -20 -28 -30 -84 0
-22 -33 -34 -41 -44 0
-15 -16 -45 -63 -64 0
-18 -21 -28 -30 -85 0
-22 -33 -34 -41 -44 0
-15 -16 -45 -63 -64 0
-18 -21 -28 -30 -85 0
-23 -33 -35 -41 -44 0
-15 -16 -46 -63 -65 0
-18 -21 -28 -30 -86 0
-23 -33 -35 -41 -44 0
-15 -16 -46 -63 -65 0
-18 -21 -28 -30 -86 0
-24 -33 -36 -41 -44 0
-15 -16 -47 -63 -66 0
-18 -21 -28 -30 -87 0
-24 -33 -36 -41 -44 0
-15 -16 -47 -63 -66 0
-18 -21 -28 -30 -87 0
-25 -33 -37 -41 -44 0
-15 -16 -48 -63 -67 0
-18 -21 -28 -30 -88 0
-25 -33 -37 -41 -44 0
-15 -16 -48 -63 -67 0
-18 -21 -28 -30 -88 0
-26 -33 -38 -41 -44 0
-15 -16 -49 -63 -68 0
-18 -21 -28 -30 -89 0
-26 -33 -38 -41 -44 0
-15 -16 -49 -63 -68 0
-18 -21 -28 -30 -89 0
-27 -33 -39 -41 -44 0
-15 -16 -50 -63 -69 0
-18 -21 -28 -30 -90 0
-27 -33 -39 -41 -44 0
-15 -16 -50 -63 -69 0
-18 -21 -28 -30 -90 0
-23 -34 -35 -41 -45 0
-15 -16 -46 -64 -65 0
-18 -22 -28 -30 -91 0
-23 -34 -35 -41 -45 0
-15 -16 -46 -64 -65 0
-18 -22 -28 -30 -91 0
-24 -34 -36 -41 -45 0
-15 -16 -47 -64 -66 0
-18 -22 -28 -30 -92 0
-24 -34 -36 -41 -45 0
-15 -16 -47 -64 -66 0
-18 -22 -28 -30 -92 0
-25 -34 -37 -41 -45 0
-15 -16 -48 -64 -67 0
-18 -22 -28 -30 -93 0
-25 -34 -37 -41 -45 0
-15 -16 -48 -64 -67 0
-18 -22 -28 -30 -93 0
-26 -34 -38 -41 -45 0
-15 -16 -49 -64 -68 0
-18 -22 -28 -30 -94 0
-26 -34 -38 -41 -45 0
-15 -16 -49 -64 -68 0
-18 -22 -28 -30 -94 0
-27 -34 -39 -41 -45 0
-15 -16 -50 -64 -69 0
-18 -22 -28 -30 -95 0
-27 -34 -39 -41 -45 0
-15 -16 -50 -64 -69 0
-18 -22 -28 -30 -95 0
-24 -35 -36 -41 -46 0
-15 -16 -47 -65 -66 0
-18 -23 -28 -30 -96 0
-24 -35 -36 -41 -46 0
-15 -16 -47 -65 -66 0
-18 -23 -28 -30 -96 0
-25 -35 -37 -41 -46 0
-15 -16 -48 -65 -67 0
-18 -23 -28 -30 -97 0
-25 -35 -37 -41 -46 0
-15 -16 -48 -65 -67 0
-18 -23 -28 -30 -97 0
-26 -35 -38 -41 -46 0
-15 -16 -49 -65 -68 0
-18 -23 -28 -30 -98 0
-26 -35 -38 -41 -46 0
-15 -16 -49 -65 -68 0
-18 -23 -28 -30 -98 0
-27 -35 -39 -41 -46 0
-15 -16 -50 -65 -69 0
-18 -23 -28 -30 -99 0
-27 -35 -39 -41 -46 0
-15 -16 -50 -65 -69 0
-18 -23 -28 -30 -99 0
-25 -36 -37 -41 -47 0
-15 -16 -48 -66 -67 0
-18 -24 -28 -30 -100 0
-25 -36 -37 -41 -47 0
-15 -16 -48 -66 -67 0
-18 -24 -28 -30 -100 0
-26 -36 -38 -41 -47 0
-15 -16 -49 -66 -68 0
-18 -24 -28 -30 -101 0
-26 -36 -38 -41 -47 0
-15 -16 -49 -66 -68 0
-18 -24 -28 -30 -101 0
-27 -36 -39 -41 -47 0
-15 -16 -50 -66 -69 0
-18 -24 -28 -30 -102 0
-27 -36 -39 -41 -47 0
-15 -16 -50 -66 -69 0
-18 -24 -28 -30 -102 0
-26 -37 -38 -41 -48 0
-15 -16 -49 -67 -68 0
-18 -25 -28 -30 -103 0
-26 -37 -38 -41 -48 0
-15 -16 -49 -67 -68 0
-18 -25 -28 -30 -103 0
-27 -37 -39 -41 -48 0
-15 -16 -50 -67 -69 0
-18 -25 -28 -30 -104 0
-27 -37 -39 -41 -48 0
-15 -16 -50 -67 -69 0
-18 -25 -28 -30 -104 0
-27 -38 -39 -41 -49 0
-15 -16 -50 -68 -69 0
-18 -26 -28 -30 -105 0
-27 -38 -39 -41 -49 0
-15 -16 -50 -68 -69 0
-18 -26 -28 -30 -105 0
-21 -32 -33 -42 -43 0
-15 -16 -44 -70 -71 0
-19 -20 -28 -31 -78 0
-21 -32 -33 -42 -43 0
-15 -16 -44 -70 -71 0
-19 -20 -28 -31 -78 0
-22 -32 -34 -42 -43 0
-15 -16 -45 -70 -72 0
-19 -20 -28 -31 -79 0
-22 -32 -34 -42 -43 0
-15 -16 -45 -70 -72 0
-19 -20 -28 -31 -79 0
-23 -32 -35 -42 -43 0
-15 -16 -46 -70 -73 0
-19 -20 -28 -31 -80 0
-23 -32 -35 -42 -43 0
-15 -16 -46 -70 -73 0
-19 -20 -28 -31 -80 0
-24 -32 -36 -42 -43 0
-15 -16 -47 -70 -74 0
-19 -20 -28 -31 -81 0
-24 -32 -36 -42 -43 0
-15 -16 -47 -70 -74 0
-19 -20 -28 -31 -81 0
-25 -32 -37 -42 -43 0
-15 -16 -48 -70 -75 0
-19 -20 -28 -31 -82 0
-25 -32 -37 -42 -43 0
-15 -16 -48 -70 -75 0
-19 -20 -28 -31 -82 0
-26 -32 -38 -42 -43 0
-15 -16 -49 -70 -76 0
-19 -20 -28 -31 -83 0
-26 -32 -38 -42 -43 0
-15 -16 -49 -70 -76 0
-19 -20 -28 -31 -83 0
-27 -32 -39 -42 -43 0
-15 -16 -50 -70 -77 0
-19 -20 -28 -31 -84 0
-27 -32 -39 -42 -43 0
-15 -16 -50 -70 -77 0
-19 -20 -28 -31 -84 0
-22 -33 -34 -42 -44 0
-15 -16 -45 -71 -72 0
-19 -21 -28 -31 -85 0
-22 -33 -34 -42 -44 0
-15 -16 -45 -71 -72 0
-19 -21 -28 -31 -85 0
-23 -33 -35 -42 -44 0
-15 -16 -46 -71 -73 0
-19 -21 -28 -31 -86 0
-23 -33 -35 -42 -44 0
-15 -16 -46 -71 -73 0
-19 -21 -28 -31 -86 0
-24 -33 -36 -42 -44 0
-15 -16 -47 -71 -74 0
-19 -21 -28 -31 -87 0
-24 -33 -36 -42 -44 0
-15 -16 -47 -71 -74 0
-19 -21 -28 -31 -87 0
-25 -33 -37 -42 -44 0
-15 -16 -48 -71 -75 0
-19 -21 -28 -31 -88 0
-25 -33 -37 -42 -44 0
-15 -16 -48 -71 -75 0
-19 -21 -28 -31 -88 0
-26 -33 -38 -42 -44 0
-15 -16 -49 -71 -76 0
-19 -21 -28 -31 -89 0
-26 -33 -38 -42 -44 0
-15 -16 -49 -71 -76 0
-19 -21 -28 -31 -89 0
-27 -33 -39 -42 -44 0
-15 -16 -50 -71 -77 0
-19 -21 -28 -31 -90 0
-27 -33 -39 -42 -44 0
-15 -16 -50 -71 -77 0
-19 -21 -28 -31 -90 0
-23 -34 -35 -42 -45 0
-15 -16 -46 -72 -73 0
-19 -22 -28 -31 -91 0
-23 -34 -35 -42 -45 0
-15 -16 -46 -72 -73 0
-19 -22 -28 -31 -91 0
-24 -34 -36 -42 -45 0
-15 -16 -47 -72 -74 0
-19 -22 -28 -31 -92 0
-24 -34 -36 -42 -45 0
-15 -16 -47 -72 -74 0
-19 -22 -28 -31 -92 0
-25 -34 -37 -42 -45 0
-15 -16 -48 -72 -75 0
-19 -22 -28 -31 -93 0
-25 -34 -37 -42 -45 0
-15 -16 -48 -72 -75 0
-19 -22 -28 -31 -93 0
-26 -34 -38 -42 -45 0
-15 -16 -49 -72 -76 0
-19 -22 -28 -31 -94 0
-26 -34 -38 -42 -45 0
-15 -16 -49 -72 -76 0
-19 -22 -28 -31 -94 0
-27 -34 -39 -42 -45 0
-15 -16 -50 -72 -77 0
-19 -22 -28 -31 -95 0
-27 -34 -39 -42 -45 0
-15 -16 -50 -72 -77 0
-19 -22 -28 -31 -95 0
-24 -35 -36 -42 -46 0
-15 -16 -47 -73 -74 0
-19 -23 -28 -31 -96 0
-24 -35 -36 -42 -46 0
-15 -16 -47 -73 -74 0
-19 -23 -28 -31 -96 0
-25 -35 -37 -42 -46 0
-15 -16 -48 -73 -75 0
-19 -23 -28 -31 -97 0
-25 -35 -37 -42 -46 0
-15 -16 -48 -73 -75 0
-19 -23 -28 -31 -97 0
-26 -35 -38 -42 -46 0
-15 -16 -49 -73 -76 0
-19 -23 -28 -31 -98 0
-26 -35 -38 -42 -46 0
-15 -16 -49 -73 -76 0
-19 -23 -28 -31 -98 0
-27 -35 -39 -42 -46 0
-15 -16 -50 -73 -77 0
-19 -23 -28 -31 -99 0
-27 -35 -39 -42 -46 0
-15 -16 -50 -73 -77 0
-19 -23 -28 -31 -99 0
-25 -36 -37 -42 -47 0
-15 -16 -48 -74 -75 0
-19 -24 -28 -31 -100 0
-25 -36 -37 -42 -47 0
-15 -16 -48 -74 -75 0
-19 -24 -28 -31 -100 0
-26 -36 -38 -42 -47 0
-15 -16 -49 -74 -76 0
-19 -24 -28 -31 -101 0
-26 -36 -38 -42 -47 0
-15 -16 -49 -74 -76 0
-19 -24 -28 -31 -101 0
-27 -36 -39 -42 -47 0
-15 -16 -50 -74 -77 0
-19 -24 -28 -31 -102 0
-27 -36 -39 -42 -47 0
-15 -16 -50 -74 -77 0
-19 -24 -28 -31 -102 0
-26 -37 -38 -42 -48 0
-15 -16 -49 -75 -76 0
-19 -25 -28 -31 -103 0
-26 -37 -38 -42 -48 0
-15 -16 -49 -75 -76 0
-19 -25 -28 -31 -103 0
-27 -37 -39 -42 -48 0
-15 -16 -50 -75 -77 0
-19 -25 -28 -31 -104 0
-27 -37 -39 -42 -48 0
-15 -16 -50 -75 -77 0
-19 -25 -28 -31 -104 0
-27 -38 -39 -42 -49 0
-15 -16 -50 -76 -77 0
-19 -26 -28 -31 -105 0
-27 -38 -39 -42 -49 0
-15 -16 -50 -76 -77 0
-19 -26 -28 -31 -105 0
-22 -33 -34 -43 -44 0
-15 -16 -45 -78 -79 0
-20 -21 -28 -32 -85 0
-22 -33 -34 -43 -44 0
-15 -16 -45 -78 -79 0
-20 -21 -28 -32 -85 0
-23 -33 -35 -43 -44 0
-15 -16 -46 -78 -80 0
-20 -21 -28 -32 -86 0
-23 -33 -35 -43 -44 0
-15 -16 -46 -78 -80 0
-20 -21 -28 -32 -86 0
-24 -33 -36 -43 -44 0
-15 -16 -47 -78 -81 0
-20 -21 -28 -32 -87 0
-24 -33 -36 -43 -44 0
-15 -16 -47 -78 -81 0
-20 -21 -28 -32 -87 0
-25 -33 -37 -43 -44 0
-15 -16 -48 -78 -82 0
-20 -21 -28 -32 -88 0
-25 -33 -37 -43 -44 0
-15 -16 -48 -78 -82 0
-20 -21 -28 -32 -88 0
-26 -33 -38 -43 -44 0
-15 -16 -49 -78 -83 0
-20 -21 -28 -32 -89 0
-26 -33 -38 -43 -44 0
-15 -16 -49 -78 -83 0
-20 -21 -28 -32 -89 0
-27 -33 -39 -43 -44 0
-15 -16 -50 -78 -84 0
-20 -21 -28 -32 -90 0
-27 -33 -39 -43 -44 0
-15 -16 -50 -78 -84 0
-20 -21 -28 -32 -90 0
-23 -34 -35 -43 -45 0
-15 -16 -46 -79 -80 0
-20 -22 -28 -32 -91 0
-23 -34 -35 -43 -45 0
-15 -16 -46 -79 -80 0
-20 -22 -28 -32 -91 0
-24 -34 -36 -43 -45 0
-15 -16 -47 -79 -81 0
-20 -22 -28 -32 -92 0
-24 -34 -36 -43 -45 0
-15 -16 -47 -79 -81 0
-20 -22 -28 -32 -92 0
-25 -34 -37 -43 -45 0
-15 -16 -48 -79 -82 0
-20 -22 -28 -32 -93 0
-25 -34 -37 -43 -45 0
-15 -16 -48 -79 -82 0
-20 -22 -28 -32 -93 0
-26 -34 -38 -43 -45 0
-15 -16 -49 -79 -83 0
-20 -22 -28 -32 -94 0
-26 -34 -38 -43 -45 0
-15 -16 -49 -79 -83 0
-20 -22 -28 -32 -94 0
-27 -34 -39 -43 -45 0
-15 -16 -50 -79 -84 0
-20 -22 -28 -32 -95 0
-27 -34 -39 -43 -45 0
-15 -16 -50 -79 -84 0
-20 -22 -28 -32 -95 0
-24 -35 -36 -43 -46 0
-15 -16 -47 -80 -81 0
-20 -23 -28 -32 -96 0
-24 -35 -36 -43 -46 0
-15 -16 -47 -80 -81 0
-20 -23 -28 -32 -96 0
-25 -35 -37 -43 -46 0
-15 -16 -48 -80 -82 0
-20 -23 -28 -32 -97 0
-25 -35 -37 -43 -46 0
-15 -16 -48 -80 -82 0
-20 -23 -28 -32 -97 0
-26 -35 -38 -43 -46 0
-15 -16 -49 -80 -83 0
-20 -23 -28 -32 -98 0
-26 -35 -38 -43 -46 0
-15 -16 -49 -80 -83 0
-20 -23 -28 -32 -98 0
-27 -35 -39 -43 -46 0
-15 -16 -50 -80 -84 0
-20 -23 -28 -32 -99 0
-27 -35 -39 -43 -46 0
-15 -16 -50 -80 -84 0
-20 -23 -28 -32 -99 0
-25 -36 -37 -43 -47 0
-15 -16 -48 -81 -82 0
-20 -24 -28 -32 -100 0
-25 -36 -37 -43 -47 0
-15 -16 -48 -81 -82 0
-20 -24 -28 -32 -100 0
-26 -36 -38 -43 -47 0
-15 -16 -49 -81 -83 0
-20 -24 -28 -32 -101 0
-26 -36 -38 -43 -47 0
-15 -16 -49 -81 -83 0
-20 -24 -28 -32 -101 0
-27 -36 -39 -43 -47 0
-15 -16 -50 -81 -84 0
-20 -24 -28 -32 -102 0
-27 -36 -39 -43 -47 0
-15 -16 -50 -81 -84 0
-20 -24 -28 -32 -102 0
-26 -37 -38 -43 -48 0
-15 -16 -49 -82 -83 0
-20 -25 -28 -32 -103 0
-26 -37 -38 -43 -48 0
-15 -16 -49 -82 -83 0
-20 -25 -28 -32 -103 0
-27 -37 -39 -43 -48 0
-15 -16 -50 -82 -84 0
-20 -25 -28 -32 -104 0
-27 -37 -39 -43 -48 0
-15 -16 -50 -82 -84 0
-20 -25 -28 -32 -104 0
-27 -38 -39 -43 -49 0
-15 -16 -50 -83 -84 0
-20 -26 -28 -32 -105 0
-27 -38 -39 -43 -49 0
-15 -16 -50 -83 -84 0
-20 -26 -28 -32 -105 0
-23 -34 -35 -44 -45 0
-15 -16 -46 -85 -86 0
-21 -22 -28 -33 -91 0
-23 -34 -35 -44 -45 0
-15 -16 -46 -85 -86 0
-21 -22 -28 -33 -91 0
-24 -34 -36 -44 -45 0
-15 -16 -47 -85 -87 0
-21 -22 -28 -33 -92 0
-24 -34 -36 -44 -45 0
-15 -16 -47 -85 -87 0
-21 -22 -28 -33 -92 0
-25 -34 -37 -44 -45 0
-15 -16 -48 -85 -88 0
-21 -22 -28 -33 -93 0
-25 -34 -37 -44 -45 0
-15 -16 -48 -85 -88 0
-21 -22 -28 -33 -93 0
-26 -34 -38 -44 -45 0
-15 -16 -49 -85 -89 0
-21 -22 -28 -33 -94 0
-26 -34 -38 -44 -45 0
-15 -16 -49 -85 -89 0
-21 -22 -28 -33 -94 0
-27 -34 -39 -44 -45 0
-15 -16 -50 -85 -90 0
-21 -22 -28 -33 -95 0
-27 -34 -39 -44 -45 0
-15 -16 -50 -85 -90 0
-21 -22 -28 -33 -95 0
-24 -35 -36 -44 -46 0
-15 -16 -47 -86 -87 0
-21 -23 -28 -33 -96 0
-24 -35 -36 -44 -46 0
-15 -16 -47 -86 -87 0
-21 -23 -28 -33 -96 0
-25 -35 -37 -44 -46 0
-15 -16 -48 -86 -88 0
-21 -23 -28 -33 -97 0
-25 -35 -37 -44 -46 0
-15 -16 -48 -86 -88 0
-21 -23 -28 -33 -97 0
-26 -35 -38 -44 -46 0
-15 -16 -49 -86 -89 0
-21 -23 -28 -33 -98 0
-26 -35 -38 -44 -46 0
-15 -16 -49 -86 -89 0
-21 -23 -28 -33 -98 0
-27 -35 -39 -44 -46 0
-15 -16 -50 -86 -90 0
-21 -23 -28 -33 -99 0
-27 -35 -39 -44 -46 0
-15 -16 -50 -86 -90 0
-21 -23 -28 -33 -99 0
-25 -36 -37 -44 -47 0
-15 -16 -48 -87 -88 0
-21 -24 -28 -33 -100 0
-25 -36 -37 -44 -47 0
-15 -16 -48 -87 -88 0
-21 -24 -28 -33 -100 0
-26 -36 -38 -44 -47 0
-15 -16 -49 -87 -89 0
-21 -24 -28 -33 -101 0
-26 -36 -38 -44 -47 0
-15 -16 -49 -87 -89 0
-21 -24 -28 -33 -101 0
-27 -36 -39 -44 -47 0
-15 -16 -50 -87 -90 0
-21 -24 -28 -33 -102 0
-27 -36 -39 -44 -47 0
-15 -16 -50 -87 -90 0
-21 -24 -28 -33 -102 0
-26 -37 -38 -44 -48 0
-15 -16 -49 -88 -89 0
-21 -25 -28 -33 -103 0
-26 -37 -38 -44 -48 0
-15 -16 -49 -88 -89 0
-21 -25 -28 -33 -103 0
-27 -37 -39 -44 -48 0
-15 -16 -50 -88 -90 0
-21 -25 -28 -33 -104 0
-27 -37 -39 -44 -48 0
-15 -16 -50 -88 -90 0
-21 -25 -28 -33 -104 0
-27 -38 -39 -44 -49 0
-15 -16 -50 -89 -90 0
-21 -26 -28 -33 -105 0
-27 -38 -39 -44 -49 0
-15 -16 -50 -89 -90 0
-21 -26 -28 -33 -105 0
-24 -35 -36 -45 -46 0
-15 -16 -47 -91 -92 0
-22 -23 -28 -34 -96 0
-24 -35 -36 -45 -46 0
-15 -16 -47 -91 -92 0
-22 -23 -28 -34 -96 0
-25 -35 -37 -45 -46 0
-15 -16 -48 -91 -93 0
-22 -23 -28 -34 -97 0
-25 -35 -37 -45 -46 0
-15 -16 -48 -91 -93 0
-22 -23 -28 -34 -97 0
-26 -35 -38 -45 -46 0
-15 -16 -49 -91 -94 0
-22 -23 -28 -34 -98 0
-26 -35 -38 -45 -46 0
-15 -16 -49 -91 -94 0
-22 -23 -28 -34 -98 0
-27 -35 -39 -45 -46 0
-15 -16 -50 -91 -95 0
-22 -23 -28 -34 -99 0
-27 -35 -39 -45 -46 0
-15 -16 -50 -91 -95 0
-22 -23 -28 -34 -99 0
-25 -36 -37 -45 -47 0
-15 -16 -48 -92 -93 0
-22 -24 -28 -34 -100 0
-25 -36 -37 -45 -47 0
-15 -16 -48 -92 -93 0
-22 -24 -28 -34 -100 0
-26 -36 -38 -45 -47 0
-15 -16 -49 -92 -94 0
-22 -24 -28 -34 -101 0
-26 -36 -38 -45 -47 0
-15 -16 -49 -92 -94 0
-22 -24 -28 -34 -101 0
-27 -36 -39 -45 -47 0
-15 -16 -50 -92 -95 0
-22 -24 -28 -34 -102 0
-27 -36 -39 -45 -47 0
-15 -16 -50 -92 -95 0
-22 -24 -28 -34 -102 0
-26 -37 -38 -45 -48 0
-15 -16 -49 -93 -94 0
-22 -25 -28 -34 -103 0
-26 -37 -38 -45 -48 0
-15 -16 -49 -93 -94 0
-22 -25 -28 -34 -103 0
-27 -37 -39 -45 -48 0
-15 -16 -50 -93 -95 0
-22 -25 -28 -34 -104 0
-27 -37 -39 -45 -48 0
-15 -16 -50 -93 -95 0
-22 -25 -28 -34 -104 0
-27 -38 -39 -45 -49 0
-15 -16 -50 -94 -95 0
-22 -26 -28 -34 -105 0
-27 -38 -39 -45 -49 0
-15 -16 -50 -94 -95 0
-22 -26 -28 -34 -105 0
-25 -36 -37 -46 -47 0
-15 -16 -48 -96 -97 0
-23 -24 -28 -35 -100 0
-25 -36 -37 -46 -47 0
-15 -16 -48 -96 -97 0
-23 -24 -28 -35 -100 0
-26 -36 -38 -46 -47 0
-15 -16 -49 -96 -98 0
-23 -24 -28 -35 -101 0
-26 -36 -38 -46 -47 0
-15 -16 -49 -96 -98 0
-23 -24 -28 -35 -101 0
-27 -36 -39 -46 -47 0
-15 -16 -50 -96 -99 0
-23 -24 -28 -35 -102 0
-27 -36 -39 -46 -47 0
-15 -16 -50 -96 -99 0
-23 -24 -28 -35 -102 0
-26 -37 -38 -46 -48 0
-15 -16 -49 -97 -98 0
-23 -25 -28 -35 -103 0
-26 -37 -38 -46 -48 0
-15 -16 -49 -97 -98 0
-23 -25 -28 -35 -103 0
-27 -37 -39 -46 -48 0
-15 -16 -50 -97 -99 0
-23 -25 -28 -35 -104 0
-27 -37 -39 -46 -48 0
-15 -16 -50 -97 -99 0
-23 -25 -28 -35 -104 0
-27 -38 -39 -46 -49 0
-15 -16 -50 -98 -99 0
-23 -26 -28 -35 -105 0
-27 -38 -39 -46 -49 0
-15 -16 -50 -98 -99 0
-23 -26 -28 -35 -105 0
-26 -37 -38 -47 -48 0
-15 -16 -49 -100 -101 0
-24 -25 -28 -36 -103 0
-26 -37 -38 -47 -48 0
-15 -16 -49 -100 -101 0
-24 -25 -28 -36 -103 0
-27 -37 -39 -47 -48 0
-15 -16 -50 -100 -102 0
-24 -25 -28 -36 -104 0
-27 -37 -39 -47 -48 0
-15 -16 -50 -100 -102 0
-24 -25 -28 -36 -104 0
-27 -38 -39 -47 -49 0
-15 -16 -50 -101 -102 0
-24 -26 -28 -36 -105 0
-27 -38 -39 -47 -49 0
-15 -16 -50 -101 -102 0
-24 -26 -28 -36 -105 0
-27 -38 -39 -48 -49 0
-15 -16 -50 -103 -104 0
-25 -26 -28 -37 -105 0
-27 -38 -39 -48 -49 0
-15 -16 -50 -103 -104 0
-25 -26 -28 -37 -105 0
-20 -31 -32 -51 -52 0
-15 -17 -53 -61 -62 0
-18 -19 -29 -30 -70 0
-20 -31 -32 -51 -52 0
-15 -17 -53 -61 -62 0
-18 -19 -29 -30 -70 0
-21 -31 -33 -51 -52 0
-15 -17 -54 -61 -63 0
-18 -19 -29 -30 -71 0
-21 -31 -33 -51 -52 0
-15 -17 -54 -61 -63 0
-18 -19 -29 -30 -71 0
-22 -31 -34 -51 -52 0
-15 -17 -55 -61 -64 0
-18 -19 -29 -30 -72 0
-22 -31 -34 -51 -52 0
-15 -17 -55 -61 -64 0
-18 -19 -29 -30 -72 0
-23 -31 -35 -51 -52 0
-15 -17 -56 -61 -65 0
-18 -19 -29 -30 -73 0
-23 -31 -35 -51 -52 0
-15 -17 -56 -61 -65 0
-18 -19 -29 -30 -73 0
-24 -31 -36 -51 -52 0
-15 -17 -57 -61 -66 0
-18 -19 -29 -30 -74 0
-24 -31 -36 -51 -52 0
-15 -17 -57 -61 -66 0
-18 -19 -29 -30 -74 0
-25 -31 -37 -51 -52 0
-15 -17 -58 -61 -67 0
-18 -19 -29 -30 -75 0
-25 -31 -37 -51 -52 0
-15 -17 -58 -61 -67 0
-18 -19 -29 -30 -75 0
-26 -31 -38 -51 -52 0
-15 -17 -59 -61 -68 0
-18 -19 -29 -30 -76 0
-26 -31 -38 -51 -52 0
-15 -17 -59 -61 -68 0
-18 -19 -29 -30 -76 0
-27 -31 -39 -51 -52 0
-15 -17 -60 -61 -69 0
-18 -19 -29 -30 -77 0
-27 -31 -39 -51 -52 0
-15 -17 -60 -61 -69 0
-18 -19 -29 -30 -77 0
-21 -32 -33 -51 -53 0
-15 -17 -54 -62 -63 0
-18 -20 -29 -30 -78 0
-21 -32 -33 -51 -53 0
-15 -17 -54 -62 -63 0
-18 -20 -29 -30 -78 0
-22 -32 -34 -51 -53 0
-15 -17 -55 -62 -64 0
-18 -20 -29 -30 -79 0
-22 -32 -34 -51 -53 0
-15 -17 -55 -62 -64 0
-18 -20 -29 -30 -79 0
-23 -32 -35 -51 -53 0
-15 -17 -56 -62 -65 0
-18 -20 -29 -30 -80 0
-23 -32 -35 -51 -53 0
-15 -17 -56 -62 -65 0
-18 -20 -29 -30 -80 0
-24 -32 -36 -51 -53 0
-15 -17 -57 -62 -66 0
-18 -20 -29 -30 -81 0
-24 -32 -36 -51 -53 0
-15 -17 -57 -62 -66 0
-18 -20 -29 -30 -81 0
-25 -32 -37 -51 -53 0
-15 -17 -58 -62 -67 0
-18 -20 -29 -30 -82 0
-25 -32 -37 -51 -53 0
-15 -17 -58 -62 -67 0
-18 -20 -29 -30 -82 0
-26 -32 -38 -51 -53 0
-15 -17 -59 -62 -68 0
-18 -20 -29 -30 -83 0
-26 -32 -38 -51 -53 0
-15 -17 -59 -62 -68 0
-18 -20 -29 -30 -83 0
-27 -32 -39 -51 -53 0
-15 -17 -60 -62 -69 0
-18 -20 -29 -30 -84 0
-27 -32 -39 -51 -53 0
-15 -17 -60 -62 -69 0
-18 -20 -29 -30 -84 0
-22 -33 -34 -51 -54 0
-15 -17 -55 -63 -64 0
-18 -21 -29 -30 -85 0
-22 -33 -34 -51 -54 0
-15 -17 -55 -63 -64 0
-18 -21 -29 -30 -85 0
-23 -33 -35 -51 -54 0
-15 -17 -56 -63 -65 0
-18 -21 -29 -30 -86 0
-23 -33 -35 -51 -54 0
-15 -17 -56 -63 -65 0
-18 -21 -29 -30 -86 0
-24 -33 -36 -51 -54 0
-15 -17 -57 -63 -66 0
-18 -21 -29 -30 -87 0
-24 -33 -36 -51 -54 0
-15 -17 -57 -63 -66 0
-18 -21 -29 -30 -87 0
-25 -33 -37 -51 -54 0
-15 -17 -58 -63 -67 0
-18 -21 -29 -30 -88 0
-25 -33 -37 -51 -54 0
-15 -17 -58 -63 -67 0
-18 -21 -29 -30 -88 0
-26 -33 -38 -51 -54 0
-15 -17 -59 -63 -68 0
-18 -21 -29 -30 -89 0
-26 -33 -38 -51 -54 0
-15 -17 -59 -63 -68 0
-18 -21 -29 -30 -89 0
-27 -33 -39 -51 -54 0
-15 -17 -60 -63 -69 0
-18 -21 -29 -30 -90 0
-27 -33 -39 -51 -54 0
-15 -17 -60 -63 -69 0
-18 -21 -29 -30 -90 0
-23 -34 -35 -51 -55 0
-15 -17 -56 -64 -65 0
-18 -22 -29 -30 -91 0
-23 -34 -35 -51 -55 0
-15 -17 -56 -64 -65 0
-18 -22 -29 -30 -91 0
-24 -34 -36 -51 -55 0
-15 -17 -57 -64 -66 0
-18 -22 -29 -30 -92 0
-24 -34 -36 -51 -55 0
-15 -17 -57 -64 -66 0
-18 -22 -29 -30 -92 0
-25 -34 -37 -51 -55 0
-15 -17 -58 -64 -67 0
-18 -22 -29 -30 -93 0
-25 -34 -37 -51 -55 0
-15 -17 -58 -64 -67 0
-18 -22 -29 -30 -93 0
-26 -34 -38 -51 -55 0
-15 -17 -59 -64 -68 0
-18 -22 -29 -30 -94 0
-26 -34 -38 -51 -55 0
-15 -17 -59 -64 -68 0
-18 -22 -29 -30 -94 0
-27 -34 -39 -51 -55 0
-15 -17 -60 -64 -69 0
-18 -22 -29 -30 -95 0
-27 -34 -39 -51 -55 0
-15 -17 -60 -64 -69 0
-18 -22 -29 -30 -95 0
-24 -35 -36 -51 -56 0
-15 -17 -57 -65 -66 0
-18 -23 -29 -30 -96 0
-24 -35 -36 -51 -56 0
-15 -17 -57 -65 -66 0
-18 -23 -29 -30 -96 0
-25 -35 -37 -51 -56 0
-15 -17 -58 -65 -67 0
-18 -23 -29 -30 -97 0
-25 -35 -37 -51 -56 0
-15 -17 -58 -65 -67 0
-18 -23 -29 -30 -97 0
-26 -35 -38 -51 -56 0
-15 -17 -59 -65 -68 0
-18 -23 -29 -30 -98 0
-26 -35 -38 -51 -56 0
-15 -17 -59 -65 -68 0
-18 -23 -29 -30 -98 0
-27 -35 -39 -51 -56 0
-15 -17 -60 -65 -69 0
-18 -23 -29 -30 -99 0
-27 -35 -39 -51 -56 0
-15 -17 -60 -65 -69 0
-18 -23 -29 -30 -99 0
-25 -36 -37 -51 -57 0
-15 -17 -58 -66 -67 0
-18 -24 -29 -30 -100 0
-25 -36 -37 -51 -57 0
-15 -17 -58 -66 -67 0
-18 -24 -29 -30 -100 0
-26 -36 -38 -51 -57 0
-15 -17 -59 -66 -68 0
-18 -24 -29 -30 -101 0
-26 -36 -38 -51 -57 0
-15 -17 -59 -66 -68 0
-18 -24 -29 -30 -101 0
-27 -36 -39 -51 -57 0
-15 -17 -60 -66 -69 0
-18 -24 -29 -30 -102 0
-27 -36 -39 -51 -57 0
-15 -17 -60 -66 -69 0
-18 -24 -29 -30 -102 0
-26 -37 -38 -51 -58 0
-15 -17 -59 -67 -68 0
-18 -25 -29 -30 -103 0
-26 -37 -38 -51 -58 0
-15 -17 -59 -67 -68 0
-18 -25 -29 -30 -103 0
-27 -37 -39 -51 -58 0
-15 -17 -60 -67 -69 0
-18 -25 -29 -30 -104 0
-27 -37 -39 -51 -58 0
-15 -17 -60 -67 -69 0
-18 -25 -29 -30 -104 0
-27 -38 -39 -51 -59 0
-15 -17 -60 -68 -69 0
-18 -26 -29 -30 -105 0
-27 -38 -39 -51 -59 0
-15 -17 -60 -68 -69 0
-18 -26 -29 -30 -105 0
-21 -32 -33 -52 -53 0
-15 -17 -54 -70 -71 0
-19 -20 -29 -31 -78 0
-21 -32 -33 -52 -53 0
-15 -17 -54 -70 -71 0
-19 -20 -29 -31 -78 0
-22 -32 -34 -52 -53 0
-15 -17 -55 -70 -72 0
-19 -20 -29 -31 -79 0
-22 -32 -34 -52 -53 0
-15 -17 -55 -70 -72 0
-19 -20 -29 -31 -79 0
-23 -32 -35 -52 -53 0
-15 -17 -56 -70 -73 0
-19 -20 -29 -31 -80 0
-23 -32 -35 -52 -53 0
-15 -17 -56 -70 -73 0
-19 -20 -29 -31 -80 0
-24 -32 -36 -52 -53 0
-15 -17 -57 -70 -74 0
-19 -20 -29 -31 -81 0
-24 -32 -36 -52 -53 0
-15 -17 -57 -70 -74 0
-19 -20 -29 -31 -81 0
-25 -32 -37 -52 -53 0
-15 -17 -58 -70 -75 0
-19 -20 -29 -31 -82 0
-25 -32 -37 -52 -53 0
-15 -17 -58 -70 -75 0
-19 -20 -29 -31 -82 0
-26 -32 -38 -52 -53 0
-15 -17 -59 -70 -76 0
-19 -20 -29 -31 -83 0
-26 -32 -38 -52 -53 0
-15 -17 -59 -70 -76 0
-19 -20 -29 -31 -83 0
-27 -32 -39 -52 -53 0
-15 -17 -60 -70 -77 0
-19 -20 -29 -31 -84 0
-27 -32 -39 -52 -53 0
-15 -17 -60 -70 -77 0
-19 -20 -29 -31 -84 0
-22 -33 -34 -52 -54 0
-15 -17 -55 -71 -72 0
-19 -21 -29 -31 -85 0
-22 -33 -34 -52 -54 0
-15 -17 -55 -71 -72 0
-19 -21 -29 -31 -85 0
-23 -33 -35 -52 -54 0
-15 -17 -56 -71 -73 0
-19 -21 -29 -31 -86 0
-23 -33 -35 -52 -54 0
-15 -17 -56 -71 -73 0
-19 -21 -29 -31 -86 0
-24 -33 -36 -52 -54 0
-15 -17 -57 -71 -74 0
-19 -21 -29 -31 -87 0
-24 -33 -36 -52 -54 0
-15 -17 -57 -71 -74 0
-19 -21 -29 -31 -87 0
-25 -33 -37 -52 -54 0
-15 -17 -58 -71 -75 0
-19 -21 -29 -31 -88 0
-25 -33 -37 -52 -54 0
-15 -17 -58 -71 -75 0
-19 -21 -29 -31 -88 0
-26 -33 -38 -52 -54 0
-15 -17 -59 -71 -76 0
-19 -21 -29 -31 -89 0
-26 -33 -38 -52 -54 0
-15 -17 -59 -71 -76 0
-19 -21 -29 -31 -89 0
-27 -33 -39 -52 -54 0
-15 -17 -60 -71 -77 0
-19 -21 -29 -31 -90 0
-27 -33 -39 -52 -54 0
-15 -17 -60 -71 -77 0
-19 -21 -29 -31 -90 0
-23 -34 -35 -52 -55 0
-15 -17 -56 -72 -73 0
-19 -22 -29 -31 -91 0
-23 -34 -35 -52 -55 0
-15 -17 -56 -72 -73 0
-19 -22 -29 -31 -91 0
-24 -34 -36 -52 -55 0
-15 -17 -57 -72 -74 0
-19 -22 -29 -31 -92 0
-24 -34 -36 -52 -55 0
-15 -17 -57 -72 -74 0
-19 -22 -29 -31 -92 0
-25 -34 -37 -52 -55 0
-15 -17 -58 -72 -75 0
-19 -22 -29 -31 -93 0
-25 -34 -37 -52 -55 0
-15 -17 -58 -72 -75 0
-19 -22 -29 -31 -93 0
-26 -34 -38 -52 -55 0
-15 -17 -59 -72 -76 0
-19 -22 -29 -31 -94 0
-26 -34 -38 -52 -55 0
-15 -17 -59 -72 -76 0
-19 -22 -29 -31 -94 0
-27 -34 -39 -52 -55 0
-15 -17 -60 -72 -77 0
-19 -22 -29 -31 -95 0
-27 -34 -39 -52 -55 0
-15 -17 -60 -72 -77 0
-19 -22 -29 -31 -95 0
-24 -35 -36 -52 -56 0
-15 -17 -57 -73 -74 0
-19 -23 -29 -31 -96 0
-24 -35 -36 -52 -56 0
-15 -17 -57 -73 -74 0
-19 -23 -29 -31 -96 0
-25 -35 -37 -52 -56 0
-15 -17 -58 -73 -75 0
-19 -23 -29 -31 -97 0
-25 -35 -37 -52 -56 0
-15 -17 -58 -73 -75 0
-19 -23 -29 -31 -97 0
-26 -35 -38 -52 -56 0
-15 -17 -59 -73 -76 0
-19 -23 -29 -31 -98 0
-26 -35 -38 -52 -56 0
-15 -17 -59 -73 -76 0
-19 -23 -29 -31 -98 0
-27 -35 -39 -52 -56 0
-15 -17 -60 -73 -77 0
-19 -23 -29 -31 -99 0
-27 -35 -39 -52 -56 0
-15 -17 -60 -73 -77 0
-19 -23 -29 -31 -99 0
-25 -36 -37 -52 -57 0
-15 -17 -58 -74 -75 0
-19 -24 -29 -31 -100 0
-25 -36 -37 -52 -57 0
-15 -17 -58 -74 -75 0
-19 -24 -29 -31 -100 0
-26 -36 -38 -52 -57 0
-15 -17 -59 -74 -76 0
-19 -24 -29 -31 -101 0
-26 -36 -38 -52 -57 0
-15 -17 -59 -74 -76 0
-19 -24 -29 -31 -101 0
-27 -36 -39 -52 -57 0
-15 -17 -60 -74 -77 0
-19 -24 -29 -31 -102 0
-27 -36 -39 -52 -57 0
-15 -17 -60 -74 -77 0
-19 -24 -29 -31 -102 0
-26 -37 -38 -52 -58 0
-15 -17 -59 -75 -76 0
-19 -25 -29 -31 -103 0
-26 -37 -38 -52 -58 0
-15 -17 -59 -75 -76 0
-19 -25 -29 -31 -103 0
-27 -37 -39 -52 -58 0
-15 -17 -60 -75 -77 0
-19 -25 -29 -31 -104 0
-27 -37 -39 -52 -58 0
-15 -17 -60 -75 -77 0
-19 -25 -29 -31 -104 0
-27 -38 -39 -52 -59 0
-15 -17 -60 -76 -77 0
-19 -26 -29 -31 -105 0
-27 -38 -39 -52 -59 0
-15 -17 -60 -76 -77 0
-19 -26 -29 -31 -105 0
-22 -33 -34 -53 -54 0
-15 -17 -55 -78 -79 0
-20 -21 -29 -32 -85 0
-22 -33 -34 -53 -54 0
-15 -17 -55 -78 -79 0
-20 -21 -29 -32 -85 0
-23 -33 -35 -53 -54 0
-15 -17 -56 -78 -80 0
-20 -21 -29 -32 -86 0
-23 -33 -35 -53 -54 0
-15 -17 -56 -78 -80 0
-20 -21 -29 -32 -86 0
-24 -33 -36 -53 -54 0
-15 -17 -57 -78 -81 0
-20 -21 -29 -32 -87 0
-24 -33 -36 -53 -54 0
-15 -17 -57 -78 -81 0
-20 -21 -29 -32 -87 0
-25 -33 -37 -53 -54 0
-15 -17 -58 -78 -82 0
-20 -21 -29 -32 -88 0
-25 -33 -37 -53 -54 0
-15 -17 -58 -78 -82 0
-20 -21 -29 -32 -88 0
-26 -33 -38 -53 -54 0
-15 -17 -59 -78 -83 0
-20 -21 -29 -32 -89 0
-26 -33 -38 -53 -54 0
-15 -17 -59 -78 -83 0
-20 -21 -29 -32 -89 0
-27 -33 -39 -53 -54 0
-15 -17 -60 -78 -84 0
-20 -21 -29 -32 -90 0
-27 -33 -39 -53 -54 0
-15 -17 -60 -78 -84 0
-20 -21 -29 -32 -90 0
-23 -34 -35 -53 -55 0
-15 -17 -56 -79 -80 0
-20 -22 -29 -32 -91 0
-23 -34 -35 -53 -55 0
-15 -17 -56 -79 -80 0
-20 -22 -29 -32 -91 0
-24 -34 -36 -53 -55 0
-15 -17 -57 -79 -81 0
-20 -22 -29 -32 -92 0
-24 -34 -36 -53 -55 0
-15 -17 -57 -79 -81 0
-20 -22 -29 -32 -92 0
-25 -34 -37 -53 -55 0
-15 -17 -58 -79 -82 0
-20 -22 -29 -32 -93 0
-25 -34 -37 -53 -55 0
-15 -17 -58 -79 -82 0
-20 -22 -29 -32 -93 0
-26 -34 -38 -53 -55 0
-15 -17 -59 -79 -83 0
-20 -22 -29 -32 -94 0
-26 -34 -38 -53 -55 0
-15 -17 -59 -79 -83 0
-20 -22 -29 -32 -94 0
-27 -34 -39 -53 -55 0
-15 -17 -60 -79 -84 0
-20 -22 -29 -32 -95 0
-27 -34 -39 -53 -55 0
-15 -17 -60 -79 -84 0
-20 -22 -29 -32 -95 0
-24 -35 -36 -53 -56 0
-15 -17 -57 -80 -81 0
-20 -23 -29 -32 -96 0
-24 -35 -36 -53 -56 0
-15 -17 -57 -80 -81 0
-20 -23 -29 -32 -96 0
-25 -35 -37 -53 -56 0
-15 -17 -58 -80 -82 0
-20 -23 -29 -32 -97 0
-25 -35 -37 -53 -56 0
-15 -17 -58 -80 -82 0
-20 -23 -29 -32 -97 0
-26 -35 -38 -53 -56 0
-15 -17 -59 -80 -83 0
-20 -23 -29 -32 -98 0
-26 -35 -38 -53 -56 0
-15 -17 -59 -80 -83 0
-20 -23 -29 -32 -98 0
-27 -35 -39 -53 -56 0
-15 -17 -60 -80 -84 0
-20 -23 -29 -32 -99 0
-27 -35 -39 -53 -56 0
-15 -17 -60 -80 -84 0
-20 -23 -29 -32 -99 0
-25 -36 -37 -53 -57 0
-15 -17 -58 -81 -82 0
-20 -24 -29 -32 -100 0
-25 -36 -37 -53 -57 0
-15 -17 -58 -81 -82 0
-20 -24 -29 -32 -100 0
-26 -36 -38 -53 -57 0
-15 -17 -59 -81 -83 0
-20 -24 -29 -32 -101 0
-26 -36 -38 -53 -57 0
-15 -17 -59 -81 -83 0
-20 -24 -29 -32 -101 0
-27 -36 -39 -53 -57 0
-15 -17 -60 -81 -84 0
-20 -24 -29 -32 -102 0
-27 -36 -39 -53 -57 0
-15 -17 -60 -81 -84 0
-20 -24 -29 -32 -102 0
-26 -37 -38 -53 -58 0
-15 -17 -59 -82 -83 0
-20 -25 -29 -32 -103 0
-26 -37 -38 -53 -58 0
-15 -17 -59 -82 -83 0
-20 -25 -29 -32 -103 0
-27 -37 -39 -53 -58 0
-15 -17 -60 -82 -84 0
-20 -25 -29 -32 -104 0
-27 -37 -39 -53 -58 0
-15 -17 -60 -82 -84 0
-20 -25 -29 -32 -104 0
-27 -38 -39 -53 -59 0
-15 -17 -60 -83 -84 0
-20 -26 -29 -32 -105 0
-27 -38 -39 -53 -59 0
-15 -17 -60 -83 -84 0
-20 -26 -29 -32 -105 0
-23 -34 -35 -54 -55 0
-15 -17 -56 -85 -86 0
-21 -22 -29 -33 -91 0
-23 -34 -35 -54 -55 0
-15 -17 -56 -85 -86 0
-21 -22 -29 -33 -91 0
-24 -34 -36 -54 -55 0
-15 -17 -57 -85 -87 0
-21 -22 -29 -33 -92 0
-24 -34 -36 -54 -55 0
-15 -17 -57 -85 -87 0
-21 -22 -29 -33 -92 0
-25 -34 -37 -54 -55 0
-15 -17 -58 -85 -88 0
-21 -22 -29 -33 -93 0
-25 -34 -37 -54 -55 0
-15 -17 -58 -85 -88 0
-21 -22 -29 -33 -93 0
-26 -34 -38 -54 -55 0
-15 -17 -59 -85 -89 0
-21 -22 -29 -33 -94 0
-26 -34 -38 -54 -55 0
-15 -17 -59 -85 -89 0
-21 -22 -29 -33 -94 0
-27 -34 -39 -54 -55 0
-15 -17 -60 -85 -90 0
-21 -22 -29 -33 -95 0
-27 -34 -39 -54 -55 0
-15 -17 -60 -85 -90 0
-21 -22 -29 -33 -95 0
-24 -35 -36 -54 -56 0
-15 -17 -57 -86 -87 0
-21 -23 -29 -33 -96 0
-24 -35 -36 -54 -56 0
-15 -17 -57 -86 -87 0
-21 -23 -29 -33 -96 0
-25 -35 -37 -54 -56 0
-15 -17 -58 -86 -88 0
-21 -23 -29 -33 -97 0
-25 -35 -37 -54 -56 0
-15 -17 -58 -86 -88 0
-21 -23 -29 -33 -97 0
-26 -35 -38 -54 -56 0
-15 -17 -59 -86 -89 0
-21 -23 -29 -33 -98 0
-26 -35 -38 -54 -56 0
-15 -17 -59 -86 -89 0
-21 -23 -29 -33 -98 0
-27 -35 -39 -54 -56 0
-15 -17 -60 -86 -90 0
-21 -23 -29 -33 -99 0
-27 -35 -39 -54 -56 0
-15 -17 -60 -86 -90 0
-21 -23 -29 -33 -99 0
-25 -36 -37 -54 -57 0
-15 -17 -58 -87 -88 0
-21 -24 -29 -33 -100 0
-25 -36 -37 -54 -57 0
-15 -17 -58 -87 -88 0
-21 -24 -29 -33 -100 0
-26 -36 -38 -54 -57 0
-15 -17 -59 -87 -89 0
-21 -24 -29 -33 -101 0
-26 -36 -38 -54 -57 0
-15 -17 -59 -87 -89 0
-21 -24 -29 -33 -101 0
-27 -36 -39 -54 -57 0
-15 -17 -60 -87 -90 0
-21 -24 -29 -33 -102 0
-27 -36 -39 -54 -57 0
-15 -17 -60 -87 -90 0
-21 -24 -29 -33 -102 0
-26 -37 -38 -54 -58 0
-15 -17 -59 -88 -89 0
-21 -25 -29 -33 -103 0
-26 -37 -38 -54 -58 0
-15 -17 -59 -88 -89 0
-21 -25 -29 -33 -103 0
-27 -37 -39 -54 -58 0
-15 -17 -60 -88 -90 0
-21 -25 -29 -33 -104 0
-27 -37 -39 -54 -58 0
-15 -17 -60 -88 -90 0
-21 -25 -29 -33 -104 0
-27 -38 -39 -54 -59 0
-15 -17 -60 -89 -90 0
-21 -26 -29 -33 -105 0
-27 -38 -39 -54 -59 0
-15 -17 -60 -89 -90 0
-21 -26 -29 -33 -105 0
-24 -35 -36 -55 -56 0
-15 -17 -57 -91 -92 0
-22 -23 -29 -34 -96 0
-24 -35 -36 -55 -56 0
-15 -17 -57 -91 -92 0
-22 -23 -29 -34 -96 0
-25 -35 -37 -55 -56 0
-15 -17 -58 -91 -93 0
-22 -23 -29 -34 -97 0
-25 -35 -37 -55 -56 0
-15 -17 -58 -91 -93 0
-22 -23 -29 -34 -97 0
-26 -35 -38 -55 -56 0
-15 -17 -59 -91 -94 0
-22 -23 -29 -34 -98 0
-26 -35 -38 -55 -56 0
-15 -17 -59 -91 -94 0
-22 -23 -29 -34 -98 0
-27 -35 -39 -55 -56 0
-15 -17 -60 -91 -95 0
-22 -23 -29 -34 -99 0
-27 -35 -39 -55 -56 0
-15 -17 -60 -91 -95 0
-22 -23 -29 -34 -99 0
-25 -36 -37 -55 -57 0
-15 -17 -58 -92 -93 0
-22 -24 -29 -34 -100 0
-25 -36 -37 -55 -57 0
-15 -17 -58 -92 -93 0
-22 -24 -29 -34 -100 0
-26 -36 -38 -55 -57 0
-15 -17 -59 -92 -94 0
-22 -24 -29 -34 -101 0
-26 -36 -38 -55 -57 0
-15 -17 -59 -92 -94 0
-22 -24 -29 -34 -101 0
-27 -36 -39 -55 -57 0
-15 -17 -60 -92 -95 0
-22 -24 -29 -34 -102 0
-27 -36 -39 -55 -57 0
-15 -17 -60 -92 -95 0
-22 -24 -29 -34 -102 0
-26 -37 -38 -55 -58 0
-15 -17 -59 -93 -94 0
-22 -25 -29 -34 -103 0
-26 -37 -38 -55 -58 0
-15 -17 -59 -93 -94 0
-22 -25 -29 -34 -103 0
-27 -37 -39 -55 -58 0
-15 -17 -60 -93 -95 0
-22 -25 -29 -34 -104 0
-27 -37 -39 -55 -58 0
-15 -17 -60 -93 -95 0
-22 -25 -29 -34 -104 0
-27 -38 -39 -55 -59 0
-15 -17 -60 -94 -95 0
-22 -26 -29 -34 -105 0
-27 -38 -39 -55 -59 0
-15 -17 -60 -94 -95 0
-22 -26 -29 -34 -105 0
-25 -36 -37 -56 -57 0
-15 -17 -58 -96 -97 0
-23 -24 -29 -35 -100 0
-25 -36 -37 -56 -57 0
-15 -17 -58 -96 -97 0
-23 -24 -29 -35 -100 0
-26 -36 -38 -56 -57 0
-15 -17 -59 -96 -98 0
-23 -24 -29 -35 -101 0
-26 -36 -38 -56 -57 0
-15 -17 -59 -96 -98 0
-23 -24 -29 -35 -101 0
-27 -36 -39 -56 -57 0
-15 -17 -60 -96 -99 0
-23 -24 -29 -35 -102 0
-27 -36 -39 -56 -57 0
-15 -17 -60 -96 -99 0
-23 -24 -29 -35 -102 0
-26 -37 -38 -56 -58 0
-15 -17 -59 -97 -98 0
-23 -25 -29 -35 -103 0
-26 -37 -38 -56 -58 0
-15 -17 -59 -97 -98 0
-23 -25 -29 -35 -103 0
-27 -37 -39 -56 -58 0
-15 -17 -60 -97 -99 0
-23 -25 -29 -35 -104 0
-27 -37 -39 -56 -58 0
-15 -17 -60 -97 -99 0
-23 -25 -29 -35 -104 0
-27 -38 -39 -56 -59 0
-15 -17 -60 -98 -99 0
-23 -26 -29 -35 -105 0
-27 -38 -39 -56 -59 0
-15 -17 -60 -98 -99 0
-23 -26 -29 -35 -105 0
-26 -37 -38 -57 -58 0
-15 -17 -59 -100 -101 0
-24 -25 -29 -36 -103 0
-26 -37 -38 -57 -58 0
-15 -17 -59 -100 -101 0
-24 -25 -29 -36 -103 0
-27 -37 -39 -57 -58 0
-15 -17 -60 -100 -102 0
-24 -25 -29 -36 -104 0
-27 -37 -39 -57 -58 0
-15 -17 -60 -100 -102 0
-24 -25 -29 -36 -104 0
-27 -38 -39 -57 -59 0
-15 -17 -60 -101 -102 0
-24 -26 -29 -36 -105 0
-27 -38 -39 -57 -59 0
-15 -17 -60 -101 -102 0
-24 -26 -29 -36 -105 0
-27 -38 -39 -58 -59 0
-15 -17 -60 -103 -104 0
-25 -26 -29 -37 -105 0
-27 -38 -39 -58 -59 0
-15 -17 -60 -103 -104 0
-25 -26 -29 -37 -105 0
-21 -32 -33 -61 -62 0
-15 -18 -63 -70 -71 0
-19 -20 -30 -31 -78 0
-21 -32 -33 -61 -62 0
-15 -18 -63 -70 -71 0
-19 -20 -30 -31 -78 0
-22 -32 -34 -61 -62 0
-15 -18 -64 -70 -72 0
-19 -20 -30 -31 -79 0
-22 -32 -34 -61 -62 0
-15 -18 -64 -70 -72 0
-19 -20 -30 -31 -79 0
-23 -32 -35 -61 -62 0
-15 -18 -65 -70 -73 0
-19 -20 -30 -31 -80 0
-23 -32 -35 -61 -62 0
-15 -18 -65 -70 -73 0
-19 -20 -30 -31 -80 0
-24 -32 -36 -61 -62 0
-15 -18 -66 -70 -74 0
-19 -20 -30 -31 -81 0
-24 -32 -36 -61 -62 0
-15 -18 -66 -70 -74 0
-19 -20 -30 -31 -81 0
-25 -32 -37 -61 -62 0
-15 -18 -67 -70 -75 0
-19 -20 -30 -31 -82 0
-25 -32 -37 -61 -62 0
-15 -18 -67 -70 -75 0
-19 -20 -30 -31 -82 0
-26 -32 -38 -61 -62 0
-15 -18 -68 -70 -76 0
-19 -20 -30 -31 -83 0
-26 -32 -38 -61 -62 0
-15 -18 -68 -70 -76 0
-19 -20 -30 -31 -83 0
-27 -32 -39 -61 -62 0
-15 -18 -69 -70 -77 0
-19 -20 -30 -31 -84 0
-27 -32 -39 -61 -62 0
-15 -18 -69 -70 -77 0
-19 -20 -30 -31 -84 0
-22 -33 -34 -61 -63 0
-15 -18 -64 -71 -72 0
-19 -21 -30 -31 -85 0
-22 -33 -34 -61 -63 0
-15 -18 -64 -71 -72 0
-19 -21 -30 -31 -85 0
-23 -33 -35 -61 -63 0
-15 -18 -65 -71 -73 0
-19 -21 -30 -31 -86 0
-23 -33 -35 -61 -63 0
-15 -18 -65 -71 -73 0
-19 -21 -30 -31 -86 0
-24 -33 -36 -61 -63 0
-15 -18 -66 -71 -74 0
-19 -21 -30 -31 -87 0
-24 -33 -36 -61 -63 0
-15 -18 -66 -71 -74 0
-19 -21 -30 -31 -87 0
-25 -33 -37 -61 -63 0
-15 -18 -67 -71 -75 0
-19 -21 -30 -31 -88 0
-25 -33 -37 -61 -63 0
-15 -18 -67 -71 -75 0
-19 -21 -30 -31 -88 0
-26 -33 -38 -61 -63 0
-15 -18 -68 -71 -76 0
-19 -21 -30 -31 -89 0
-26 -33 -38 -61 -63 0
-15 -18 -68 -71 -76 0
-19 -21 -30 -31 -89 0
-27 -33 -39 -61 -63 0
-15 -18 -69 -71 -77 0
-19 -21 -30 -31 -90 0
-27 -33 -39 -61 -63 0
-15 -18 -69 -71 -77 0
-19 -21 -30 -31 -90 0
-23 -34 -35 -61 -64 0
-15 -18 -65 -72 -73 0
-19 -22 -30 -31 -91 0
-23 -34 -35 -61 -64 0
-15 -18 -65 -72 -73 0
-19 -22 -30 -31 -91 0
-24 -34 -36 -61 -64 0
-15 -18 -66 -72 -74 0
-19 -22 -30 -31 -92 0
-24 -34 -36 -61 -64 0
-15 -18 -66 -72 -74 0
-19 -22 -30 -31 -92 0
-25 -34 -37 -61 -64 0
-15 -18 -67 -72 -75 0
-19 -22 -30 -31 -93 0
-25 -34 -37 -61 -64 0
-15 -18 -67 -72 -75 0
-19 -22 -30 -31 -93 0
-26 -34 -38 -61 -64 0
-15 -18 -68 -72 -76 0
-19 -22 -30 -31 -94 0
-26 -34 -38 -61 -64 0
-15 -18 -68 -72 -76 0
-19 -22 -30 -31 -94 0
-27 -34 -39 -61 -64 0
-15 -18 -69 -72 -77 0
-19 -22 -30 -31 -95 0
-27 -34 -39 -61 -64 0
-15 -18 -69 -72 -77 0
-19 -22 -30 -31 -95 0
-24 -35 -36 -61 -65 0
-15 -18 -66 -73 -74 0
-19 -23 -30 -31 -96 0
-24 -35 -36 -61 -65 0
-15 -18 -66 -73 -74 0
-19 -23 -30 -31 -96 0
-25 -35 -37 -61 -65 0
-15 -18 -67 -73 -75 0
-19 -23 -30 -31 -97 0
-25 -35 -37 -61 -65 0
-15 -18 -67 -73 -75 0
-19 -23 -30 -31 -97 0
-26 -35 -38 -61 -65 0
-15 -18 -68 -73 -76 0
-19 -23 -30 -31 -98 0
-26 -35 -38 -61 -65 0
-15 -18 -68 -73 -76 0
-19 -23 -30 -31 -98 0
-27 -35 -39 -61 -65 0
-15 -18 -69 -73 -77 0
-19 -23 -30 -31 -99 0
-27 -35 -39 -61 -65 0
-15 -18 -69 -73 -77 0
-19 -23 -30 -31 -99 0
-25 -36 -37 -61 -66 0
-15 -18 -67 -74 -75 0
-19 -24 -30 -31 -100 0
-25 -36 -37 -61 -66 0
-15 -18 -67 -74 -75 0
-19 -24 -30 -31 -100 0
-26 -36 -38 -61 -66 0
-15 -18 -68 -74 -76 0
-19 -24 -30 -31 -101 0
-26 -36 -38 -61 -66 0
-15 -18 -68 -74 -76 0
-19 -24 -30 -31 -101 0
-27 -36 -39 -61 -66 0
-15 -18 -69 -74 -77 0
-19 -24 -30 -31 -102 0
-27 -36 -39 -61 -66 0
-15 -18 -69 -74 -77 0
-19 -24 -30 -31 -102 0
-26 -37 -38 -61 -67 0
-15 -18 -68 -75 -76 0
-19 -25 -30 -31 -103 0
-26 -37 -38 -61 -67 0
-15 -18 -68 -75 -76 0
-19 -25 -30 -31 -103 0
-27 -37 -39 -61 -67 0
-15 -18 -69 -75 -77 0
-19 -25 -30 -31 -104 0
-27 -37 -39 -61 -67 0
-15 -18 -69 -75 -77 0
-19 -25 -30 -31 -104 0
-27 -38 -39 -61 -68 0
-15 -18 -69 -76 -77 0
-19 -26 -30 -31 -105 0
-27 -38 -39 -61 -68 0
-15 -18 -69 -76 -77 0
-19 -26 -30 -31 -105 0
-22 -33 -34 -62 -63 0
-15 -18 -64 -78 -79 0
-20 -21 -30 -32 -85 0
-22 -33 -34 -62 -63 0
-15 -18 -64 -78 -79 0
-20 -21 -30 -32 -85 0
-23 -33 -35 -62 -63 0
-15 -18 -65 -78 -80 0
-20 -21 -30 -32 -86 0
-23 -33 -35 -62 -63 0
-15 -18 -65 -78 -80 0
-20 -21 -30 -32 -86 0
-24 -33 -36 -62 -63 0
-15 -18 -66 -78 -81 0
-20 -21 -30 -32 -87 0
-24 -33 -36 -62 -63 0
-15 -18 -66 -78 -81 0
-20 -21 -30 -32 -87 0
-25 -33 -37 -62 -63 0
-15 -18 -67 -78 -82 0
-20 -21 -30 -32 -88 0
-25 -33 -37 -62 -63 0
-15 -18 -67 -78 -82 0
-20 -21 -30 -32 -88 0
-26 -33 -38 -62 -63 0
-15 -18 -68 -78 -83 0
-20 -21 -30 -32 -89 0
-26 -33 -38 -62 -63 0
-15 -18 -68 -78 -83 0
-20 -21 -30 -32 -89 0
-27 -33 -39 -62 -63 0
-15 -18 -69 -78 -84 0
-20 -21 -30 -32 -90 0
-27 -33 -39 -62 -63 0
-15 -18 -69 -78 -84 0
-20 -21 -30 -32 -90 0
-23 -34 -35 -62 -64 0
-15 -18 -65 -79 -80 0
-20 -22 -30 -32 -91 0
-23 -34 -35 -62 -64 0
-15 -18 -65 -79 -80 0
-20 -22 -30 -32 -91 0
-24 -34 -36 -62 -64 0
-15 -18 -66 -79 -81 0
-20 -22 -30 -32 -92 0
-24 -34 -36 -62 -64 0
-15 -18 -66 -79 -81 0
-20 -22 -30 -32 -92 0
-25 -34 -37 -62 -64 0
-15 -18 -67 -79 -82 0
-20 -22 -30 -32 -93 0
-25 -34 -37 -62 -64 0
-15 -18 -67 -79 -82 0
-20 -22 -30 -32 -93 0
-26 -34 -38 -62 -64 0
-15 -18 -68 -79 -83 0
-20 -22 -30 -32 -94 0
-26 -34 -38 -62 -64 0
-15 -18 -68 -79 -83 0
-20 -22 -30 -32 -94 0
-27 -34 -39 -62 -64 0
-15 -18 -69 -79 -84 0
-20 -22 -30 -32 -95 0
-27 -34 -39 -62 -64 0
-15 -18 -69 -79 -84 0
-20 -22 -30 -32 -95 0
-24 -35 -36 -62 -65 0
-15 -18 -66 -80 -81 0
-20 -23 -30 -32 -96 0
-24 -35 -36 -62 -65 0
-15 -18 -66 -80 -81 0
-20 -23 -30 -32 -96 0
-25 -35 -37 -62 -65 0
-15 -18 -67 -80 -82 0
-20 -23 -30 -32 -97 0
-25 -35 -37 -62 -65 0
-15 -18 -67 -80 -82 0
-20 -23 -30 -32 -97 0
-26 -35 -38 -62 -65 0
-15 -18 -68 -80 -83 0
-20 -23 -30 -32 -98 0
-26 -35 -38 -62 -65 0
-15 -18 -68 -80 -83 0
-20 -23 -30 -32 -98 0
-27 -35 -39 -62 -65 0
-15 -18 -69 -80 -84 0
-20 -23 -30 -32 -99 0
-27 -35 -39 -62 -65 0
-15 -18 -69 -80 -84 0
-20 -23 -30 -32 -99 0
-25 -36 -37 -62 -66 0
-15 -18 -67 -81 -82 0
-20 -24 -30 -32 -100 0
-25 -36 -37 -62 -66 0
-15 -18 -67 -81 -82 0
-20 -24 -30 -32 -100 0
-26 -36 -38 -62 -66 0
-15 -18 -68 -81 -83 0
-20 -24 -30 -32 -101 0
-26 -36 -38 -62 -66 0
-15 -18 -68 -81 -83 0
-20 -24 -30 -32 -101 0
-27 -36 -39 -62 -66 0
-15 -18 -69 -81 -84 0
-20 -24 -30 -32 -102 0
-27 -36 -39 -62 -66 0
-15 -18 -69 -81 -84 0
-20 -24 -30 -32 -102 0
-26 -37 -38 -62 -67 0
-15 -18 -68 -82 -83 0
-20 -25 -30 -32 -103 0
-26 -37 -38 -62 -67 0
-15 -18 -68 -82 -83 0
-20 -25 -30 -32 -103 0
-27 -37 -39 -62 -67 0
-15 -18 -69 -82 -84 0
-20 -25 -30 -32 -104 0
-27 -37 -39 -62 -67 0
-15 -18 -69 -82 -84 0
-20 -25 -30 -32 -104 0
-27 -38 -39 -62 -68 0
-15 -18 -69 -83 -84 0
-20 -26 -30 -32 -105 0
-27 -38 -39 -62 -68 0
-15 -18 -69 -83 -84 0
-20 -26 -30 -32 -105 0
-23 -34 -35 -63 -64 0
-15 -18 -65 -85 -86 0
-21 -22 -30 -33 -91 0
-23 -34 -35 -63 -64 0
-15 -18 -65 -85 -86 0
-21 -22 -30 -33 -91 0
-24 -34 -36 -63 -64 0
-15 -18 -66 -85 -87 0
-21 -22 -30 -33 -92 0
-24 -34 -36 -63 -64 0
-15 -18 -66 -85 -87 0
-21 -22 -30 -33 -92 0
-25 -34 -37 -63 -64 0
-15 -18 -67 -85 -88 0
-21 -22 -30 -33 -93 0
-25 -34 -37 -63 -64 0
-15 -18 -67 -85 -88 0
-21 -22 -30 -33 -93 0
-26 -34 -38 -63 -64 0
-15 -18 -68 -85 -89 0
-21 -22 -30 -33 -94 0
-26 -34 -38 -63 -64 0
-15 -18 -68 -85 -89 0
-21 -22 -30 -33 -94 0
-27 -34 -39 -63 -64 0
-15 -18 -69 -85 -90 0
-21 -22 -30 -33 -95 0
-27 -34 -39 -63 -64 0
-15 -18 -69 -85 -90 0
-21 -22 -30 -33 -95 0
-24 -35 -36 -63 -65 0
-15 -18 -66 -86 -87 0
-21 -23 -30 -33 -96 0
-24 -35 -36 -63 -65 0
-15 -18 -66 -86 -87 0
-21 -23 -30 -33 -96 0
-25 -35 -37 -63 -65 0
-15 -18 -67 -86 -88 0
-21 -23 -30 -33 -97 0
-25 -35 -37 -63 -65 0
-15 -18 -67 -86 -88 0
-21 -23 -30 -33 -97 0
-26 -35 -38 -63 -65 0
-15 -18 -68 -86 -89 0
-21 -23 -30 -33 -98 0
-26 -35 -38 -63 -65 0
-15 -18 -68 -86 -89 0
-21 -23 -30 -33 -98 0
-27 -35 -39 -63 -65 0
-15 -18 -69 -86 -90 0
-21 -23 -30 -33 -99 0
-27 -35 -39 -63 -65 0
-15 -18 -69 -86 -90 0
-21 -23 -30 -33 -99 0
-25 -36 -37 -63 -66 0
-15 -18 -67 -87 -88 0
-21 -24 -30 -33 -100 0
-25 -36 -37 -63 -66 0
-15 -18 -67 -87 -88 0
-21 -24 -30 -33 -100 0
-26 -36 -38 -63 -66 0
-15 -18 -68 -87 -89 0
-21 -24 -30 -33 -101 0
-26 -36 -38 -63 -66 0
-15 -18 -68 -87 -89 0
-21 -24 -30 -33 -101 0
-27 -36 -39 -63 -66 0
-15 -18 -69 -87 -90 0
-21 -24 -30 -33 -102 0
-27 -36 -39 -63 -66 0
-15 -18 -69 -87 -90 0
-21 -24 -30 -33 -102 0
-26 -37 -38 -63 -67 0
-15 -18 -68 -88 -89 0
-21 -25 -30 -33 -103 0
-26 -37 -38 -63 -67 0
-15 -18 -68 -88 -89 0
-21 -25 -30 -33 -103 0
-27 -37 -39 -63 -67 0
-15 -18 -69 -88 -90 0
-21 -25 -30 -33 -104 0
-27 -37 -39 -63 -67 0
-15 -18 -69 -88 -90 0
-21 -25 -30 -33 -104 0
-27 -38 -39 -63 -68 0
-15 -18 -69 -89 -90 0
-21 -26 -30 -33 -105 0
-27 -38 -39 -63 -68 0
-15 -18 -69 -89 -90 0
-21 -26 -30 -33 -105 0
-24 -35 -36 -64 -65 0
-15 -18 -66 -91 -92 0
-22 -23 -30 -34 -96 0
-24 -35 -36 -64 -65 0
-15 -18 -66 -91 -92 0
-22 -23 -30 -34 -96 0
-25 -35 -37 -64 -65 0
-15 -18 -67 -91 -93 0
-22 -23 -30 -34 -97 0
-25 -35 -37 -64 -65 0
-15 -18 -67 -91 -93 0
-22 -23 -30 -34 -97 0
-26 -35 -38 -64 -65 0
-15 -18 -68 -91 -94 0
-22 -23 -30 -34 -98 0
-26 -35 -38 -64 -65 0
-15 -18 -68 -91 -94 0
-22 -23 -30 -34 -98 0
-27 -35 -39 -64 -65 0
-15 -18 -69 -91 -95 0
-22 -23 -30 -34 -99 0
-27 -35 -39 -64 -65 0
-15 -18 -69 -91 -95 0
-22 -23 -30 -34 -99 0
-25 -36 -37 -64 -66 0
-15 -18 -67 -92 -93 0
-22 -24 -30 -34 -100 0
-25 -36 -37 -64 -66 0
-15 -18 -67 -92 -93 0
-22 -24 -30 -34 -100 0
-26 -36 -38 -64 -66 0
-15 -18 -68 -92 -94 0
-22 -24 -30 -34 -101 0
-26 -36 -38 -64 -66 0
-15 -18 -68 -92 -94 0
-22 -24 -30 -34 -101 0
-27 -36 -39 -64 -66 0
-15 -18 -69 -92 -95 0
-22 -24 -30 -34 -102 0
-27 -36 -39 -64 -66 0
-15 -18 -69 -92 -95 0
-22 -24 -30 -34 -102 0
-26 -37 -38 -64 -67 0
-15 -18 -68 -93 -94 0
-22 -25 -30 -34 -103 0
-26 -37 -38 -64 -67 0
-15 -18 -68 -93 -94 0
-22 -25 -30 -34 -103 0
-27 -37 -39 -64 -67 0
-15 -18 -69 -93 -95 0
-22 -25 -30 -34 -104 0
-27 -37 -39 -64 -67 0
-15 -18 -69 -93 -95 0
-22 -25 -30 -34 -104 0
-27 -38 -39 -64 -68 0
-15 -18 -69 -94 -95 0
-22 -26 -30 -34 -105 0
-27 -38 -39 -64 -68 0
-15 -18 -69 -94 -95 0
-22 -26 -30 -34 -105 0
-25 -36 -37 -65 -66 0
-15 -18 -67 -96 -97 0
-23 -24 -30 -35 -100 0
-25 -36 -37 -65 -66 0
-15 -18 -67 -96 -97 0
-23 -24 -30 -35 -100 0
-26 -36 -38 -65 -66 0
-15 -18 -68 -96 -98 0
-23 -24 -30 -35 -101 0
-26 -36 -38 -65 -66 0
-15 -18 -68 -96 -98 0
-23 -24 -30 -35 -101 0
-27 -36 -39 -65 -66 0
-15 -18 -69 -96 -99 0
-23 -24 -30 -35 -102 0
-27 -36 -39 -65 -66 0
-15 -18 -69 -96 -99 0
-23 -24 -30 -35 -102 0
-26 -37 -38 -65 -67 0
-15 -18 -68 -97 -98 0
-23 -25 -30 -35 -103 0
-26 -37 -38 -65 -67 0
-15 -18 -68 -97 -98 0
-23 -25 -30 -35 -103 0
-27 -37 -39 -65 -67 0
-15 -18 -69 -97 -99 0
-23 -25 -30 -35 -104 0
-27 -37 -39 -65 -67 0
-15 -18 -69 -97 -99 0
-23 -25 -30 -35 -104 0
-27 -38 -39 -65 -68 0
-15 -18 -69 -98 -99 0
-23 -26 -30 -35 -105 0
-27 -38 -39 -65 -68 0
-15 -18 -69 -98 -99 0
-23 -26 -30 -35 -105 0
-26 -37 -38 -66 -67 0
-15 -18 -68 -100 -101 0
-24 -25 -30 -36 -103 0
-26 -37 -38 -66 -67 0
-15 -18 -68 -100 -101 0
-24 -25 -30 -36 -103 0
-27 -37 -39 -66 -67 0
-15 -18 -69 -100 -102 0
-24 -25 -30 -36 -104 0
-27 -37 -39 -66 -67 0
-15 -18 -69 -100 -102 0
-24 -25 -30 -36 -104 0
-27 -38 -39 -66 -68 0
-15 -18 -69 -101 -102 0
-24 -26 -30 -36 -105 0
-27 -38 -39 -66 -68 0
-15 -18 -69 -101 -102 0
-24 -26 -30 -36 -105 0
-27 -38 -39 -67 -68 0
-15 -18 -69 -103 -104 0
-25 -26 -30 -37 -105 0
-27 -38 -39 -67 -68 0
-15 -18 -69 -103 -104 0
-25 -26 -30 -37 -105 0
-22 -33 -34 -70 -71 0
-15 -19 -72 -78 -79 0
-20 -21 -31 -32 -85 0
-22 -33 -34 -70 -71 0
-15 -19 -72 -78 -79 0
-20 -21 -31 -32 -85 0
-23 -33 -35 -70 -71 0
-15 -19 -73 -78 -80 0
-20 -21 -31 -32 -86 0
-23 -33 -35 -70 -71 0
-15 -19 -73 -78 -80 0
-20 -21 -31 -32 -86 0
-24 -33 -36 -70 -71 0
-15 -19 -74 -78 -81 0
-20 -21 -31 -32 -87 0
-24 -33 -36 -70 -71 0
-15 -19 -74 -78 -81 0
-20 -21 -31 -32 -87 0
-25 -33 -37 -70 -71 0
-15 -19 -75 -78 -82 0
-20 -21 -31 -32 -88 0
-25 -33 -37 -70 -71 0
-15 -19 -75 -78 -82 0
-20 -21 -31 -32 -88 0
-26 -33 -38 -70 -71 0
-15 -19 -76 -78 -83 0
-20 -21 -31 -32 -89 0
-26 -33 -38 -70 -71 0
-15 -19 -76 -78 -83 0
-20 -21 -31 -32 -89 0
-27 -33 -39 -70 -71 0
-15 -19 -77 -78 -84 0
-20 -21 -31 -32 -90 0
-27 -33 -39 -70 -71 0
-15 -19 -77 -78 -84 0
-20 -21 -31 -32 -90 0
-23 -34 -35 -70 -72 0
-15 -19 -73 -79 -80 0
-20 -22 -31 -32 -91 0
-23 -34 -35 -70 -72 0
-15 -19 -73 -79 -80 0
-20 -22 -31 -32 -91 0
-24 -34 -36 -70 -72 0
-15 -19 -74 -79 -81 0
-20 -22 -31 -32 -92 0
-24 -34 -36 -70 -72 0
-15 -19 -74 -79 -81 0
-20 -22 -31 -32 -92 0
-25 -34 -37 -70 -72 0
-15 -19 -75 -79 -82 0
-20 -22 -31 -32 -93 0
-25 -34 -37 -70 -72 0
-15 -19 -75 -79 -82 0
-20 -22 -31 -32 -93 0
-26 -34 -38 -70 -72 0
-15 -19 -76 -79 -83 0
-20 -22 -31 -32 -94 0
-26 -34 -38 -70 -72 0
-15 -19 -76 -79 -83 0
-20 -22 -31 -32 -94 0
-27 -34 -39 -70 -72 0
-15 -19 -77 -79 -84 0
-20 -22 -31 -32 -95 0
-27 -34 -39 -70 -72 0
-15 -19 -77 -79 -84 0
-20 -22 -31 -32 -95 0
-24 -35 -36 -70 -73 0
-15 -19 -74 -80 -81 0
-20 -23 -31 -32 -96 0
-24 -35 -36 -70 -73 0
-15 -19 -74 -80 -81 0
-20 -23 -31 -32 -96 0
-25 -35 -37 -70 -73 0
-15 -19 -75 -80 -82 0
-20 -23 -31 -32 -97 0
-25 -35 -37 -70 -73 0
-15 -19 -75 -80 -82 0
-20 -23 -31 -32 -97 0
-26 -35 -38 -70 -73 0
-15 -19 -76 -80 -83 0
-20 -23 -31 -32 -98 0
-26 -35 -38 -70 -73 0
-15 -19 -76 -80 -83 0
-20 -23 -31 -32 -98 0
-27 -35 -39 -70 -73 0
-15 -19 -77 -80 -84 0
-20 -23 -31 -32 -99 0
-27 -35 -39 -70 -73 0
-15 -19 -77 -80 -84 0
-20 -23 -31 -32 -99 0
-25 -36 -37 -70 -74 0
-15 -19 -75 -81 -82 0
-20 -24 -31 -32 -100 0
-25 -36 -37 -70 -74 0
-15 -19 -75 -81 -82 0
-20 -24 -31 -32 -100 0
-26 -36 -38 -70 -74 0
-15 -19 -76 -81 -83 0
-20 -24 -31 -32 -101 0
-26 -36 -38 -70 -74 0
-15 -19 -76 -81 -83 0
-20 -24 -31 -32 -101 0
-27 -36 -39 -70 -74 0
-15 -19 -77 -81 -84 0
-20 -24 -31 -32 -102 0
-27 -36 -39 -70 -74 0
-15 -19 -77 -81 -84 0
-20 -24 -31 -32 -102 0
-26 -37 -38 -70 -75 0
-15 -19 -76 -82 -83 0
-20 -25 -31 -32 -103 0
-26 -37 -38 -70 -75 0
-15 -19 -76 -82 -83 0
-20 -25 -31 -32 -103 0
-27 -37 -39 -70 -75 0
-15 -19 -77 -82 -84 0
-20 -25 -31 -32 -104 0
-27 -37 -39 -70 -75 0
-15 -19 -77 -82 -84 0
-20 -25 -31 -32 -104 0
-27 -38 -39 -70 -76 0
-15 -19 -77 -83 -84 0
-20 -26 -31 -32 -105 0
-27 -38 -39 -70 -76 0
-15 -19 -77 -83 -84 0
-20 -26 -31 -32 -105 0
-23 -34 -35 -71 -72 0
-15 -19 -73 -85 -86 0
-21 -22 -31 -33 -91 0
-23 -34 -35 -71 -72 0
-15 -19 -73 -85 -86 0
-21 -22 -31 -33 -91 0
-24 -34 -36 -71 -72 0
-15 -19 -74 -85 -87 0
-21 -22 -31 -33 -92 0
-24 -34 -36 -71 -72 0
-15 -19 -74 -85 -87 0
-21 -22 -31 -33 -92 0
-25 -34 -37 -71 -72 0
-15 -19 -75 -85 -88 0
-21 -22 -31 -33 -93 0
-25 -34 -37 -71 -72 0
-15 -19 -75 -85 -88 0
-21 -22 -31 -33 -93 0
-26 -34 -38 -71 -72 0
-15 -19 -76 -85 -89 0
-21 -22 -31 -33 -94 0
-26 -34 -38 -71 -72 0
-15 -19 -76 -85 -89 0
-21 -22 -31 -33 -94 0
-27 -34 -39 -71 -72 0
-15 -19 -77 -85 -90 0
-21 -22 -31 -33 -95 0
-27 -34 -39 -71 -72 0
-15 -19 -77 -85 -90 0
-21 -22 -31 -33 -95 0
-24 -35 -36 -71 -73 0
-15 -19 -74 -86 -87 0
-21 -23 -31 -33 -96 0
-24 -35 -36 -71 -73 0
-15 -19 -74 -86 -87 0
-21 -23 -31 -33 -96 0
-25 -35 -37 -71 -73 0
-15 -19 -75 -86 -88 0
-21 -23 -31 -33 -97 0
-25 -35 -37 -71 -73 0
-15 -19 -75 -86 -88 0
-21 -23 -31 -33 -97 0
-26 -35 -38 -71 -73 0
-15 -19 -76 -86 -89 0
-21 -23 -31 -33 -98 0
-26 -35 -38 -71 -73 0
-15 -19 -76 -86 -89 0
-21 -23 -31 -33 -98 0
-27 -35 -39 -71 -73 0
-15 -19 -77 -86 -90 0
-21 -23 -31 -33 -99 0
-27 -35 -39 -71 -73 0
-15 -19 -77 -86 -90 0
-21 -23 -31 -33 -99 0
-25 -36 -37 -71 -74 0
-15 -19 -75 -87 -88 0
-21 -24 -31 -33 -100 0
-25 -36 -37 -71 -74 0
-15 -19 -75 -87 -88 0
-21 -24 -31 -33 -100 0
-26 -36 -38 -71 -74 0
-15 -19 -76 -87 -89 0
-21 -24 -31 -33 -101 0
-26 -36 -38 -71 -74 0
-15 -19 -76 -87 -89 0
-21 -24 -31 -33 -101 0
-27 -36 -39 -71 -74 0
-15 -19 -77 -87 -90 0
-21 -24 -31 -33 -102 0
-27 -36 -39 -71 -74 0
-15 -19 -77 -87 -90 0
-21 -24 -31 -33 -102 0
-26 -37 -38 -71 -75 0
-15 -19 -76 -88 -89 0
-21 -25 -31 -33 -103 0
-26 -37 -38 -71 -75 0
-15 -19 -76 -88 -89 0
-21 -25 -31 -33 -103 0
-27 -37 -39 -71 -75 0
-15 -19 -77 -88 -90 0
-21 -25 -31 -33 -104 0
-27 -37 -39 -71 -75 0
-15 -19 -77 -88 -90 0
-21 -25 -31 -33 -104 0
-27 -38 -39 -71 -76 0
-15 -19 -77 -89 -90 0
-21 -26 -31 -33 -105 0
-27 -38 -39 -71 -76 0
-15 -19 -77 -89 -90 0
-21 -26 -31 -33 -105 0
-24 -35 -36 -72 -73 0
-15 -19 -74 -91 -92 0
-22 -23 -31 -34 -96 0
-24 -35 -36 -72 -73 0
-15 -19 -74 -91 -92 0
-22 -23 -31 -34 -96 0
-25 -35 -37 -72 -73 0
-15 -19 -75 -91 -93 0
-22 -23 -31 -34 -97 0
-25 -35 -37 -72 -73 0
-15 -19 -75 -91 -93 0
-22 -23 -31 -34 -97 0
-26 -35 -38 -72 -73 0
-15 -19 -76 -91 -94 0
-22 -23 -31 -34 -98 0
-26 -35 -38 -72 -73 0
-15 -19 -76 -91 -94 0
-22 -23 -31 -34 -98 0
-27 -35 -39 -72 -73 0
-15 -19 -77 -91 -95 0
-22 -23 -31 -34 -99 0
-27 -35 -39 -72 -73 0
-15 -19 -77 -91 -95 0
-22 -23 -31 -34 -99 0
-25 -36 -37 -72 -74 0
-15 -19 -75 -92 -93 0
-22 -24 -31 -34 -100 0
-25 -36 -37 -72 -74 0
-15 -19 -75 -92 -93 0
-22 -24 -31 -34 -100 0
-26 -36 -38 -72 -74 0
-15 -19 -76 -92 -94 0
-22 -24 -31 -34 -101 0
-26 -36 -38 -72 -74 0
-15 -19 -76 -92 -94 0
-22 -24 -31 -34 -101 0
-27 -36 -39 -72 -74 0
-15 -19 -77 -92 -95 0
-22 -24 -31 -34 -102 0
-27 -36 -39 -72 -74 0
-15 -19 -77 -92 -95 0
-22 -24 -31 -34 -102 0
-26 -37 -38 -72 -75 0
-15 -19 -76 -93 -94 0
-22 -25 -31 -34 -103 0
-26 -37 -38 -72 -75 0
-15 -19 -76 -93 -94 0
-22 -25 -31 -34 -103 0
-27 -37 -39 -72 -75 0
-15 -19 -77 -93 -95 0
-22 -25 -31 -34 -104 0
-27 -37 -39 -72 -75 0
-15 -19 -77 -93 -95 0
-22 -25 -31 -34 -104 0
-27 -38 -39 -72 -76 0
-15 -19 -77 -94 -95 0
-22 -26 -31 -34 -105 0
-27 -38 -39 -72 -76 0
-15 -19 -77 -94 -95 0
-22 -26 -31 -34 -105 0
-25 -36 -37 -73 -74 0
-15 -19 -75 -96 -97 0
-23 -24 -31 -35 -100 0
-25 -36 -37 -73 -74 0
-15 -19 -75 -96 -97 0
-23 -24 -31 -35 -100 0
-26 -36 -38 -73 -74 0
-15 -19 -76 -96 -98 0
-23 -24 -31 -35 -101 0
-26 -36 -38 -73 -74 0
-15 -19 -76 -96 -98 0
-23 -24 -31 -35 -101 0
-27 -36 -39 -73 -74 0
-15 -19 -77 -96 -99 0
-23 -24 -31 -35 -102 0
-27 -36 -39 -73 -74 0
-15 -19 -77 -96 -99 0
-23 -24 -31 -35 -102 0
-26 -37 -38 -73 -75 0
-15 -19 -76 -97 -98 0
-23 -25 -31 -35 -103 0
-26 -37 -38 -73 -75 0
-15 -19 -76 -97 -98 0
-23 -25 -31 -35 -103 0
-27 -37 -39 -73 -75 0
-15 -19 -77 -97 -99 0
-23 -25 -31 -35 -104 0
-27 -37 -39 -73 -75 0
-15 -19 -77 -97 -99 0
-23 -25 -31 -35 -104 0
-27 -38 -39 -73 -76 0
-15 -19 -77 -98 -99 0
-23 -26 -31 -35 -105 0
-27 -38 -39 -73 -76 0
-15 -19 -77 -98 -99 0
-23 -26 -31 -35 -105 0
-26 -37 -38 -74 -75 0
-15 -19 -76 -100 -101 0
-24 -25 -31 -36 -103 0
-26 -37 -38 -74 -75 0
-15 -19 -76 -100 -101 0
-24 -25 -31 -36 -103 0
-27 -37 -39 -74 -75 0
-15 -19 -77 -100 -102 0
-24 -25 -31 -36 -104 0
-27 -37 -39 -74 -75 0
-15 -19 -77 -100 -102 0
-24 -25 -31 -36 -104 0
-27 -38 -39 -74 -76 0
-15 -19 -77 -101 -102 0
-24 -26 -31 -36 -105 0
-27 -38 -39 -74 -76 0
-15 -19 -77 -101 -102 0
-24 -26 -31 -36 -105 0
-27 -38 -39 -75 -76 0
-15 -19 -77 -103 -104 0
-25 -26 -31 -37 -105 0
-27 -38 -39 -75 -76 0
-15 -19 -77 -103 -104 0
-25 -26 -31 -37 -105 0
-23 -34 -35 -78 -79 0
-15 -20 -80 -85 -86 0
-21 -22 -32 -33 -91 0
-23 -34 -35 -78 -79 0
-15 -20 -80 -85 -86 0
-21 -22 -32 -33 -91 0
-24 -34 -36 -78 -79 0
-15 -20 -81 -85 -87 0
-21 -22 -32 -33 -92 0
-24 -34 -36 -78 -79 0
-15 -20 -81 -85 -87 0
-21 -22 -32 -33 -92 0
-25 -34 -37 -78 -79 0
-15 -20 -82 -85 -88 0
-21 -22 -32 -33 -93 0
-25 -34 -37 -78 -79 0
-15 -20 -82 -85 -88 0
-21 -22 -32 -33 -93 0
-26 -34 -38 -78 -79 0
-15 -20 -83 -85 -89 0
-21 -22 -32 -33 -94 0
-26 -34 -38 -78 -79 0
-15 -20 -83 -85 -89 0
-21 -22 -32 -33 -94 0
-27 -34 -39 -78 -79 0
-15 -20 -84 -85 -90 0
-21 -22 -32 -33 -95 0
-27 -34 -39 -78 -79 0
-15 -20 -84 -85 -90 0
-21 -22 -32 -33 -95 0
-24 -35 -36 -78 -80 0
-15 -20 -81 -86 -87 0
-21 -23 -32 -33 -96 0
-24 -35 -36 -78 -80 0
-15 -20 -81 -86 -87 0
-21 -23 -32 -33 -96 0
-25 -35 -37 -78 -80 0
-15 -20 -82 -86 -88 0
-21 -23 -32 -33 -97 0
-25 -35 -37 -78 -80 0
-15 -20 -82 -86 -88 0
-21 -23 -32 -33 -97 0
-26 -35 -38 -78 -80 0
-15 -20 -83 -86 -89 0
-21 -23 -32 -33 -98 0
-26 -35 -38 -78 -80 0
-15 -20 -83 -86 -89 0
-21 -23 -32 -33 -98 0
-27 -35 -39 -78 -80 0
-15 -20 -84 -86 -90 0
-21 -23 -32 -33 -99 0
-27 -35 -39 -78 -80 0
-15 -20 -84 -86 -90 0
-21 -23 -32 -33 -99 0
-25 -36 -37 -78 -81 0
-15 -20 -82 -87 -88 0
-21 -24 -32 -33 -100 0
-25 -36 -37 -78 -81 0
-15 -20 -82 -87 -88 0
-21 -24 -32 -33 -100 0
-26 -36 -38 -78 -81 0
-15 -20 -83 -87 -89 0
-21 -24 -32 -33 -101 0
-26 -36 -38 -78 -81 0
-15 -20 -83 -87 -89 0
-21 -24 -32 -33 -101 0
-27 -36 -39 -78 -81 0
-15 -20 -84 -87 -90 0
-21 -24 -32 -33 -102 0
-27 -36 -39 -78 -81 0
-15 -20 -84 -87 -90 0
-21 -24 -32 -33 -102 0
-26 -37 -38 -78 -82 0
-15 -20 -83 -88 -89 0
-21 -25 -32 -33 -103 0
-26 -37 -38 -78 -82 0
-15 -20 -83 -88 -89 0
-21 -25 -32 -33 -103 0
-27 -37 -39 -78 -82 0
-15 -20 -84 -88 -90 0
-21 -25 -32 -33 -104 0
-27 -37 -39 -78 -82 0
-15 -20 -84 -88 -90 0
-21 -25 -32 -33 -104 0
-27 -38 -39 -78 -83 0
-15 -20 -84 -89 -90 0
-21 -26 -32 -33 -105 0
-27 -38 -39 -78 -83 0
-15 -20 -84 -89 -90 0
-21 -26 -32 -33 -105 0
-24 -35 -36 -79 -80 0
-15 -20 -81 -91 -92 0
-22 -23 -32 -34 -96 0
-24 -35 -36 -79 -80 0
-15 -20 -81 -91 -92 0
-22 -23 -32 -34 -96 0
-25 -35 -37 -79 -80 0
-15 -20 -82 -91 -93 0
-22 -23 -32 -34 -97 0
-25 -35 -37 -79 -80 0
-15 -20 -82 -91 -93 0
-22 -23 -32 -34 -97 0
-26 -35 -38 -79 -80 0
-15 -20 -83 -91 -94 0
-22 -23 -32 -34 -98 0
-26 -35 -38 -79 -80 0
-15 -20 -83 -91 -94 0
-22 -23 -32 -34 -98 0
-27 -35 -39 -79 -80 0
-15 -20 -84 -91 -95 0
-22 -23 -32 -34 -99 0
-27 -35 -39 -79 -80 0
-15 -20 -84 -91 -95 0
-22 -23 -32 -34 -99 0
-25 -36 -37 -79 -81 0
-15 -20 -82 -92 -93 0
-22 -24 -32 -34 -100 0
-25 -36 -37 -79 -81 0
-15 -20 -82 -92 -93 0
-22 -24 -32 -34 -100 0
-26 -36 -38 -79 -81 0
-15 -20 -83 -92 -94 0
-22 -24 -32 -34 -101 0
-26 -36 -38 -79 -81 0
-15 -20 -83 -92 -94 0
-22 -24 -32 -34 -101 0
-27 -36 -39 -79 -81 0
-15 -20 -84 -92 -95 0
-22 -24 -32 -34 -102 0
-27 -36 -39 -79 -81 0
-15 -20 -84 -92 -95 0
-22 -24 -32 -34 -102 0
-26 -37 -38 -79 -82 0
-15 -20 -83 -93 -94 0
-22 -25 -32 -34 -103 0
-26 -37 -38 -79 -82 0
-15 -20 -83 -93 -94 0
-22 -25 -32 -34 -103 0
-27 -37 -39 -79 -82 0
-15 -20 -84 -93 -95 0
-22 -25 -32 -34 -104 0
-27 -37 -39 -79 -82 0
-15 -20 -84 -93 -95 0
-22 -25 -32 -34 -104 0
-27 -38 -39 -79 -83 0
-15 -20 -84 -94 -95 0
-22 -26 -32 -34 -105 0
-27 -38 -39 -79 -83 0
-15 -20 -84 -94 -95 0
-22 -26 -32 -34 -105 0
-25 -36 -37 -80 -81 0
-15 -20 -82 -96 -97 0
-23 -24 -32 -35 -100 0
-25 -36 -37 -80 -81 0
-15 -20 -82 -96 -97 0
-23 -24 -32 -35 -100 0
-26 -36 -38 -80 -81 0
-15 -20 -83 -96 -98 0
-23 -24 -32 -35 -101 0
-26 -36 -38 -80 -81 0
-15 -20 -83 -96 -98 0
-23 -24 -32 -35 -101 0
-27 -36 -39 -80 -81 0
-15 -20 -84 -96 -99 0
-23 -24 -32 -35 -102 0
-27 -36 -39 -80 -81 0
-15 -20 -84 -96 -99 0
-23 -24 -32 -35 -102 0
-26 -37 -38 -80 -82 0
-15 -20 -83 -97 -98 0
-23 -25 -32 -35 -103 0
-26 -37 -38 -80 -82 0
-15 -20 -83 -97 -98 0
-23 -25 -32 -35 -103 0
-27 -37 -39 -80 -82 0
-15 -20 -84 -97 -99 0
-23 -25 -32 -35 -104 0
-27 -37 -39 -80 -82 0
-15 -20 -84 -97 -99 0
-23 -25 -32 -35 -104 0
-27 -38 -39 -80 -83 0
-15 -20 -84 -98 -99 0
-23 -26 -32 -35 -105 0
-27 -38 -39 -80 -83 0
-15 -20 -84 -98 -99 0
-23 -26 -32 -35 -105 0
-26 -37 -38 -81 -82 0
-15 -20 -83 -100 -101 0
-24 -25 -32 -36 -103 0
-26 -37 -38 -81 -82 0
-15 -20 -83 -100 -101 0
-24 -25 -32 -36 -103 0
-27 -37 -39 -81 -82 0
-15 -20 -84 -100 -102 0
-24 -25 -32 -36 -104 0
-27 -37 -39 -81 -82 0
-15 -20 -84 -100 -102 0
-24 -25 -32 -36 -104 0
-27 -38 -39 -81 -83 0
-15 -20 -84 -101 -102 0
-24 -26 -32 -36 -105 0
-27 -38 -39 -81 -83 0
-15 -20 -84 -101 -102 0
-24 -26 -32 -36 -105 0
-27 -38 -39 -82 -83 0
-15 -20 -84 -103 -104 0
-25 -26 -32 -37 -105 0
-27 -38 -39 -82 -83 0
-15 -20 -84 -103 -104 0
-25 -26 -32 -37 -105 0
-24 -35 -36 -85 -86 0
-15 -21 -87 -91 -92 0
-22 -23 -33 -34 -96 0
-24 -35 -36 -85 -86 0
-15 -21 -87 -91 -92 0
-22 -23 -33 -34 -96 0
-25 -35 -37 -85 -86 0
-15 -21 -88 -91 -93 0
-22 -23 -33 -34 -97 0
-25 -35 -37 -85 -86 0
-15 -21 -88 -91 -93 0
-22 -23 -33 -34 -97 0
-26 -35 -38 -85 -86 0
-15 -21 -89 -91 -94 0
-22 -23 -33 -34 -98 0
-26 -35 -38 -85 -86 0
-15 -21 -89 -91 -94 0
-22 -23 -33 -34 -98 0
-27 -35 -39 -85 -86 0
-15 -21 -90 -91 -95 0
-22 -23 -33 -34 -99 0
-27 -35 -39 -85 -86 0
-15 -21 -90 -91 -95 0
-22 -23 -33 -34 -99 0
-25 -36 -37 -85 -87 0
-15 -21 -88 -92 -93 0
-22 -24 -33 -34 -100 0
-25 -36 -37 -85 -87 0
-15 -21 -88 -92 -93 0
-22 -24 -33 -34 -100 0
-26 -36 -38 -85 -87 0
-15 -21 -89 -92 -94 0
-22 -24 -33 -34 -101 0
-26 -36 -38 -85 -87 0
-15 -21 -89 -92 -94 0
-22 -24 -33 -34 -101 0
-27 -36 -39 -85 -87 0
-15 -21 -90 -92 -95 0
-22 -24 -33 -34 -102 0
-27 -36 -39 -85 -87 0
-15 -21 -90 -92 -95 0
-22 -24 -33 -34 -102 0
-26 -37 -38 -85 -88 0
-15 -21 -89 -93 -94 0
-22 -25 -33 -34 -103 0
-26 -37 -38 -85 -88 0
-15 -21 -89 -93 -94 0
-22 -25 -33 -34 -103 0
-27 -37 -39 -85 -88 0
-15 -21 -90 -93 -95 0
-22 -25 -33 -34 -104 0
-27 -37 -39 -85 -88 0
-15 -21 -90 -93 -95 0
-22 -25 -33 -34 -104 0
-27 -38 -39 -85 -89 0
-15 -21 -90 -94 -95 0
-22 -26 -33 -34 -105 0
-27 -38 -39 -85 -89 0
-15 -21 -90 -94 -95 0
-22 -26 -33 -34 -105 0
-25 -36 -37 -86 -87 0
-15 -21 -88 -96 -97 0
-23 -24 -33 -35 -100 0
-25 -36 -37 -86 -87 0
-15 -21 -88 -96 -97 0
-23 -24 -33 -35 -100 0
-26 -36 -38 -86 -87 0
-15 -21 -89 -96 -98 0
-23 -24 -33 -35 -101 0
-26 -36 -38 -86 -87 0
-15 -21 -89 -96 -98 0
-23 -24 -33 -35 -101 0
-27 -36 -39 -86 -87 0
-15 -21 -90 -96 -99 0
-23 -24 -33 -35 -102 0
-27 -36 -39 -86 -87 0
-15 -21 -90 -96 -99 0
-23 -24 -33 -35 -102 0
-26 -37 -38 -86 -88 0
-15 -21 -89 -97 -98 0
-23 -25 -33 -35 -103 0
-26 -37 -38 -86 -88 0
-15 -21 -89 -97 -98 0
-23 -25 -33 -35 -103 0
-27 -37 -39 -86 -88 0
-15 -21 -90 -97 -99 0
-23 -25 -33 -35 -104 0
-27 -37 -39 -86 -88 0
-15 -21 -90 -97 -99 0
-23 -25 -33 -35 -104 0
-27 -38 -39 -86 -89 0
-15 -21 -90 -98 -99 0
-23 -26 -33 -35 -105 0
-27 -38 -39 -86 -89 0
-15 -21 -90 -98 -99 0
-23 -26 -33 -35 -105 0
-26 -37 -38 -87 -88 0
-15 -21 -89 -100 -101 0
-24 -25 -33 -36 -103 0
-26 -37 -38 -87 -88 0
-15 -21 -89 -100 -101 0
-24 -25 -33 -36 -103 0
-27 -37 -39 -87 -88 0
-15 -21 -90 -100 -102 0
-24 -25 -33 -36 -104 0
-27 -37 -39 -87 -88 0
-15 -21 -90 -100 -102 0
-24 -25 -33 -36 -104 0
-27 -38 -39 -87 -89 0
-15 -21 -90 -101 -102 0
-24 -26 -33 -36 -105 0
-27 -38 -39 -87 -89 0
-15 -21 -90 -101 -102 0
-24 -26 -33 -36 -105 0
-27 -38 -39 -88 -89 0
-15 -21 -90 -103 -104 0
-25 -26 -33 -37 -105 0
-27 -38 -39 -88 -89 0
-15 -21 -90 -103 -104 0
-25 -26 -33 -37 -105 0
-25 -36 -37 -91 -92 0
-15 -22 -93 -96 -97 0
-23 -24 -34 -35 -100 0
-25 -36 -37 -91 -92 0
-15 -22 -93 -96 -97 0
-23 -24 -34 -35 -100 0
-26 -36 -38 -91 -92 0
-15 -22 -94 -96 -98 0
-23 -24 -34 -35 -101 0
-26 -36 -38 -91 -92 0
-15 -22 -94 -96 -98 0
-23 -24 -34 -35 -101 0
-27 -36 -39 -91 -92 0
-15 -22 -95 -96 -99 0
-23 -24 -34 -35 -102 0
-27 -36 -39 -91 -92 0
-15 -22 -95 -96 -99 0
-23 -24 -34 -35 -102 0
-26 -37 -38 -91 -93 0
-15 -22 -94 -97 -98 0
-23 -25 -34 -35 -103 0
-26 -37 -38 -91 -93 0
-15 -22 -94 -97 -98 0
-23 -25 -34 -35 -103 0
-27 -37 -39 -91 -93 0
-15 -22 -95 -97 -99 0
-23 -25 -34 -35 -104 0
-27 -37 -39 -91 -93 0
-15 -22 -95 -97 -99 0
-23 -25 -34 -35 -104 0
-27 -38 -39 -91 -94 0
-15 -22 -95 -98 -99 0
-23 -26 -34 -35 -105 0
-27 -38 -39 -91 -94 0
-15 -22 -95 -98 -99 0
-23 -26 -34 -35 -105 0
-26 -37 -38 -92 -93 0
-15 -22 -94 -100 -101 0
-24 -25 -34 -36 -103 0
-26 -37 -38 -92 -93 0
-15 -22 -94 -100 -101 0
-24 -25 -34 -36 -103 0
-27 -37 -39 -92 -93 0
-15 -22 -95 -100 -102 0
-24 -25 -34 -36 -104 0
-27 -37 -39 -92 -93 0
-15 -22 -95 -100 -102 0
-24 -25 -34 -36 -104 0
-27 -38 -39 -92 -94 0
-15 -22 -95 -101 -102 0
-24 -26 -34 -36 -105 0
-27 -38 -39 -92 -94 0
-15 -22 -95 -101 -102 0
-24 -26 -34 -36 -105 0
-27 -38 -39 -93 -94 0
-15 -22 -95 -103 -104 0
-25 -26 -34 -37 -105 0
-27 -38 -39 -93 -94 0
-15 -22 -95 -103 -104 0
-25 -26 -34 -37 -105 0
-26 -37 -38 -96 -97 0
-15 -23 -98 -100 -101 0
-24 -25 -35 -36 -103 0
-26 -37 -38 -96 -97 0
-15 -23 -98 -100 -101 0
-24 -25 -35 -36 -103 0
-27 -37 -39 -96 -97 0
-15 -23 -99 -100 -102 0
-24 -25 -35 -36 -104 0
-27 -37 -39 -96 -97 0
-15 -23 -99 -100 -102 0
-24 -25 -35 -36 -104 0
-27 -38 -39 -96 -98 0
-15 -23 -99 -101 -102 0
-24 -26 -35 -36 -105 0
-27 -38 -39 -96 -98 0
-15 -23 -99 -101 -102 0
-24 -26 -35 -36 -105 0
-27 -38 -39 -97 -98 0
-15 -23 -99 -103 -104 0
-25 -26 -35 -37 -105 0
-27 -38 -39 -97 -98 0
-15 -23 -99 -103 -104 0
-25 -26 -35 -37 -105 0
-27 -38 -39 -100 -101 0
-15 -24 -102 -103 -104 0
-25 -26 -36 -37 -105 0
-27 -38 -39 -100 -101 0
-15 -24 -102 -103 -104 0
-25 -26 -36 -37 -105 0
-20 -42 -43 -51 -52 0
-16 -17 -53 -61 -62 0
-18 -19 -40 -41 -70 0
-20 -42 -43 -51 -52 0
-16 -17 -53 -61 -62 0
-18 -19 -40 -41 -70 0
-21 -42 -44 -51 -52 0
-16 -17 -54 -61 -63 0
-18 -19 -40 -41 -71 0
-21 -42 -44 -51 -52 0
-16 -17 -54 -61 -63 0
-18 -19 -40 -41 -71 0
-22 -42 -45 -51 -52 0
-16 -17 -55 -61 -64 0
-18 -19 -40 -41 -72 0
-22 -42 -45 -51 -52 0
-16 -17 -55 -61 -64 0
-18 -19 -40 -41 -72 0
-23 -42 -46 -51 -52 0
-16 -17 -56 -61 -65 0
-18 -19 -40 -41 -73 0
-23 -42 -46 -51 -52 0
-16 -17 -56 -61 -65 0
-18 -19 -40 -41 -73 0
-24 -42 -47 -51 -52 0
-16 -17 -57 -61 -66 0
-18 -19 -40 -41 -74 0
-24 -42 -47 -51 -52 0
-16 -17 -57 -61 -66 0
-18 -19 -40 -41 -74 0
-25 -42 -48 -51 -52 0
-16 -17 -58 -61 -67 0
-18 -19 -40 -41 -75 0
-25 -42 -48 -51 -52 0
-16 -17 -58 -61 -67 0
-18 -19 -40 -41 -75 0
-26 -42 -49 -51 -52 0
-16 -17 -59 -61 -68 0
-18 -19 -40 -41 -76 0
-26 -42 -49 -51 -52 0
-16 -17 -59 -61 -68 0
-18 -19 -40 -41 -76 0
-27 -42 -50 -51 -52 0
-16 -17 -60 -61 -69 0
-18 -19 -40 -41 -77 0
-27 -42 -50 -51 -52 0
-16 -17 -60 -61 -69 0
-18 -19 -40 -41 -77 0
-21 -43 -44 -51 -53 0
-16 -17 -54 -62 -63 0
-18 -20 -40 -41 -78 0
-21 -43 -44 -51 -53 0
-16 -17 -54 -62 -63 0
-18 -20 -40 -41 -78 0
-22 -43 -45 -51 -53 0
-16 -17 -55 -62 -64 0
-18 -20 -40 -41 -79 0
-22 -43 -45 -51 -53 0
-16 -17 -55 -62 -64 0
-18 -20 -40 -41 -79 0
-23 -43 -46 -51 -53 0
-16 -17 -56 -62 -65 0
-18 -20 -40 -41 -80 0
-23 -43 -46 -51 -53 0
-16 -17 -56 -62 -65 0
-18 -20 -40 -41 -80 0
-24 -43 -47 -51 -53 0
-16 -17 -57 -62 -66 0
-18 -20 -40 -41 -81 0
-24 -43 -47 -51 -53 0
-16 -17 -57 -62 -66 0
-18 -20 -40 -41 -81 0
-25 -43 -48 -51 -53 0
-16 -17 -58 -62 -67 0
-18 -20 -40 -41 -82 0
-25 -43 -48 -51 -53 0
-16 -17 -58 -62 -67 0
-18 -20 -40 -41 -82 0
-26 -43 -49 -51 -53 0
-16 -17 -59 -62 -68 0
-18 -20 -40 -41 -83 0
-26 -43 -49 -51 -53 0
-16 -17 -59 -62 -68 0
-18 -20 -40 -41 -83 0
-27 -43 -50 -51 -53 0
-16 -17 -60 -62 -69 0
-18 -20 -40 -41 -84 0
-27 -43 -50 -51 -53 0
-16 -17 -60 -62 -69 0
-18 -20 -40 -41 -84 0
-22 -44 -45 -51 -54 0
-16 -17 -55 -63 -64 0
-18 -21 -40 -41 -85 0
-22 -44 -45 -51 -54 0
-16 -17 -55 -63 -64 0
-18 -21 -40 -41 -85 0
-23 -44 -46 -51 -54 0
-16 -17 -56 -63 -65 0
-18 -21 -40 -41 -86 0
-23 -44 -46 -51 -54 0
-16 -17 -56 -63 -65 0
-18 -21 -40 -41 -86 0
-24 -44 -47 -51 -54 0
-16 -17 -57 -63 -66 0
-18 -21 -40 -41 -87 0
-24 -44 -47 -51 -54 0
-16 -17 -57 -63 -66 0
-18 -21 -40 -41 -87 0
-25 -44 -48 -51 -54 0
-16 -17 -58 -63 -67 0
-18 -21 -40 -41 -88 0
-25 -44 -48 -51 -54 0
-16 -17 -58 -63 -67 0
-18 -21 -40 -41 -88 0
-26 -44 -49 -51 -54 0
-16 -17 -59 -63 -68 0
-18 -21 -40 -41 -89 0
-26 -44 -49 -51 -54 0
-16 -17 -59 -63 -68 0
-18 -21 -40 -41 -89 0
-27 -44 -50 -51 -54 0
-16 -17 -60 -63 -69 0
-18 -21 -40 -41 -90 0
-27 -44 -50 -51 -54 0
-16 -17 -60 -63 -69 0
-18 -21 -40 -41 -90 0
-23 -45 -46 -51 -55 0
-16 -17 -56 -64 -65 0
-18 -22 -40 -41 -91 0
-23 -45 -46 -51 -55 0
-16 -17 -56 -64 -65 0
-18 -22 -40 -41 -91 0
-24 -45 -47 -51 -55 0
-16 -17 -57 -64 -66 0
-18 -22 -40 -41 -92 0
-24 -45 -47 -51 -55 0
-16 -17 -57 -64 -66 0
-18 -22 -40 -41 -92 0
-25 -45 -48 -51 -55 0
-16 -17 -58 -64 -67 0
-18 -22 -40 -41 -93 0
-25 -45 -48 -51 -55 0
-16 -17 -58 -64 -67 0
-18 -22 -40 -41 -93 0
-26 -45 -49 -51 -55 0
-16 -17 -59 -64 -68 0
-18 -22 -40 -41 -94 0
-26 -45 -49 -51 -55 0
-16 -17 -59 -64 -68 0
-18 -22 -40 -41 -94 0
-27 -45 -50 -51 -55 0
-16 -17 -60 -64 -69 0
-18 -22 -40 -41 -95 0
-27 -45 -50 -51 -55 0
-16 -17 -60 -64 -69 0
-18 -22 -40 -41 -95 0
-24 -46 -47 -51 -56 0
-16 -17 -57 -65 -66 0
-18 -23 -40 -41 -96 0
-24 -46 -47 -51 -56 0
-16 -17 -57 -65 -66 0
-18 -23 -40 -41 -96 0
-25 -46 -48 -51 -56 0
-16 -17 -58 -65 -67 0
-18 -23 -40 -41 -97 0
-25 -46 -48 -51 -56 0
-16 -17 -58 -65 -67 0
-18 -23 -40 -41 -97 0
-26 -46 -49 -51 -56 0
-16 -17 -59 -65 -68 0
-18 -23 -40 -41 -98 0
-26 -46 -49 -51 -56 0
-16 -17 -59 -65 -68 0
-18 -23 -40 -41 -98 0
-27 -46 -50 -51 -56 0
-16 -17 -60 -65 -69 0
-18 -23 -40 -41 -99 0
-27 -46 -50 -51 -56 0
-16 -17 -60 -65 -69 0
-18 -23 -40 -41 -99 0
-25 -47 -48 -51 -57 0
-16 -17 -58 -66 -67 0
-18 -24 -40 -41 -100 0
-25 -47 -48 -51 -57 0
-16 -17 -58 -66 -67 0
-18 -24 -40 -41 -100 0
-26 -47 -49 -51 -57 0
-16 -17 -59 -66 -68 0
-18 -24 -40 -41 -101 0
-26 -47 -49 -51 -57 0
-16 -17 -59 -66 -68 0
-18 -24 -40 -41 -101 0
-27 -47 -50 -51 -57 0
-16 -17 -60 -66 -69 0
-18 -24 -40 -41 -102 0
-27 -47 -50 -51 -57 0
-16 -17 -60 -66 -69 0
-18 -24 -40 -41 -102 0
-26 -48 -49 -51 -58 0
-16 -17 -59 -67 -68 0
-18 -25 -40 -41 -103 0
-26 -48 -49 -51 -58 0
-16 -17 -59 -67 -68 0
-18 -25 -40 -41 -103 0
-27 -48 -50 -51 -58 0
-16 -17 -60 -67 -69 0
-18 -25 -40 -41 -104 0
-27 -48 -50 -51 -58 0
-16 -17 -60 -67 -69 0
-18 -25 -40 -41 -104 0
-27 -49 -50 -51 -59 0
-16 -17 -60 -68 -69 0
-18 -26 -40 -41 -105 0
-27 -49 -50 -51 -59 0
-16 -17 -60 -68 -69 0
-18 -26 -40 -41 -105 0
-21 -43 -44 -52 -53 0
-16 -17 -54 -70 -71 0
-19 -20 -40 -42 -78 0
-21 -43 -44 -52 -53 0
-16 -17 -54 -70 -71 0
-19 -20 -40 -42 -78 0
-22 -43 -45 -52 -53 0
-16 -17 -55 -70 -72 0
-19 -20 -40 -42 -79 0
-22 -43 -45 -52 -53 0
-16 -17 -55 -70 -72 0
-19 -20 -40 -42 -79 0
-23 -43 -46 -52 -53 0
-16 -17 -56 -70 -73 0
-19 -20 -40 -42 -80 0
-23 -43 -46 -52 -53 0
-16 -17 -56 -70 -73 0
-19 -20 -40 -42 -80 0
-24 -43 -47 -52 -53 0
-16 -17 -57 -70 -74 0
-19 -20 -40 -42 -81 0
-24 -43 -47 -52 -53 0
-16 -17 -57 -70 -74 0
-19 -20 -40 -42 -81 0
-25 -43 -48 -52 -53 0
-16 -17 -58 -70 -75 0
-19 -20 -40 -42 -82 0
-25 -43 -48 -52 -53 0
-16 -17 -58 -70 -75 0
-19 -20 -40 -42 -82 0
-26 -43 -49 -52 -53 0
-16 -17 -59 -70 -76 0
-19 -20 -40 -42 -83 0
-26 -43 -49 -52 -53 0
-16 -17 -59 -70 -76 0
-19 -20 -40 -42 -83 0
-27 -43 -50 -52 -53 0
-16 -17 -60 -70 -77 0
-19 -20 -40 -42 -84 0
-27 -43 -50 -52 -53 0
-16 -17 -60 -70 -77 0
-19 -20 -40 -42 -84 0
-22 -44 -45 -52 -54 0
-16 -17 -55 -71 -72 0
-19 -21 -40 -42 -85 0
-22 -44 -45 -52 -54 0
-16 -17 -55 -71 -72 0
-19 -21 -40 -42 -85 0
-23 -44 -46 -52 -54 0
-16 -17 -56 -71 -73 0
-19 -21 -40 -42 -86 0
-23 -44 -46 -52 -54 0
-16 -17 -56 -71 -73 0
-19 -21 -40 -42 -86 0
-24 -44 -47 -52 -54 0
-16 -17 -57 -71 -74 0
-19 -21 -40 -42 -87 0
-24 -44 -47 -52 -54 0
-16 -17 -57 -71 -74 0
-19 -21 -40 -42 -87 0
-25 -44 -48 -52 -54 0
-16 -17 -58 -71 -75 0
-19 -21 -40 -42 -88 0
-25 -44 -48 -52 -54 0
-16 -17 -58 -71 -75 0
-19 -21 -40 -42 -88 0
-26 -44 -49 -52 -54 0
-16 -17 -59 -71 -76 0
-19 -21 -40 -42 -89 0
-26 -44 -49 -52 -54 0
-16 -17 -59 -71 -76 0
-19 -21 -40 -42 -89 0
-27 -44 -50 -52 -54 0
-16 -17 -60 -71 -77 0
-19 -21 -40 -42 -90 0
-27 -44 -50 -52 -54 0
-16 -17 -60 -71 -77 0
-19 -21 -40 -42 -90 0
-23 -45 -46 -52 -55 0
-16 -17 -56 -72 -73 0
-19 -22 -40 -42 -91 0
-23 -45 -46 -52 -55 0
-16 -17 -56 -72 -73 0
-19 -22 -40 -42 -91 0
-24 -45 -47 -52 -55 0
-16 -17 -57 -72 -74 0
-19 -22 -40 -42 -92 0
-24 -45 -47 -52 -55 0
-16 -17 -57 -72 -74 0
-19 -22 -40 -42 -92 0
-25 -45 -48 -52 -55 0
-16 -17 -58 -72 -75 0
-19 -22 -40 -42 -93 0
-25 -45 -48 -52 -55 0
-16 -17 -58 -72 -75 0
-19 -22 -40 -42 -93 0
-26 -45 -49 -52 -55 0
-16 -17 -59 -72 -76 0
-19 -22 -40 -42 -94 0
-26 -45 -49 -52 -55 0
-16 -17 -59 -72 -76 0
-19 -22 -40 -42 -94 0
-27 -45 -50 -52 -55 0
-16 -17 -60 -72 -77 0
-19 -22 -40 -42 -95 0
-27 -45 -50 -52 -55 0
-16 -17 -60 -72 -77 0
-19 -22 -40 -42 -95 0
-24 -46 -47 -52 -56 0
-16 -17 -57 -73 -74 0
-19 -23 -40 -42 -96 0
-24 -46 -47 -52 -56 0
-16 -17 -57 -73 -74 0
-19 -23 -40 -42 -96 0
-25 -46 -48 -52 -56 0
-16 -17 -58 -73 -75 0
-19 -23 -40 -42 -97 0
-25 -46 -48 -52 -56 0
-16 -17 -58 -73 -75 0
-19 -23 -40 -42 -97 0
-26 -46 -49 -52 -56 0
-16 -17 -59 -73 -76 0
-19 -23 -40 -42 -98 0
-26 -46 -49 -52 -56 0
-16 -17 -59 -73 -76 0
-19 -23 -40 -42 -98 0
-27 -46 -50 -52 -56 0
-16 -17 -60 -73 -77 0
-19 -23 -40 -42 -99 0
-27 -46 -50 -52 -56 0
-16 -17 -60 -73 -77 0
-19 -23 -40 -42 -99 0
-25 -47 -48 -52 -57 0
-16 -17 -58 -74 -75 0
-19 -24 -40 -42 -100 0
-25 -47 -48 -52 -57 0
-16 -17 -58 -74 -75 0
-19 -24 -40 -42 -100 0
-26 -47 -49 -52 -57 0
-16 -17 -59 -74 -76 0
-19 -24 -40 -42 -101 0
-26 -47 -49 -52 -57 0
-16 -17 -59 -74 -76 0
-19 -24 -40 -42 -101 0
-27 -47 -50 -52 -57 0
-16 -17 -60 -74 -77 0
-19 -24 -40 -42 -102 0
-27 -47 -50 -52 -57 0
-16 -17 -60 -74 -77 0
-19 -24 -40 -42 -102 0
-26 -48 -49 -52 -58 0
-16 -17 -59 -75 -76 0
-19 -25 -40 -42 -103 0
-26 -48 -49 -52 -58 0
-16 -17 -59 -75 -76 0
-19 -25 -40 -42 -103 0
-27 -48 -50 -52 -58 0
-16 -17 -60 -75 -77 0
-19 -25 -40 -42 -104 0
-27 -48 -50 -52 -58 0
-16 -17 -60 -75 -77 0
-19 -25 -40 -42 -104 0
-27 -49 -50 -52 -59 0
-16 -17 -60 -76 -77 0
-19 -26 -40 -42 -105 0
-27 -49 -50 -52 -59 0
-16 -17 -60 -76 -77 0
-19 -26 -40 -42 -105 0
-22 -44 -45 -53 -54 0
-16 -17 -55 -78 -79 0
-20 -21 -40 -43 -85 0
-22 -44 -45 -53 -54 0
-16 -17 -55 -78 -79 0
-20 -21 -40 -43 -85 0
-23 -44 -46 -53 -54 0
-16 -17 -56 -78 -80 0
-20 -21 -40 -43 -86 0
-23 -44 -46 -53 -54 0
-16 -17 -56 -78 -80 0
-20 -21 -40 -43 -86 0
-24 -44 -47 -53 -54 0
-16 -17 -57 -78 -81 0
-20 -21 -40 -43 -87 0
-24 -44 -47 -53 -54 0
-16 -17 -57 -78 -81 0
-20 -21 -40 -43 -87 0
-25 -44 -48 -53 -54 0
-16 -17 -58 -78 -82 0
-20 -21 -40 -43 -88 0
-25 -44 -48 -53 -54 0
-16 -17 -58 -78 -82 0
-20 -21 -40 -43 -88 0
-26 -44 -49 -53 -54 0
-16 -17 -59 -78 -83 0
-20 -21 -40 -43 -89 0
-26 -44 -49 -53 -54 0
-16 -17 -59 -78 -83 0
-20 -21 -40 -43 -89 0
-27 -44 -50 -53 -54 0
-16 -17 -60 -78 -84 0
-20 -21 -40 -43 -90 0
-27 -44 -50 -53 -54 0
-16 -17 -60 -78 -84 0
-20 -21 -40 -43 -90 0
-23 -45 -46 -53 -55 0
-16 -17 -56 -79 -80 0
-20 -22 -40 -43 -91 0
-23 -45 -46 -53 -55 0
-16 -17 -56 -79 -80 0
-20 -22 -40 -43 -91 0
-24 -45 -47 -53 -55 0
-16 -17 -57 -79 -81 0
-20 -22 -40 -43 -92 0
-24 -45 -47 -53 -55 0
-16 -17 -57 -79 -81 0
-20 -22 -40 -43 -92 0
-25 -45 -48 -53 -55 0
-16 -17 -58 -79 -82 0
-20 -22 -40 -43 -93 0
-25 -45 -48 -53 -55 0
-16 -17 -58 -79 -82 0
-20 -22 -40 -43 -93 0
-26 -45 -49 -53 -55 0
-16 -17 -59 -79 -83 0
-20 -22 -40 -43 -94 0
-26 -45 -49 -53 -55 0
-16 -17 -59 -79 -83 0
-20 -22 -40 -43 -94 0
-27 -45 -50 -53 -55 0
-16 -17 -60 -79 -84 0
-20 -22 -40 -43 -95 0
-27 -45 -50 -53 -55 0
-16 -17 -60 -79 -84 0
-20 -22 -40 -43 -95 0
-24 -46 -47 -53 -56 0
-16 -17 -57 -80 -81 0
-20 -23 -40 -43 -96 0
-24 -46 -47 -53 -56 0
-16 -17 -57 -80 -81 0
-20 -23 -40 -43 -96 0
-25 -46 -48 -53 -56 0
-16 -17 -58 -80 -82 0
-20 -23 -40 -43 -97 0
-25 -46 -48 -53 -56 0
-16 -17 -58 -80 -82 0
-20 -23 -40 -43 -97 0
-26 -46 -49 -53 -56 0
-16 -17 -59 -80 -83 0
-20 -23 -40 -43 -98 0
-26 -46 -49 -53 -56 0
-16 -17 -59 -80 -83 0
-20 -23 -40 -43 -98 0
-27 -46 -50 -53 -56 0
-16 -17 -60 -80 -84 0
-20 -23 -40 -43 -99 0
-27 -46 -50 -53 -56 0
-16 -17 -60 -80 -84 0
-20 -23 -40 -43 -99 0
-25 -47 -48 -53 -57 0
-16 -17 -58 -81 -82 0
-20 -24 -40 -43 -100 0
-25 -47 -48 -53 -57 0
-16 -17 -58 -81 -82 0
-20 -24 -40 -43 -100 0
-26 -47 -49 -53 -57 0
-16 -17 -59 -81 -83 0
-20 -24 -40 -43 -101 0
-26 -47 -49 -53 -57 0
-16 -17 -59 -81 -83 0
-20 -24 -40 -43 -101 0
-27 -47 -50 -53 -57 0
-16 -17 -60 -81 -84 0
-20 -24 -40 -43 -102 0
-27 -47 -50 -53 -57 0
-16 -17 -60 -81 -84 0
-20 -24 -40 -43 -102 0
-26 -48 -49 -53 -58 0
-16 -17 -59 -82 -83 0
-20 -25 -40 -43 -103 0
-26 -48 -49 -53 -58 0
-16 -17 -59 -82 -83 0
-20 -25 -40 -43 -103 0
-27 -48 -50 -53 -58 0
-16 -17 -60 -82 -84 0
-20 -25 -40 -43 -104 0
-27 -48 -50 -53 -58 0
-16 -17 -60 -82 -84 0
-20 -25 -40 -43 -104 0
-27 -49 -50 -53 -59 0
-16 -17 -60 -83 -84 0
-20 -26 -40 -43 -105 0
-27 -49 -50 -53 -59 0
-16 -17 -60 -83 -84 0
-20 -26 -40 -43 -105 0
-23 -45 -46 -54 -55 0
-16 -17 -56 -85 -86 0
-21 -22 -40 -44 -91 0
-23 -45 -46 -54 -55 0
-16 -17 -56 -85 -86 0
-21 -22 -40 -44 -91 0
-24 -45 -47 -54 -55 0
-16 -17 -57 -85 -87 0
-21 -22 -40 -44 -92 0
-24 -45 -47 -54 -55 0
-16 -17 -57 -85 -87 0
-21 -22 -40 -44 -92 0
-25 -45 -48 -54 -55 0
-16 -17 -58 -85 -88 0
-21 -22 -40 -44 -93 0
-25 -45 -48 -54 -55 0
-16 -17 -58 -85 -88 0
-21 -22 -40 -44 -93 0
-26 -45 -49 -54 -55 0
-16 -17 -59 -85 -89 0
-21 -22 -40 -44 -94 0
-26 -45 -49 -54 -55 0
-16 -17 -59 -85 -89 0
-21 -22 -40 -44 -94 0
-27 -45 -50 -54 -55 0
-16 -17 -60 -85 -90 0
-21 -22 -40 -44 -95 0
-27 -45 -50 -54 -55 0
-16 -17 -60 -85 -90 0
-21 -22 -40 -44 -95 0
-24 -46 -47 -54 -56 0
-16 -17 -57 -86 -87 0
-21 -23 -40 -44 -96 0
-24 -46 -47 -54 -56 0
-16 -17 -57 -86 -87 0
-21 -23 -40 -44 -96 0
-25 -46 -48 -54 -56 0
-16 -17 -58 -86 -88 0
-21 -23 -40 -44 -97 0
-25 -46 -48 -54 -56 0
-16 -17 -58 -86 -88 0
-21 -23 -40 -44 -97 0
-26 -46 -49 -54 -56 0
-16 -17 -59 -86 -89 0
-21 -23 -40 -44 -98 0
-26 -46 -49 -54 -56 0
-16 -17 -59 -86 -89 0
-21 -23 -40 -44 -98 0
-27 -46 -50 -54 -56 0
-16 -17 -60 -86 -90 0
-21 -23 -40 -44 -99 0
-27 -46 -50 -54 -56 0
-16 -17 -60 -86 -90 0
-21 -23 -40 -44 -99 0
-25 -47 -48 -54 -57 0
-16 -17 -58 -87 -88 0
-21 -24 -40 -44 -100 0
-25 -47 -48 -54 -57 0
-16 -17 -58 -87 -88 0
-21 -24 -40 -44 -100 0
-26 -47 -49 -54 -57 0
-16 -17 -59 -87 -89 0
-21 -24 -40 -44 -101 0
-26 -47 -49 -54 -57 0
-16 -17 -59 -87 -89 0
-21 -24 -40 -44 -101 0
-27 -47 -50 -54 -57 0
-16 -17 -60 -87 -90 0
-21 -24 -40 -44 -102 0
-27 -47 -50 -54 -57 0
-16 -17 -60 -87 -90 0
-21 -24 -40 -44 -102 0
-26 -48 -49 -54 -58 0
-16 -17 -59 -88 -89 0
-21 -25 -40 -44 -103 0
-26 -48 -49 -54 -58 0
-16 -17 -59 -88 -89 0
-21 -25 -40 -44 -103 0
-27 -48 -50 -54 -58 0
-16 -17 -60 -88 -90 0
-21 -25 -40 -44 -104 0
-27 -48 -50 -54 -58 0
-16 -17 -60 -88 -90 0
-21 -25 -40 -44 -104 0
-27 -49 -50 -54 -59 0
-16 -17 -60 -89 -90 0
-21 -26 -40 -44 -105 0
-27 -49 -50 -54 -59 0
-16 -17 -60 -89 -90 0
-21 -26 -40 -44 -105 0
-24 -46 -47 -55 -56 0
-16 -17 -57 -91 -92 0
-22 -23 -40 -45 -96 0
-24 -46 -47 -55 -56 0
-16 -17 -57 -91 -92 0
-22 -23 -40 -45 -96 0
-25 -46 -48 -55 -56 0
-16 -17 -58 -91 -93 0
-22 -23 -40 -45 -97 0
-25 -46 -48 -55 -56 0
-16 -17 -58 -91 -93 0
-22 -23 -40 -45 -97 0
-26 -46 -49 -55 -56 0
-16 -17 -59 -91 -94 0
-22 -23 -40 -45 -98 0
-26 -46 -49 -55 -56 0
-16 -17 -59 -91 -94 0
-22 -23 -40 -45 -98 0
-27 -46 -50 -55 -56 0
-16 -17 -60 -91 -95 0
-22 -23 -40 -45 -99 0
-27 -46 -50 -55 -56 0
-16 -17 -60 -91 -95 0
-22 -23 -40 -45 -99 0
-25 -47 -48 -55 -57 0
-16 -17 -58 -92 -93 0
-22 -24 -40 -45 -100 0
-25 -47 -48 -55 -57 0
-16 -17 -58 -92 -93 0
-22 -24 -40 -45 -100 0
-26 -47 -49 -55 -57 0
-16 -17 -59 -92 -94 0
-22 -24 -40 -45 -101 0
-26 -47 -49 -55 -57 0
-16 -17 -59 -92 -94 0
-22 -24 -40 -45 -101 0
-27 -47 -50 -55 -57 0
-16 -17 -60 -92 -95 0
-22 -24 -40 -45 -102 0
-27 -47 -50 -55 -57 0
-16 -17 -60 -92 -95 0
-22 -24 -40 -45 -102 0
-26 -48 -49 -55 -58 0
-16 -17 -59 -93 -94 0
-22 -25 -40 -45 -103 0
-26 -48 -49 -55 -58 0
-16 -17 -59 -93 -94 0
-22 -25 -40 -45 -103 0
-27 -48 -50 -55 -58 0
-16 -17 -60 -93 -95 0
-22 -25 -40 -45 -104 0
-27 -48 -50 -55 -58 0
-16 -17 -60 -93 -95 0
-22 -25 -40 -45 -104 0
-27 -49 -50 -55 -59 0
-16 -17 -60 -94 -95 0
-22 -26 -40 -45 -105 0
-27 -49 -50 -55 -59 0
-16 -17 -60 -94 -95 0
-22 -26 -40 -45 -105 0
-25 -47 -48 -56 -57 0
-16 -17 -58 -96 -97 0
-23 -24 -40 -46 -100 0
-25 -47 -48 -56 -57 0
-16 -17 -58 -96 -97 0
-23 -24 -40 -46 -100 0
-26 -47 -49 -56 -57 0
-16 -17 -59 -96 -98 0
-23 -24 -40 -46 -101 0
-26 -47 -49 -56 -57 0
-16 -17 -59 -96 -98 0
-23 -24 -40 -46 -101 0
-27 -47 -50 -56 -57 0
-16 -17 -60 -96 -99 0
-23 -24 -40 -46 -102 0
-27 -47 -50 -56 -57 0
-16 -17 -60 -96 -99 0
-23 -24 -40 -46 -102 0
-26 -48 -49 -56 -58 0
-16 -17 -59 -97 -98 0
-23 -25 -40 -46 -103 0
-26 -48 -49 -56 -58 0
-16 -17 -59 -97 -98 0
-23 -25 -40 -46 -103 0
-27 -48 -50 -56 -58 0
-16 -17 -60 -97 -99 0
-23 -25 -40 -46 -104 0
-27 -48 -50 -56 -58 0
-16 -17 -60 -97 -99 0
-23 -25 -40 -46 -104 0
-27 -49 -50 -56 -59 0
-16 -17 -60 -98 -99 0
-23 -26 -40 -46 -105 0
-27 -49 -50 -56 -59 0
-16 -17 -60 -98 -99 0
-23 -26 -40 -46 -105 0
-26 -48 -49 -57 -58 0
-16 -17 -59 -100 -101 0
-24 -25 -40 -47 -103 0
-26 -48 -49 -57 -58 0
-16 -17 -59 -100 -101 0
-24 -25 -40 -47 -103 0
-27 -48 -50 -57 -58 0
-16 -17 -60 -100 -102 0
-24 -25 -40 -47 -104 0
-27 -48 -50 -57 -58 0
-16 -17 -60 -100 -102 0
-24 -25 -40 -47 -104 0
-27 -49 -50 -57 -59 0
-16 -17 -60 -101 -102 0
-24 -26 -40 -47 -105 0
-27 -49 -50 -57 -59 0
-16 -17 -60 -101 -102 0
-24 -26 -40 -47 -105 0
-27 -49 -50 -58 -59 0
-16 -17 -60 -103 -104 0
-25 -26 -40 -48 -105 0
-27 -49 -50 -58 -59 0
-16 -17 -60 -103 -104 0
-25 -26 -40 -48 -105 0
-21 -43 -44 -61 -62 0
-16 -18 -63 -70 -71 0
-19 -20 -41 -42 -78 0
-21 -43 -44 -61 -62 0
-16 -18 -63 -70 -71 0
-19 -20 -41 -42 -78 0
-22 -43 -45 -61 -62 0
-16 -18 -64 -70 -72 0
-19 -20 -41 -42 -79 0
-22 -43 -45 -61 -62 0
-16 -18 -64 -70 -72 0
-19 -20 -41 -42 -79 0
-23 -43 -46 -61 -62 0
-16 -18 -65 -70 -73 0
-19 -20 -41 -42 -80 0
-23 -43 -46 -61 -62 0
-16 -18 -65 -70 -73 0
-19 -20 -41 -42 -80 0
-24 -43 -47 -61 -62 0
-16 -18 -66 -70 -74 0
-19 -20 -41 -42 -81 0
-24 -43 -47 -61 -62 0
-16 -18 -66 -70 -74 0
-19 -20 -41 -42 -81 0
-25 -43 -48 -61 -62 0
-16 -18 -67 -70 -75 0
-19 -20 -41 -42 -82 0
-25 -43 -48 -61 -62 0
-16 -18 -67 -70 -75 0
-19 -20 -41 -42 -82 0
-26 -43 -49 -61 -62 0
-16 -18 -68 -70 -76 0
-19 -20 -41 -42 -83 0
-26 -43 -49 -61 -62 0
-16 -18 -68 -70 -76 0
-19 -20 -41 -42 -83 0
-27 -43 -50 -61 -62 0
-16 -18 -69 -70 -77 0
-19 -20 -41 -42 -84 0
-27 -43 -50 -61 -62 0
-16 -18 -69 -70 -77 0
-19 -20 -41 -42 -84 0
-22 -44 -45 -61 -63 0
-16 -18 -64 -71 -72 0
-19 -21 -41 -42 -85 0
-22 -44 -45 -61 -63 0
-16 -18 -64 -71 -72 0
-19 -21 -41 -42 -85 0
-23 -44 -46 -61 -63 0
-16 -18 -65 -71 -73 0
-19 -21 -41 -42 -86 0
-23 -44 -46 -61 -63 0
-16 -18 -65 -71 -73 0
-19 -21 -41 -42 -86 0
-24 -44 -47 -61 -63 0
-16 -18 -66 -71 -74 0
-19 -21 -41 -42 -87 0
-24 -44 -47 -61 -63 0
-16 -18 -66 -71 -74 0
-19 -21 -41 -42 -87 0
-25 -44 -48 -61 -63 0
-16 -18 -67 -71 -75 0
-19 -21 -41 -42 -88 0
-25 -44 -48 -61 -63 0
-16 -18 -67 -71 -75 0
-19 -21 -41 -42 -88 0
-26 -44 -49 -61 -63 0
-16 -18 -68 -71 -76 0
-19 -21 -41 -42 -89 0
-26 -44 -49 -61 -63 0
-16 -18 -68 -71 -76 0
-19 -21 -41 -42 -89 0
-27 -44 -50 -61 -63 0
-16 -18 -69 -71 -77 0
-19 -21 -41 -42 -90 0
-27 -44 -50 -61 -63 0
-16 -18 -69 -71 -77 0
-19 -21 -41 -42 -90 0
-23 -45 -46 -61 -64 0
-16 -18 -65 -72 -73 0
-19 -22 -41 -42 -91 0
-23 -45 -46 -61 -64 0
-16 -18 -65 -72 -73 0
-19 -22 -41 -42 -91 0
-24 -45 -47 -61 -64 0
-16 -18 -66 -72 -74 0
-19 -22 -41 -42 -92 0
-24 -45 -47 -61 -64 0
-16 -18 -66 -72 -74 0
-19 -22 -41 -42 -92 0
-25 -45 -48 -61 -64 0
-16 -18 -67 -72 -75 0
-19 -22 -41 -42 -93 0
-25 -45 -48 -61 -64 0
-16 -18 -67 -72 -75 0
-19 -22 -41 -42 -93 0
-26 -45 -49 -61 -64 0
-16 -18 -68 -72 -76 0
-19 -22 -41 -42 -94 0
-26 -45 -49 -61 -64 0
-16 -18 -68 -72 -76 0
-19 -22 -41 -42 -94 0
-27 -45 -50 -61 -64 0
-16 -18 -69 -72 -77 0
-19 -22 -41 -42 -95 0
-27 -45 -50 -61 -64 0
-16 -18 -69 -72 -77 0
-19 -22 -41 -42 -95 0
-24 -46 -47 -61 -65 0
-16 -18 -66 -73 -74 0
-19 -23 -41 -42 -96 0
-24 -46 -47 -61 -65 0
-16 -18 -66 -73 -74 0
-19 -23 -41 -42 -96 0
-25 -46 -48 -61 -65 0
-16 -18 -67 -73 -75 0
-19 -23 -41 -42 -97 0
-25 -46 -48 -61 -65 0
-16 -18 -67 -73 -75 0
-19 -23 -41 -42 -97 0
-26 -46 -49 -61 -65 0
-16 -18 -68 -73 -76 0
-19 -23 -41 -42 -98 0
-26 -46 -49 -61 -65 0
-16 -18 -68 -73 -76 0
-19 -23 -41 -42 -98 0
-27 -46 -50 -61 -65 0
-16 -18 -69 -73 -77 0
-19 -23 -41 -42 -99 0
-27 -46 -50 -61 -65 0
-16 -18 -69 -73 -77 0
-19 -23 -41 -42 -99 0
-25 -47 -48 -61 -66 0
-16 -18 -67 -74 -75 0
-19 -24 -41 -42 -100 0
-25 -47 -48 -61 -66 0
-16 -18 -67 -74 -75 0
-19 -24 -41 -42 -100 0
-26 -47 -49 -61 -66 0
-16 -18 -68 -74 -76 0
-19 -24 -41 -42 -101 0
-26 -47 -49 -61 -66 0
-16 -18 -68 -74 -76 0
-19 -24 -41 -42 -101 0
-27 -47 -50 -61 -66 0
-16 -18 -69 -74 -77 0
-19 -24 -41 -42 -102 0
-27 -47 -50 -61 -66 0
-16 -18 -69 -74 -77 0
-19 -24 -41 -42 -102 0
-26 -48 -49 -61 -67 0
-16 -18 -68 -75 -76 0
-19 -25 -41 -42 -103 0
-26 -48 -49 -61 -67 0
-16 -18 -68 -75 -76 0
-19 -25 -41 -42 -103 0
-27 -48 -50 -61 -67 0
-16 -18 -69 -75 -77 0
-19 -25 -41 -42 -104 0
-27 -48 -50 -61 -67 0
-16 -18 -69 -75 -77 0
-19 -25 -41 -42 -104 0
-27 -49 -50 -61 -68 0
-16 -18 -69 -76 -77 0
-19 -26 -41 -42 -105 0
-27 -49 -50 -61 -68 0
-16 -18 -69 -76 -77 0
-19 -26 -41 -42 -105 0
-22 -44 -45 -62 -63 0
-16 -18 -64 -78 -79 0
-20 -21 -41 -43 -85 0
-22 -44 -45 -62 -63 0
-16 -18 -64 -78 -79 0
-20 -21 -41 -43 -85 0
-23 -44 -46 -62 -63 0
-16 -18 -65 -78 -80 0
-20 -21 -41 -43 -86 0
-23 -44 -46 -62 -63 0
-16 -18 -65 -78 -80 0
-20 -21 -41 -43 -86 0
-24 -44 -47 -62 -63 0
-16 -18 -66 -78 -81 0
-20 -21 -41 -43 -87 0
-24 -44 -47 -62 -63 0
-16 -18 -66 -78 -81 0
-20 -21 -41 -43 -87 0
-25 -44 -48 -62 -63 0
-16 -18 -67 -78 -82 0
-20 -21 -41 -43 -88 0
-25 -44 -48 -62 -63 0
-16 -18 -67 -78 -82 0
-20 -21 -41 -43 -88 0
-26 -44 -49 -62 -63 0
-16 -18 -68 -78 -83 0
-20 -21 -41 -43 -89 0
-26 -44 -49 -62 -63 0
-16 -18 -68 -78 -83 0
-20 -21 -41 -43 -89 0
-27 -44 -50 -62 -63 0
-16 -18 -69 -78 -84 0
-20 -21 -41 -43 -90 0
-27 -44 -50 -62 -63 0
-16 -18 -69 -78 -84 0
-20 -21 -41 -43 -90 0
-23 -45 -46 -62 -64 0
-16 -18 -65 -79 -80 0
-20 -22 -41 -43 -91 0
-23 -45 -46 -62 -64 0
-16 -18 -65 -79 -80 0
-20 -22 -41 -43 -91 0
-24 -45 -47 -62 -64 0
-16 -18 -66 -79 -81 0
-20 -22 -41 -43 -92 0
-24 -45 -47 -62 -64 0
-16 -18 -66 -79 -81 0
-20 -22 -41 -43 -92 0
-25 -45 -48 -62 -64 0
-16 -18 -67 -79 -82 0
-20 -22 -41 -43 -93 0
-25 -45 -48 -62 -64 0
-16 -18 -67 -79 -82 0
-20 -22 -41 -43 -93 0
-26 -45 -49 -62 -64 0
-16 -18 -68 -79 -83 0
-20 -22 -41 -43 -94 0
-26 -45 -49 -62 -64 0
-16 -18 -68 -79 -83 0
-20 -22 -41 -43 -94 0
-27 -45 -50 -62 -64 0
-16 -18 -69 -79 -84 0
-20 -22 -41 -43 -95 0
-27 -45 -50 -62 -64 0
-16 -18 -69 -79 -84 0
-20 -22 -41 -43 -95 0
-24 -46 -47 -62 -65 0
-16 -18 -66 -80 -81 0
-20 -23 -41 -43 -96 0
-24 -46 -47 -62 -65 0
-16 -18 -66 -80 -81 0
-20 -23 -41 -43 -96 0
-25 -46 -48 -62 -65 0
-16 -18 -67 -80 -82 0
-20 -23 -41 -43 -97 0
-25 -46 -48 -62 -65 0
-16 -18 -67 -80 -82 0
-20 -23 -41 -43 -97 0
-26 -46 -49 -62 -65 0
-16 -18 -68 -80 -83 0
-20 -23 -41 -43 -98 0
-26 -46 -49 -62 -65 0
-16 -18 -68 -80 -83 0
-20 -23 -41 -43 -98 0
-27 -46 -50 -62 -65 0
-16 -18 -69 -80 -84 0
-20 -23 -41 -43 -99 0
-27 -46 -50 -62 -65 0
-16 -18 -69 -80 -84 0
-20 -23 -41 -43 -99 0
-25 -47 -48 -62 -66 0
-16 -18 -67 -81 -82 0
-20 -24 -41 -43 -100 0
-25 -47 -48 -62 -66 0
-16 -18 -67 -81 -82 0
-20 -24 -41 -43 -100 0
-26 -47 -49 -62 -66 0
-16 -18 -68 -81 -83 0
-20 -24 -41 -43 -101 0
-26 -47 -49 -62 -66 0
-16 -18 -68 -81 -83 0
-20 -24 -41 -43 -101 0
-27 -47 -50 -62 -66 0
-16 -18 -69 -81 -84 0
-20 -24 -41 -43 -102 0
-27 -47 -50 -62 -66 0
-16 -18 -69 -81 -84 0
-20 -24 -41 -43 -102 0
-26 -48 -49 -62 -67 0
-16 -18 -68 -82 -83 0
-20 -25 -41 -43 -103 0
-26 -48 -49 -62 -67 0
-16 -18 -68 -82 -83 0
-20 -25 -41 -43 -103 0
-27 -48 -50 -62 -67 0
-16 -18 -69 -82 -84 0
-20 -25 -41 -43 -104 0
-27 -48 -50 -62 -67 0
-16 -18 -69 -82 -84 0
-20 -25 -41 -43 -104 0
-27 -49 -50 -62 -68 0
-16 -18 -69 -83 -84 0
-20 -26 -41 -43 -105 0
-27 -49 -50 -62 -68 0
-16 -18 -69 -83 -84 0
-20 -26 -41 -43 -105 0
-23 -45 -46 -63 -64 0
-16 -18 -65 -85 -86 0
-21 -22 -41 -44 -91 0
-23 -45 -46 -63 -64 0
-16 -18 -65 -85 -86 0
-21 -22 -41 -44 -91 0
-24 -45 -47 -63 -64 0
-16 -18 -66 -85 -87 0
-21 -22 -41 -44 -92 0
-24 -45 -47 -63 -64 0
-16 -18 -66 -85 -87 0
-21 -22 -41 -44 -92 0
-25 -45 -48 -63 -64 0
-16 -18 -67 -85 -88 0
-21 -22 -41 -44 -93 0
-25 -45 -48 -63 -64 0
-16 -18 -67 -85 -88 0
-21 -22 -41 -44 -93 0
-26 -45 -49 -63 -64 0
-16 -18 -68 -85 -89 0
-21 -22 -41 -44 -94 0
-26 -45 -49 -63 -64 0
-16 -18 -68 -85 -89 0
-21 -22 -41 -44 -94 0
-27 -45 -50 -63 -64 0
-16 -18 -69 -85 -90 0
-21 -22 -41 -44 -95 0
-27 -45 -50 -63 -64 0
-16 -18 -69 -85 -90 0
-21 -22 -41 -44 -95 0
-24 -46 -47 -63 -65 0
-16 -18 -66 -86 -87 0
-21 -23 -41 -44 -96 0
-24 -46 -47 -63 -65 0
-16 -18 -66 -86 -87 0
-21 -23 -41 -44 -96 0
-25 -46 -48 -63 -65 0
-16 -18 -67 -86 -88 0
-21 -23 -41 -44 -97 0
-25 -46 -48 -63 -65 0
-16 -18 -67 -86 -88 0
-21 -23 -41 -44 -97 0
-26 -46 -49 -63 -65 0
-16 -18 -68 -86 -89 0
-21 -23 -41 -44 -98 0
-26 -46 -49 -63 -65 0
-16 -18 -68 -86 -89 0
-21 -23 -41 -44 -98 0
-27 -46 -50 -63 -65 0
-16 -18 -69 -86 -90 0
-21 -23 -41 -44 -99 0
-27 -46 -50 -63 -65 0
-16 -18 -69 -86 -90 0
-21 -23 -41 -44 -99 0
-25 -47 -48 -63 -66 0
-16 -18 -67 -87 -88 0
-21 -24 -41 -44 -100 0
-25 -47 -48 -63 -66 0
-16 -18 -67 -87 -88 0
-21 -24 -41 -44 -100 0
-26 -47 -49 -63 -66 0
-16 -18 -68 -87 -89 0
-21 -24 -41 -44 -101 0
-26 -47 -49 -63 -66 0
-16 -18 -68 -87 -89 0
-21 -24 -41 -44 -101 0
-27 -47 -50 -63 -66 0
-16 -18 -69 -87 -90 0
-21 -24 -41 -44 -102 0
-27 -47 -50 -63 -66 0
-16 -18 -69 -87 -90 0
-21 -24 -41 -44 -102 0
-26 -48 -49 -63 -67 0
-16 -18 -68 -88 -89 0
-21 -25 -41 -44 -103 0
-26 -48 -49 -63 -67 0
-16 -18 -68 -88 -89 0
-21 -25 -41 -44 -103 0
-27 -48 -50 -63 -67 0
-16 -18 -69 -88 -90 0
-21 -25 -41 -44 -104 0
-27 -48 -50 -63 -67 0
-16 -18 -69 -88 -90 0
-21 -25 -41 -44 -104 0
-27 -49 -50 -63 -68 0
-16 -18 -69 -89 -90 0
-21 -26 -41 -44 -105 0
-27 -49 -50 -63 -68 0
-16 -18 -69 -89 -90 0
-21 -26 -41 -44 -105 0
-24 -46 -47 -64 -65 0
-16 -18 -66 -91 -92 0
-22 -23 -41 -45 -96 0
-24 -46 -47 -64 -65 0
-16 -18 -66 -91 -92 0
-22 -23 -41 -45 -96 0
-25 -46 -48 -64 -65 0
-16 -18 -67 -91 -93 0
-22 -23 -41 -45 -97 0
-25 -46 -48 -64 -65 0
-16 -18 -67 -91 -93 0
-22 -23 -41 -45 -97 0
-26 -46 -49 -64 -65 0
-16 -18 -68 -91 -94 0
-22 -23 -41 -45 -98 0
-26 -46 -49 -64 -65 0
-16 -18 -68 -91 -94 0
-22 -23 -41 -45 -98 0
-27 -46 -50 -64 -65 0
-16 -18 -69 -91 -95 0
-22 -23 -41 -45 -99 0
-27 -46 -50 -64 -65 0
-16 -18 -69 -91 -95 0
-22 -23 -41 -45 -99 0
-25 -47 -48 -64 -66 0
-16 -18 -67 -92 -93 0
-22 -24 -41 -45 -100 0
-25 -47 -48 -64 -66 0
-16 -18 -67 -92 -93 0
-22 -24 -41 -45 -100 0
-26 -47 -49 -64 -66 0
-16 -18 -68 -92 -94 0
-22 -24 -41 -45 -101 0
-26 -47 -49 -64 -66 0
-16 -18 -68 -92 -94 0
-22 -24 -41 -45 -101 0
-27 -47 -50 -64 -66 0
-16 -18 -69 -92 -95 0
-22 -24 -41 -45 -102 0
-27 -47 -50 -64 -66 0
-16 -18 -69 -92 -95 0
-22 -24 -41 -45 -102 0
-26 -48 -49 -64 -67 0
-16 -18 -68 -93 -94 0
-22 -25 -41 -45 -103 0
-26 -48 -49 -64 -67 0
-16 -18 -68 -93 -94 0
-22 -25 -41 -45 -103 0
-27 -48 -50 -64 -67 0
-16 -18 -69 -93 -95 0
-22 -25 -41 -45 -104 0
-27 -48 -50 -64 -67 0
-16 -18 -69 -93 -95 0
-22 -25 -41 -45 -104 0
-27 -49 -50 -64 -68 0
-16 -18 -69 -94 -95 0
-22 -26 -41 -45 -105 0
-27 -49 -50 -64 -68 0
-16 -18 -69 -94 -95 0
-22 -26 -41 -45 -105 0
-25 -47 -48 -65 -66 0
-16 -18 -67 -96 -97 0
-23 -24 -41 -46 -100 0
-25 -47 -48 -65 -66 0
-16 -18 -67 -96 -97 0
-23 -24 -41 -46 -100 0
-26 -47 -49 -65 -66 0
-16 -18 -68 -96 -98 0
-23 -24 -41 -46 -101 0
-26 -47 -49 -65 -66 0
-16 -18 -68 -96 -98 0
-23 -24 -41 -46 -101 0
-27 -47 -50 -65 -66 0
-16 -18 -69 -96 -99 0
-23 -24 -41 -46 -102 0
-27 -47 -50 -65 -66 0
-16 -18 -69 -96 -99 0
-23 -24 -41 -46 -102 0
-26 -48 -49 -65 -67 0
-16 -18 -68 -97 -98 0
-23 -25 -41 -46 -103 0
-26 -48 -49 -65 -67 0
-16 -18 -68 -97 -98 0
-23 -25 -41 -46 -103 0
-27 -48 -50 -65 -67 0
-16 -18 -69 -97 -99 0
-23 -25 -41 -46 -104 0
-27 -48 -50 -65 -67 0
-16 -18 -69 -97 -99 0
-23 -25 -41 -46 -104 0
-27 -49 -50 -65 -68 0
-16 -18 -69 -98 -99 0
-23 -26 -41 -46 -105 0
-27 -49 -50 -65 -68 0
-16 -18 -69 -98 -99 0
-23 -26 -41 -46 -105 0
-26 -48 -49 -66 -67 0
-16 -18 -68 -100 -101 0
-24 -25 -41 -47 -103 0
-26 -48 -49 -66 -67 0
-16 -18 -68 -100 -101 0
-24 -25 -41 -47 -103 0
-27 -48 -50 -66 -67 0
-16 -18 -69 -100 -102 0
-24 -25 -41 -47 -104 0
-27 -48 -50 -66 -67 0
-16 -18 -69 -100 -102 0
-24 -25 -41 -47 -104 0
-27 -49 -50 -66 -68 0
-16 -18 -69 -101 -102 0
-24 -26 -41 -47 -105 0
-27 -49 -50 -66 -68 0
-16 -18 -69 -101 -102 0
-24 -26 -41 -47 -105 0
-27 -49 -50 -67 -68 0
-16 -18 -69 -103 -104 0
-25 -26 -41 -48 -105 0
-27 -49 -50 -67 -68 0
-16 -18 -69 -103 -104 0
-25 -26 -41 -48 -105 0
-22 -44 -45 -70 -71 0
-16 -19 -72 -78 -79 0
-20 -21 -42 -43 -85 0
-22 -44 -45 -70 -71 0
-16 -19 -72 -78 -79 0
-20 -21 -42 -43 -85 0
-23 -44 -46 -70 -71 0
-16 -19 -73 -78 -80 0
-20 -21 -42 -43 -86 0
-23 -44 -46 -70 -71 0
-16 -19 -73 -78 -80 0
-20 -21 -42 -43 -86 0
-24 -44 -47 -70 -71 0
-16 -19 -74 -78 -81 0
-20 -21 -42 -43 -87 0
-24 -44 -47 -70 -71 0
-16 -19 -74 -78 -81 0
-20 -21 -42 -43 -87 0
-25 -44 -48 -70 -71 0
-16 -19 -75 -78 -82 0
-20 -21 -42 -43 -88 0
-25 -44 -48 -70 -71 0
-16 -19 -75 -78 -82 0
-20 -21 -42 -43 -88 0
-26 -44 -49 -70 -71 0
-16 -19 -76 -78 -83 0
-20 -21 -42 -43 -89 0
-26 -44 -49 -70 -71 0
-16 -19 -76 -78 -83 0
-20 -21 -42 -43 -89 0
-27 -44 -50 -70 -71 0
-16 -19 -77 -78 -84 0
-20 -21 -42 -43 -90 0
-27 -44 -50 -70 -71 0
-16 -19 -77 -78 -84 0
-20 -21 -42 -43 -90 0
-23 -45 -46 -70 -72 0
-16 -19 -73 -79 -80 0
-20 -22 -42 -43 -91 0
-23 -45 -46 -70 -72 0
-16 -19 -73 -79 -80 0
-20 -22 -42 -43 -91 0
-24 -45 -47 -70 -72 0
-16 -19 -74 -79 -81 0
-20 -22 -42 -43 -92 0
-24 -45 -47 -70 -72 0
-16 -19 -74 -79 -81 0
-20 -22 -42 -43 -92 0
-25 -45 -48 -70 -72 0
-16 -19 -75 -79 -82 0
-20 -22 -42 -43 -93 0
-25 -45 -48 -70 -72 0
-16 -19 -75 -79 -82 0
-20 -22 -42 -43 -93 0
-26 -45 -49 -70 -72 0
-16 -19 -76 -79 -83 0
-20 -22 -42 -43 -94 0
-26 -45 -49 -70 -72 0
-16 -19 -76 -79 -83 0
-20 -22 -42 -43 -94 0
-27 -45 -50 -70 -72 0
-16 -19 -77 -79 -84 0
-20 -22 -42 -43 -95 0
-27 -45 -50 -70 -72 0
-16 -19 -77 -79 -84 0
-20 -22 -42 -43 -95 0
-24 -46 -47 -70 -73 0
-16 -19 -74 -80 -81 0
-20 -23 -42 -43 -96 0
-24 -46 -47 -70 -73 0
-16 -19 -74 -80 -81 0
-20 -23 -42 -43 -96 0
-25 -46 -48 -70 -73 0
-16 -19 -75 -80 -82 0
-20 -23 -42 -43 -97 0
-25 -46 -48 -70 -73 0
-16 -19 -75 -80 -82 0
-20 -23 -42 -43 -97 0
-26 -46 -49 -70 -73 0
-16 -19 -76 -80 -83 0
-20 -23 -42 -43 -98 0
-26 -46 -49 -70 -73 0
-16 -19 -76 -80 -83 0
-20 -23 -42 -43 -98 0
-27 -46 -50 -70 -73 0
-16 -19 -77 -80 -84 0
-20 -23 -42 -43 -99 0
-27 -46 -50 -70 -73 0
-16 -19 -77 -80 -84 0
-20 -23 -42 -43 -99 0
-25 -47 -48 -70 -74 0
-16 -19 -75 -81 -82 0
-20 -24 -42 -43 -100 0
-25 -47 -48 -70 -74 0
-16 -19 -75 -81 -82 0
-20 -24 -42 -43 -100 0
-26 -47 -49 -70 -74 0
-16 -19 -76 -81 -83 0
-20 -24 -42 -43 -101 0
-26 -47 -49 -70 -74 0
-16 -19 -76 -81 -83 0
-20 -24 -42 -43 -101 0
-27 -47 -50 -70 -74 0
-16 -19 -77 -81 -84 0
-20 -24 -42 -43 -102 0
-27 -47 -50 -70 -74 0
-16 -19 -77 -81 -84 0
-20 -24 -42 -43 -102 0
-26 -48 -49 -70 -75 0
-16 -19 -76 -82 -83 0
-20 -25 -42 -43 -103 0
-26 -48 -49 -70 -75 0
-16 -19 -76 -82 -83 0
-20 -25 -42 -43 -103 0
-27 -48 -50 -70 -75 0
-16 -19 -77 -82 -84 0
-20 -25 -42 -43 -104 0
-27 -48 -50 -70 -75 0
-16 -19 -77 -82 -84 0
-20 -25 -42 -43 -104 0
-27 -49 -50 -70 -76 0
-16 -19 -77 -83 -84 0
-20 -26 -42 -43 -105 0
-27 -49 -50 -70 -76 0
-16 -19 -77 -83 -84 0
-20 -26 -42 -43 -105 0
-23 -45 -46 -71 -72 0
-16 -19 -73 -85 -86 0
-21 -22 -42 -44 -91 0
-23 -45 -46 -71 -72 0
-16 -19 -73 -85 -86 0
-21 -22 -42 -44 -91 0
-24 -45 -47 -71 -72 0
-16 -19 -74 -85 -87 0
-21 -22 -42 -44 -92 0
-24 -45 -47 -71 -72 0
-16 -19 -74 -85 -87 0
-21 -22 -42 -44 -92 0
-25 -45 -48 -71 -72 0
-16 -19 -75 -85 -88 0
-21 -22 -42 -44 -93 0
-25 -45 -48 -71 -72 0
-16 -19 -75 -85 -88 0
-21 -22 -42 -44 -93 0
-26 -45 -49 -71 -72 0
-16 -19 -76 -85 -89 0
-21 -22 -42 -44 -94 0
-26 -45 -49 -71 -72 0
-16 -19 -76 -85 -89 0
-21 -22 -42 -44 -94 0
-27 -45 -50 -71 -72 0
-16 -19 -77 -85 -90 0
-21 -22 -42 -44 -95 0
-27 -45 -50 -71 -72 0
-16 -19 -77 -85 -90 0
-21 -22 -42 -44 -95 0
-24 -46 -47 -71 -73 0
-16 -19 -74 -86 -87 0
-21 -23 -42 -44 -96 0
-24 -46 -47 -71 -73 0
-16 -19 -74 -86 -87 0
-21 -23 -42 -44 -96 0
-25 -46 -48 -71 -73 0
-16 -19 -75 -86 -88 0
-21 -23 -42 -44 -97 0
-25 -46 -48 -71 -73 0
-16 -19 -75 -86 -88 0
-21 -23 -42 -44 -97 0
-26 -46 -49 -71 -73 0
-16 -19 -76 -86 -89 0
-21 -23 -42 -44 -98 0
-26 -46 -49 -71 -73 0
-16 -19 -76 -86 -89 0
-21 -23 -42 -44 -98 0
-27 -46 -50 -71 -73 0
-16 -19 -77 -86 -90 0
-21 -23 -42 -44 -99 0
-27 -46 -50 -71 -73 0
-16 -19 -77 -86 -90 0
-21 -23 -42 -44 -99 0
-25 -47 -48 -71 -74 0
-16 -19 -75 -87 -88 0
-21 -24 -42 -44 -100 0
-25 -47 -48 -71 -74 0
-16 -19 -75 -87 -88 0
-21 -24 -42 -44 -100 0
-26 -47 -49 -71 -74 0
-16 -19 -76 -87 -89 0
-21 -24 -42 -44 -101 0
-26 -47 -49 -71 -74 0
-16 -19 -76 -87 -89 0
-21 -24 -42 -44 -101 0
-27 -47 -50 -71 -74 0
-16 -19 -77 -87 -90 0
-21 -24 -42 -44 -102 0
-27 -47 -50 -71 -74 0
-16 -19 -77 -87 -90 0
-21 -24 -42 -44 -102 0
-26 -48 -49 -71 -75 0
-16 -19 -76 -88 -89 0
-21 -25 -42 -44 -103 0
-26 -48 -49 -71 -75 0
-16 -19 -76 -88 -89 0
-21 -25 -42 -44 -103 0
-27 -48 -50 -71 -75 0
-16 -19 -77 -88 -90 0
-21 -25 -42 -44 -104 0
-27 -48 -50 -71 -75 0
-16 -19 -77 -88 -90 0
-21 -25 -42 -44 -104 0
-27 -49 -50 -71 -76 0
-16 -19 -77 -89 -90 0
-21 -26 -42 -44 -105 0
-27 -49 -50 -71 -76 0
-16 -19 -77 -89 -90 0
-21 -26 -42 -44 -105 0
-24 -46 -47 -72 -73 0
-16 -19 -74 -91 -92 0
-22 -23 -42 -45 -96 0
-24 -46 -47 -72 -73 0
-16 -19 -74 -91 -92 0
-22 -23 -42 -45 -96 0
-25 -46 -48 -72 -73 0
-16 -19 -75 -91 -93 0
-22 -23 -42 -45 -97 0
-25 -46 -48 -72 -73 0
-16 -19 -75 -91 -93 0
-22 -23 -42 -45 -97 0
-26 -46 -49 -72 -73 0
-16 -19 -76 -91 -94 0
-22 -23 -42 -45 -98 0
-26 -46 -49 -72 -73 0
-16 -19 -76 -91 -94 0
-22 -23 -42 -45 -98 0
-27 -46 -50 -72 -73 0
-16 -19 -77 -91 -95 0
-22 -23 -42 -45 -99 0
-27 -46 -50 -72 -73 0
-16 -19 -77 -91 -95 0
-22 -23 -42 -45 -99 0
-25 -47 -48 -72 -74 0
-16 -19 -75 -92 -93 0
-22 -24 -42 -45 -100 0
-25 -47 -48 -72 -74 0
-16 -19 -75 -92 -93 0
-22 -24 -42 -45 -100 0
-26 -47 -49 -72 -74 0
-16 -19 -76 -92 -94 0
-22 -24 -42 -45 -101 0
-26 -47 -49 -72 -74 0
-16 -19 -76 -92 -94 0
-22 -24 -42 -45 -101 0
-27 -47 -50 -72 -74 0
-16 -19 -77 -92 -95 0
-22 -24 -42 -45 -102 0
-27 -47 -50 -72 -74 0
-16 -19 -77 -92 -95 0
-22 -24 -42 -45 -102 0
-26 -48 -49 -72 -75 0
-16 -19 -76 -93 -94 0
-22 -25 -42 -45 -103 0
-26 -48 -49 -72 -75 0
-16 -19 -76 -93 -94 0
-22 -25 -42 -45 -103 0
-27 -48 -50 -72 -75 0
-16 -19 -77 -93 -95 0
-22 -25 -42 -45 -104 0
-27 -48 -50 -72 -75 0
-16 -19 -77 -93 -95 0
-22 -25 -42 -45 -104 0
-27 -49 -50 -72 -76 0
-16 -19 -77 -94 -95 0
-22 -26 -42 -45 -105 0
-27 -49 -50 -72 -76 0
-16 -19 -77 -94 -95 0
-22 -26 -42 -45 -105 0
-25 -47 -48 -73 -74 0
-16 -19 -75 -96 -97 0
-23 -24 -42 -46 -100 0
-25 -47 -48 -73 -74 0
-16 -19 -75 -96 -97 0
-23 -24 -42 -46 -100 0
-26 -47 -49 -73 -74 0
-16 -19 -76 -96 -98 0
-23 -24 -42 -46 -101 0
-26 -47 -49 -73 -74 0
-16 -19 -76 -96 -98 0
-23 -24 -42 -46 -101 0
-27 -47 -50 -73 -74 0
-16 -19 -77 -96 -99 0
-23 -24 -42 -46 -102 0
-27 -47 -50 -73 -74 0
-16 -19 -77 -96 -99 0
-23 -24 -42 -46 -102 0
-26 -48 -49 -73 -75 0
-16 -19 -76 -97 -98 0
-23 -25 -42 -46 -103 0
-26 -48 -49 -73 -75 0
-16 -19 -76 -97 -98 0
-23 -25 -42 -46 -103 0
-27 -48 -50 -73 -75 0
-16 -19 -77 -97 -99 0
-23 -25 -42 -46 -104 0
-27 -48 -50 -73 -75 0
-16 -19 -77 -97 -99 0
-23 -25 -42 -46 -104 0
-27 -49 -50 -73 -76 0
-16 -19 -77 -98 -99 0
-23 -26 -42 -46 -105 0
-27 -49 -50 -73 -76 0
-16 -19 -77 -98 -99 0
-23 -26 -42 -46 -105 0
-26 -48 -49 -74 -75 0
-16 -19 -76 -100 -101 0
-24 -25 -42 -47 -103 0
-26 -48 -49 -74 -75 0
-16 -19 -76 -100 -101 0
-24 -25 -42 -47 -103 0
-27 -48 -50 -74 -75 0
-16 -19 -77 -100 -102 0
-24 -25 -42 -47 -104 0
-27 -48 -50 -74 -75 0
-16 -19 -77 -100 -102 0
-24 -25 -42 -47 -104 0
-27 -49 -50 -74 -76 0
-16 -19 -77 -101 -102 0
-24 -26 -42 -47 -105 0
-27 -49 -50 -74 -76 0
-16 -19 -77 -101 -102 0
-24 -26 -42 -47 -105 0
-27 -49 -50 -75 -76 0
-16 -19 -77 -103 -104 0
-25 -26 -42 -48 -105 0
-27 -49 -50 -75 -76 0
-16 -19 -77 -103 -104 0
-25 -26 -42 -48 -105 0
-23 -45 -46 -78 -79 0
-16 -20 -80 -85 -86 0
-21 -22 -43 -44 -91 0
-23 -45 -46 -78 -79 0
-16 -20 -80 -85 -86 0
-21 -22 -43 -44 -91 0
-24 -45 -47 -78 -79 0
-16 -20 -81 -85 -87 0
-21 -22 -43 -44 -92 0
-24 -45 -47 -78 -79 0
-16 -20 -81 -85 -87 0
-21 -22 -43 -44 -92 0
-25 -45 -48 -78 -79 0
-16 -20 -82 -85 -88 0
-21 -22 -43 -44 -93 0
-25 -45 -48 -78 -79 0
-16 -20 -82 -85 -88 0
-21 -22 -43 -44 -93 0
-26 -45 -49 -78 -79 0
-16 -20 -83 -85 -89 0
-21 -22 -43 -44 -94 0
-26 -45 -49 -78 -79 0
-16 -20 -83 -85 -89 0
-21 -22 -43 -44 -94 0
-27 -45 -50 -78 -79 0
-16 -20 -84 -85 -90 0
-21 -22 -43 -44 -95 0
-27 -45 -50 -78 -79 0
-16 -20 -84 -85 -90 0
-21 -22 -43 -44 -95 0
-24 -46 -47 -78 -80 0
-16 -20 -81 -86 -87 0
-21 -23 -43 -44 -96 0
-24 -46 -47 -78 -80 0
-16 -20 -81 -86 -87 0
-21 -23 -43 -44 -96 0
-25 -46 -48 -78 -80 0
-16 -20 -82 -86 -88 0
-21 -23 -43 -44 -97 0
-25 -46 -48 -78 -80 0
-16 -20 -82 -86 -88 0
-21 -23 -43 -44 -97 0
-26 -46 -49 -78 -80 0
-16 -20 -83 -86 -89 0
-21 -23 -43 -44 -98 0
-26 -46 -49 -78 -80 0
-16 -20 -83 -86 -89 0
-21 -23 -43 -44 -98 0
-27 -46 -50 -78 -80 0
-16 -20 -84 -86 -90 0
-21 -23 -43 -44 -99 0
-27 -46 -50 -78 -80 0
-16 -20 -84 -86 -90 0
-21 -23 -43 -44 -99 0
-25 -47 -48 -78 -81 0
-16 -20 -82 -87 -88 0
-21 -24 -43 -44 -100 0
-25 -47 -48 -78 -81 0
-16 -20 -82 -87 -88 0
-21 -24 -43 -44 -100 0
-26 -47 -49 -78 -81 0
-16 -20 -83 -87 -89 0
-21 -24 -43 -44 -101 0
-26 -47 -49 -78 -81 0
-16 -20 -83 -87 -89 0
-21 -24 -43 -44 -101 0
-27 -47 -50 -78 -81 0
-16 -20 -84 -87 -90 0
-21 -24 -43 -44 -102 0
-27 -47 -50 -78 -81 0
-16 -20 -84 -87 -90 0
-21 -24 -43 -44 -102 0
-26 -48 -49 -78 -82 0
-16 -20 -83 -88 -89 0
-21 -25 -43 -44 -103 0
-26 -48 -49 -78 -82 0
-16 -20 -83 -88 -89 0
-21 -25 -43 -44 -103 0
-27 -48 -50 -78 -82 0
-16 -20 -84 -88 -90 0
-21 -25 -43 -44 -104 0
-27 -48 -50 -78 -82 0
-16 -20 -84 -88 -90 0
-21 -25 -43 -44 -104 0
-27 -49 -50 -78 -83 0
-16 -20 -84 -89 -90 0
-21 -26 -43 -44 -105 0
-27 -49 -50 -78 -83 0
-16 -20 -84 -89 -90 0
-21 -26 -43 -44 -105 0
-24 -46 -47 -79 -80 0
-16 -20 -81 -91 -92 0
-22 -23 -43 -45 -96 0
-24 -46 -47 -79 -80 0
-16 -20 -81 -91 -92 0
-22 -23 -43 -45 -96 0
-25 -46 -48 -79 -80 0
-16 -20 -82 -91 -93 0
-22 -23 -43 -45 -97 0
-25 -46 -48 -79 -80 0
-16 -20 -82 -91 -93 0
-22 -23 -43 -45 -97 0
-26 -46 -49 -79 -80 0
-16 -20 -83 -91 -94 0
-22 -23 -43 -45 -98 0
-26 -46 -49 -79 -80 0
-16 -20 -83 -91 -94 0
-22 -23 -43 -45 -98 0
-27 -46 -50 -79 -80 0
-16 -20 -84 -91 -95 0
-22 -23 -43 -45 -99 0
-27 -46 -50 -79 -80 0
-16 -20 -84 -91 -95 0
-22 -23 -43 -45 -99 0
-25 -47 -48 -79 -81 0
-16 -20 -82 -92 -93 0
-22 -24 -43 -45 -100 0
-25 -47 -48 -79 -81 0
-16 -20 -82 -92 -93 0
-22 -24 -43 -45 -100 0
-26 -47 -49 -79 -81 0
-16 -20 -83 -92 -94 0
-22 -24 -43 -45 -101 0
-26 -47 -49 -79 -81 0
-16 -20 -83 -92 -94 0
-22 -24 -43 -45 -101 0
-27 -47 -50 -79 -81 0
-16 -20 -84 -92 -95 0
-22 -24 -43 -45 -102 0
-27 -47 -50 -79 -81 0
-16 -20 -84 -92 -95 0
-22 -24 -43 -45 -102 0
-26 -48 -49 -79 -82 0
-16 -20 -83 -93 -94 0
-22 -25 -43 -45 -103 0
-26 -48 -49 -79 -82 0
-16 -20 -83 -93 -94 0
-22 -25 -43 -45 -103 0
-27 -48 -50 -79 -82 0
-16 -20 -84 -93 -95 0
-22 -25 -43 -45 -104 0
-27 -48 -50 -79 -82 0
-16 -20 -84 -93 -95 0
-22 -25 -43 -45 -104 0
-27 -49 -50 -79 -83 0
-16 -20 -84 -94 -95 0
-22 -26 -43 -45 -105 0
-27 -49 -50 -79 -83 0
-16 -20 -84 -94 -95 0
-22 -26 -43 -45 -105 0
-25 -47 -48 -80 -81 0
-16 -20 -82 -96 -97 0
-23 -24 -43 -46 -100 0
-25 -47 -48 -80 -81 0
-16 -20 -82 -96 -97 0
-23 -24 -43 -46 -100 0
-26 -47 -49 -80 -81 0
-16 -20 -83 -96 -98 0
-23 -24 -43 -46 -101 0
-26 -47 -49 -80 -81 0
-16 -20 -83 -96 -98 0
-23 -24 -43 -46 -101 0
-27 -47 -50 -80 -81 0
-16 -20 -84 -96 -99 0
-23 -24 -43 -46 -102 0
-27 -47 -50 -80 -81 0
-16 -20 -84 -96 -99 0
-23 -24 -43 -46 -102 0
-26 -48 -49 -80 -82 0
-16 -20 -83 -97 -98 0
-23 -25 -43 -46 -103 0
-26 -48 -49 -80 -82 0
-16 -20 -83 -97 -98 0
-23 -25 -43 -46 -103 0
-27 -48 -50 -80 -82 0
-16 -20 -84 -97 -99 0
-23 -25 -43 -46 -104 0
-27 -48 -50 -80 -82 0
-16 -20 -84 -97 -99 0
-23 -25 -43 -46 -104 0
-27 -49 -50 -80 -83 0
-16 -20 -84 -98 -99 0
-23 -26 -43 -46 -105 0
-27 -49 -50 -80 -83 0
-16 -20 -84 -98 -99 0
-23 -26 -43 -46 -105 0
-26 -48 -49 -81 -82 0
-16 -20 -83 -100 -101 0
-24 -25 -43 -47 -103 0
-26 -48 -49 -81 -82 0
-16 -20 -83 -100 -101 0
-24 -25 -43 -47 -103 0
-27 -48 -50 -81 -82 0
-16 -20 -84 -100 -102 0
-24 -25 -43 -47 -104 0
-27 -48 -50 -81 -82 0
-16 -20 -84 -100 -102 0
-24 -25 -43 -47 -104 0
-27 -49 -50 -81 -83 0
-16 -20 -84 -101 -102 0
-24 -26 -43 -47 -105 0
-27 -49 -50 -81 -83 0
-16 -20 -84 -101 -102 0
-24 -26 -43 -47 -105 0
-27 -49 -50 -82 -83 0
-16 -20 -84 -103 -104 0
-25 -26 -43 -48 -105 0
-27 -49 -50 -82 -83 0
-16 -20 -84 -103 -104 0
-25 -26 -43 -48 -105 0
-24 -46 -47 -85 -86 0
-16 -21 -87 -91 -92 0
-22 -23 -44 -45 -96 0
-24 -46 -47 -85 -86 0
-16 -21 -87 -91 -92 0
-22 -23 -44 -45 -96 0
-25 -46 -48 -85 -86 0
-16 -21 -88 -91 -93 0
-22 -23 -44 -45 -97 0
-25 -46 -48 -85 -86 0
-16 -21 -88 -91 -93 0
-22 -23 -44 -45 -97 0
-26 -46 -49 -85 -86 0
-16 -21 -89 -91 -94 0
-22 -23 -44 -45 -98 0
-26 -46 -49 -85 -86 0
-16 -21 -89 -91 -94 0
-22 -23 -44 -45 -98 0
-27 -46 -50 -85 -86 0
-16 -21 -90 -91 -95 0
-22 -23 -44 -45 -99 0
-27 -46 -50 -85 -86 0
-16 -21 -90 -91 -95 0
-22 -23 -44 -45 -99 0
-25 -47 -48 -85 -87 0
-16 -21 -88 -92 -93 0
-22 -24 -44 -45 -100 0
-25 -47 -48 -85 -87 0
-16 -21 -88 -92 -93 0
-22 -24 -44 -45 -100 0
-26 -47 -49 -85 -87 0
-16 -21 -89 -92 -94 0
-22 -24 -44 -45 -101 0
-26 -47 -49 -85 -87 0
-16 -21 -89 -92 -94 0
-22 -24 -44 -45 -101 0
-27 -47 -50 -85 -87 0
-16 -21 -90 -92 -95 0
-22 -24 -44 -45 -102 0
-27 -47 -50 -85 -87 0
-16 -21 -90 -92 -95 0
-22 -24 -44 -45 -102 0
-26 -48 -49 -85 -88 0
-16 -21 -89 -93 -94 0
-22 -25 -44 -45 -103 0
-26 -48 -49 -85 -88 0
-16 -21 -89 -93 -94 0
-22 -25 -44 -45 -103 0
-27 -48 -50 -85 -88 0
-16 -21 -90 -93 -95 0
-22 -25 -44 -45 -104 0
-27 -48 -50 -85 -88 0
-16 -21 -90 -93 -95 0
-22 -25 -44 -45 -104 0
-27 -49 -50 -85 -89 0
-16 -21 -90 -94 -95 0
-22 -26 -44 -45 -105 0
-27 -49 -50 -85 -89 0
-16 -21 -90 -94 -95 0
-22 -26 -44 -45 -105 0
-25 -47 -48 -86 -87 0
-16 -21 -88 -96 -97 0
-23 -24 -44 -46 -100 0
-25 -47 -48 -86 -87 0
-16 -21 -88 -96 -97 0
-23 -24 -44 -46 -100 0
-26 -47 -49 -86 -87 0
-16 -21 -89 -96 -98 0
-23 -24 -44 -46 -101 0
-26 -47 -49 -86 -87 0
-16 -21 -89 -96 -98 0
-23 -24 -44 -46 -101 0
-27 -47 -50 -86 -87 0
-16 -21 -90 -96 -99 0
-23 -24 -44 -46 -102 0
-27 -47 -50 -86 -87 0
-16 -21 -90 -96 -99 0
-23 -24 -44 -46 -102 0
-26 -48 -49 -86 -88 0
-16 -21 -89 -97 -98 0
-23 -25 -44 -46 -103 0
-26 -48 -49 -86 -88 0
-16 -21 -89 -97 -98 0
-23 -25 -44 -46 -103 0
-27 -48 -50 -86 -88 0
-16 -21 -90 -97 -99 0
-23 -25 -44 -46 -104 0
-27 -48 -50 -86 -88 0
-16 -21 -90 -97 -99 0
-23 -25 -44 -46 -104 0
-27 -49 -50 -86 -89 0
-16 -21 -90 -98 -99 0
-23 -26 -44 -46 -105 0
-27 -49 -50 -86 -89 0
-16 -21 -90 -98 -99 0
-23 -26 -44 -46 -105 0
-26 -48 -49 -87 -88 0
-16 -21 -89 -100 -101 0
-24 -25 -44 -47 -103 0
-26 -48 -49 -87 -88 0
-16 -21 -89 -100 -101 0
-24 -25 -44 -47 -103 0
-27 -48 -50 -87 -88 0
-16 -21 -90 -100 -102 0
-24 -25 -44 -47 -104 0
-27 -48 -50 -87 -88 0
-16 -21 -90 -100 -102 0
-24 -25 -44 -47 -104 0
-27 -49 -50 -87 -89 0
-16 -21 -90 -101 -102 0
-24 -26 -44 -47 -105 0
-27 -49 -50 -87 -89 0
-16 -21 -90 -101 -102 0
-24 -26 -44 -47 -105 0
-27 -49 -50 -88 -89 0
-16 -21 -90 -103 -104 0
-25 -26 -44 -48 -105 0
-27 -49 -50 -88 -89 0
-16 -21 -90 -103 -104 0
-25 -26 -44 -48 -105 0
-25 -47 -48 -91 -92 0
-16 -22 -93 -96 -97 0
-23 -24 -45 -46 -100 0
-25 -47 -48 -91 -92 0
-16 -22 -93 -96 -97 0
-23 -24 -45 -46 -100 0
-26 -47 -49 -91 -92 0
-16 -22 -94 -96 -98 0
-23 -24 -45 -46 -101 0
-26 -47 -49 -91 -92 0
-16 -22 -94 -96 -98 0
-23 -24 -45 -46 -101 0
-27 -47 -50 -91 -92 0
-16 -22 -95 -96 -99 0
-23 -24 -45 -46 -102 0
-27 -47 -50 -91 -92 0
-16 -22 -95 -96 -99 0
-23 -24 -45 -46 -102 0
-26 -48 -49 -91 -93 0
-16 -22 -94 -97 -98 0
-23 -25 -45 -46 -103 0
-26 -48 -49 -91 -93 0
-16 -22 -94 -97 -98 0
-23 -25 -45 -46 -103 0
-27 -48 -50 -91 -93 0
-16 -22 -95 -97 -99 0
-23 -25 -45 -46 -104 0
-27 -48 -50 -91 -93 0
-16 -22 -95 -97 -99 0
-23 -25 -45 -46 -104 0
-27 -49 -50 -91 -94 0
-16 -22 -95 -98 -99 0
-23 -26 -45 -46 -105 0
-27 -49 -50 -91 -94 0
-16 -22 -95 -98 -99 0
-23 -26 -45 -46 -105 0
-26 -48 -49 -92 -93 0
-16 -22 -94 -100 -101 0
-24 -25 -45 -47 -103 0
-26 -48 -49 -92 -93 0
-16 -22 -94 -100 -101 0
-24 -25 -45 -47 -103 0
-27 -48 -50 -92 -93 0
-16 -22 -95 -100 -102 0
-24 -25 -45 -47 -104 0
-27 -48 -50 -92 -93 0
-16 -22 -95 -100 -102 0
-24 -25 -45 -47 -104 0
-27 -49 -50 -92 -94 0
-16 -22 -95 -101 -102 0
-24 -26 -45 -47 -105 0
-27 -49 -50 -92 -94 0
-16 -22 -95 -101 -102 0
-24 -26 -45 -47 -105 0
-27 -49 -50 -93 -94 0
-16 -22 -95 -103 -104 0
-25 -26 -45 -48 -105 0
-27 -49 -50 -93 -94 0
-16 -22 -95 -103 -104 0
-25 -26 -45 -48 -105 0
-26 -48 -49 -96 -97 0
-16 -23 -98 -100 -101 0
-24 -25 -46 -47 -103 0
-26 -48 -49 -96 -97 0
-16 -23 -98 -100 -101 0
-24 -25 -46 -47 -103 0
-27 -48 -50 -96 -97 0
-16 -23 -99 -100 -102 0
-24 -25 -46 -47 -104 0
-27 -48 -50 -96 -97 0
-16 -23 -99 -100 -102 0
-24 -25 -46 -47 -104 0
-27 -49 -50 -96 -98 0
-16 -23 -99 -101 -102 0
-24 -26 -46 -47 -105 0
-27 -49 -50 -96 -98 0
-16 -23 -99 -101 -102 0
-24 -26 -46 -47 -105 0
-27 -49 -50 -97 -98 0
-16 -23 -99 -103 -104 0
-25 -26 -46 -48 -105 0
-27 -49 -50 -97 -98 0
-16 -23 -99 -103 -104 0
-25 -26 -46 -48 -105 0
-27 -49 -50 -100 -101 0
-16 -24 -102 -103 -104 0
-25 -26 -47 -48 -105 0
-27 -49 -50 -100 -101 0
-16 -24 -102 -103 -104 0
-25 -26 -47 -48 -105 0
-21 -53 -54 -61 -62 0
-17 -18 -63 -70 -71 0
-19 -20 -51 -52 -78 0
-21 -53 -54 -61 -62 0
-17 -18 -63 -70 -71 0
-19 -20 -51 -52 -78 0
-22 -53 -55 -61 -62 0
-17 -18 -64 -70 -72 0
-19 -20 -51 -52 -79 0
-22 -53 -55 -61 -62 0
-17 -18 -64 -70 -72 0
-19 -20 -51 -52 -79 0
-23 -53 -56 -61 -62 0
-17 -18 -65 -70 -73 0
-19 -20 -51 -52 -80 0
-23 -53 -56 -61 -62 0
-17 -18 -65 -70 -73 0
-19 -20 -51 -52 -80 0
-24 -53 -57 -61 -62 0
-17 -18 -66 -70 -74 0
-19 -20 -51 -52 -81 0
-24 -53 -57 -61 -62 0
-17 -18 -66 -70 -74 0
-19 -20 -51 -52 -81 0
-25 -53 -58 -61 -62 0
-17 -18 -67 -70 -75 0
-19 -20 -51 -52 -82 0
-25 -53 -58 -61 -62 0
-17 -18 -67 -70 -75 0
-19 -20 -51 -52 -82 0
-26 -53 -59 -61 -62 0
-17 -18 -68 -70 -76 0
-19 -20 -51 -52 -83 0
-26 -53 -59 -61 -62 0
-17 -18 -68 -70 -76 0
-19 -20 -51 -52 -83 0
-27 -53 -60 -61 -62 0
-17 -18 -69 -70 -77 0
-19 -20 -51 -52 -84 0
-27 -53 -60 -61 -62 0
-17 -18 -69 -70 -77 0
-19 -20 -51 -52 -84 0
-22 -54 -55 -61 -63 0
-17 -18 -64 -71 -72 0
-19 -21 -51 -52 -85 0
-22 -54 -55 -61 -63 0
-17 -18 -64 -71 -72 0
-19 -21 -51 -52 -85 0
-23 -54 -56 -61 -63 0
-17 -18 -65 -71 -73 0
-19 -21 -51 -52 -86 0
-23 -54 -56 -61 -63 0
-17 -18 -65 -71 -73 0
-19 -21 -51 -52 -86 0
-24 -54 -57 -61 -63 0
-17 -18 -66 -71 -74 0
-19 -21 -51 -52 -87 0
-24 -54 -57 -61 -63 0
-17 -18 -66 -71 -74 0
-19 -21 -51 -52 -87 0
-25 -54 -58 -61 -63 0
-17 -18 -67 -71 -75 0
-19 -21 -51 -52 -88 0
-25 -54 -58 -61 -63 0
-17 -18 -67 -71 -75 0
-19 -21 -51 -52 -88 0
-26 -54 -59 -61 -63 0
-17 -18 -68 -71 -76 0
-19 -21 -51 -52 -89 0
-26 -54 -59 -61 -63 0
-17 -18 -68 -71 -76 0
-19 -21 -51 -52 -89 0
-27 -54 -60 -61 -63 0
-17 -18 -69 -71 -77 0
-19 -21 -51 -52 -90 0
-27 -54 -60 -61 -63 0
-17 -18 -69 -71 -77 0
-19 -21 -51 -52 -90 0
-23 -55 -56 -61 -64 0
-17 -18 -65 -72 -73 0
-19 -22 -51 -52 -91 0
-23 -55 -56 -61 -64 0
-17 -18 -65 -72 -73 0
-19 -22 -51 -52 -91 0
-24 -55 -57 -61 -64 0
-17 -18 -66 -72 -74 0
-19 -22 -51 -52 -92 0
-24 -55 -57 -61 -64 0
-17 -18 -66 -72 -74 0
-19 -22 -51 -52 -92 0
-25 -55 -58 -61 -64 0
-17 -18 -67 -72 -75 0
-19 -22 -51 -52 -93 0
-25 -55 -58 -61 -64 0
-17 -18 -67 -72 -75 0
-19 -22 -51 -52 -93 0
-26 -55 -59 -61 -64 0
-17 -18 -68 -72 -76 0
-19 -22 -51 -52 -94 0
-26 -55 -59 -61 -64 0
-17 -18 -68 -72 -76 0
-19 -22 -51 -52 -94 0
-27 -55 -60 -61 -64 0
-17 -18 -69 -72 -77 0
-19 -22 -51 -52 -95 0
-27 -55 -60 -61 -64 0
-17 -18 -69 -72 -77 0
-19 -22 -51 -52 -95 0
-24 -56 -57 -61 -65 0
-17 -18 -66 -73 -74 0
-19 -23 -51 -52 -96 0
-24 -56 -57 -61 -65 0
-17 -18 -66 -73 -74 0
-19 -23 -51 -52 -96 0
-25 -56 -58 -61 -65 0
-17 -18 -67 -73 -75 0
-19 -23 -51 -52 -97 0
-25 -56 -58 -61 -65 0
-17 -18 -67 -73 -75 0
-19 -23 -51 -52 -97 0
-26 -56 -59 -61 -65 0
-17 -18 -68 -73 -76 0
-19 -23 -51 -52 -98 0
-26 -56 -59 -61 -65 0
-17 -18 -68 -73 -76 0
-19 -23 -51 -52 -98 0
-27 -56 -60 -61 -65 0
-17 -18 -69 -73 -77 0
-19 -23 -51 -52 -99 0
-27 -56 -60 -61 -65 0
-17 -18 -69 -73 -77 0
-19 -23 -51 -52 -99 0
-25 -57 -58 -61 -66 0
-17 -18 -67 -74 -75 0
-19 -24 -51 -52 -100 0
-25 -57 -58 -61 -66 0
-17 -18 -67 -74 -75 0
-19 -24 -51 -52 -100 0
-26 -57 -59 -61 -66 0
-17 -18 -68 -74 -76 0
-19 -24 -51 -52 -101 0
-26 -57 -59 -61 -66 0
-17 -18 -68 -74 -76 0
-19 -24 -51 -52 -101 0
-27 -57 -60 -61 -66 0
-17 -18 -69 -74 -77 0
-19 -24 -51 -52 -102 0
-27 -57 -60 -61 -66 0
-17 -18 -69 -74 -77 0
-19 -24 -51 -52 -102 0
-26 -58 -59 -61 -67 0
-17 -18 -68 -75 -76 0
-19 -25 -51 -52 -103 0
-26 -58 -59 -61 -67 0
-17 -18 -68 -75 -76 0
-19 -25 -51 -52 -103 0
-27 -58 -60 -61 -67 0
-17 -18 -69 -75 -77 0
-19 -25 -51 -52 -104 0
-27 -58 -60 -61 -67 0
-17 -18 -69 -75 -77 0
-19 -25 -51 -52 -104 0
-27 -59 -60 -61 -68 0
-17 -18 -69 -76 -77 0
-19 -26 -51 -52 -105 0
-27 -59 -60 -61 -68 0
-17 -18 -69 -76 -77 0
-19 -26 -51 -52 -105 0
-22 -54 -55 -62 -63 0
-17 -18 -64 -78 -79 0
-20 -21 -51 -53 -85 0
-22 -54 -55 -62 -63 0
-17 -18 -64 -78 -79 0
-20 -21 -51 -53 -85 0
-23 -54 -56 -62 -63 0
-17 -18 -65 -78 -80 0
-20 -21 -51 -53 -86 0
-23 -54 -56 -62 -63 0
-17 -18 -65 -78 -80 0
-20 -21 -51 -53 -86 0
-24 -54 -57 -62 -63 0
-17 -18 -66 -78 -81 0
-20 -21 -51 -53 -87 0
-24 -54 -57 -62 -63 0
-17 -18 -66 -78 -81 0
-20 -21 -51 -53 -87 0
-25 -54 -58 -62 -63 0
-17 -18 -67 -78 -82 0
-20 -21 -51 -53 -88 0
-25 -54 -58 -62 -63 0
-17 -18 -67 -78 -82 0
-20 -21 -51 -53 -88 0
-26 -54 -59 -62 -63 0
-17 -18 -68 -78 -83 0
-20 -21 -51 -53 -89 0
-26 -54 -59 -62 -63 0
-17 -18 -68 -78 -83 0
-20 -21 -51 -53 -89 0
-27 -54 -60 -62 -63 0
-17 -18 -69 -78 -84 0
-20 -21 -51 -53 -90 0
-27 -54 -60 -62 -63 0
-17 -18 -69 -78 -84 0
-20 -21 -51 -53 -90 0
-23 -55 -56 -62 -64 0
-17 -18 -65 -79 -80 0
-20 -22 -51 -53 -91 0
-23 -55 -56 -62 -64 0
-17 -18 -65 -79 -80 0
-20 -22 -51 -53 -91 0
-24 -55 -57 -62 -64 0
-17 -18 -66 -79 -81 0
-20 -22 -51 -53 -92 0
-24 -55 -57 -62 -64 0
-17 -18 -66 -79 -81 0
-20 -22 -51 -53 -92 0
-25 -55 -58 -62 -64 0
-17 -18 -67 -79 -82 0
-20 -22 -51 -53 -93 0
-25 -55 -58 -62 -64 0
-17 -18 -67 -79 -82 0
-20 -22 -51 -53 -93 0
-26 -55 -59 -62 -64 0
-17 -18 -68 -79 -83 0
-20 -22 -51 -53 -94 0
-26 -55 -59 -62 -64 0
-17 -18 -68 -79 -83 0
-20 -22 -51 -53 -94 0
-27 -55 -60 -62 -64 0
-17 -18 -69 -79 -84 0
-20 -22 -51 -53 -95 0
-27 -55 -60 -62 -64 0
-17 -18 -69 -79 -84 0
-20 -22 -51 -53 -95 0
-24 -56 -57 -62 -65 0
-17 -18 -66 -80 -81 0
-20 -23 -51 -53 -96 0
-24 -56 -57 -62 -65 0
-17 -18 -66 -80 -81 0
-20 -23 -51 -53 -96 0
-25 -56 -58 -62 -65 0
-17 -18 -67 -80 -82 0
-20 -23 -51 -53 -97 0
-25 -56 -58 -62 -65 0
-17 -18 -67 -80 -82 0
-20 -23 -51 -53 -97 0
-26 -56 -59 -62 -65 0
-17 -18 -68 -80 -83 0
-20 -23 -51 -53 -98 0
-26 -56 -59 -62 -65 0
-17 -18 -68 -80 -83 0
-20 -23 -51 -53 -98 0
-27 -56 -60 -62 -65 0
-17 -18 -69 -80 -84 0
-20 -23 -51 -53 -99 0
-27 -56 -60 -62 -65 0
-17 -18 -69 -80 -84 0
-20 -23 -51 -53 -99 0
-25 -57 -58 -62 -66 0
-17 -18 -67 -81 -82 0
-20 -24 -51 -53 -100 0
-25 -57 -58 -62 -66 0
-17 -18 -67 -81 -82 0
-20 -24 -51 -53 -100 0
-26 -57 -59 -62 -66 0
-17 -18 -68 -81 -83 0
-20 -24 -51 -53 -101 0
-26 -57 -59 -62 -66 0
-17 -18 -68 -81 -83 0
-20 -24 -51 -53 -101 0
-27 -57 -60 -62 -66 0
-17 -18 -69 -81 -84 0
-20 -24 -51 -53 -102 0
-27 -57 -60 -62 -66 0
-17 -18 -69 -81 -84 0
-20 -24 -51 -53 -102 0
-26 -58 -59 -62 -67 0
-17 -18 -68 -82 -83 0
-20 -25 -51 -53 -103 0
-26 -58 -59 -62 -67 0
-17 -18 -68 -82 -83 0
-20 -25 -51 -53 -103 0
-27 -58 -60 -62 -67 0
-17 -18 -69 -82 -84 0
-20 -25 -51 -53 -104 0
-27 -58 -60 -62 -67 0
-17 -18 -69 -82 -84 0
-20 -25 -51 -53 -104 0
-27 -59 -60 -62 -68 0
-17 -18 -69 -83 -84 0
-20 -26 -51 -53 -105 0
-27 -59 -60 -62 -68 0
-17 -18 -69 -83 -84 0
-20 -26 -51 -53 -105 0
-23 -55 -56 -63 -64 0
-17 -18 -65 -85 -86 0
-21 -22 -51 -54 -91 0
-23 -55 -56 -63 -64 0
-17 -18 -65 -85 -86 0
-21 -22 -51 -54 -91 0
-24 -55 -57 -63 -64 0
-17 -18 -66 -85 -87 0
-21 -22 -51 -54 -92 0
-24 -55 -57 -63 -64 0
-17 -18 -66 -85 -87 0
-21 -22 -51 -54 -92 0
-25 -55 -58 -63 -64 0
-17 -18 -67 -85 -88 0
-21 -22 -51 -54 -93 0
-25 -55 -58 -63 -64 0
-17 -18 -67 -85 -88 0
-21 -22 -51 -54 -93 0
-26 -55 -59 -63 -64 0
-17 -18 -68 -85 -89 0
-21 -22 -51 -54 -94 0
-26 -55 -59 -63 -64 0
-17 -18 -68 -85 -89 0
-21 -22 -51 -54 -94 0
-27 -55 -60 -63 -64 0
-17 -18 -69 -85 -90 0
-21 -22 -51 -54 -95 0
-27 -55 -60 -63 -64 0
-17 -18 -69 -85 -90 0
-21 -22 -51 -54 -95 0
-24 -56 -57 -63 -65 0
-17 -18 -66 -86 -87 0
-21 -23 -51 -54 -96 0
-24 -56 -57 -63 -65 0
-17 -18 -66 -86 -87 0
-21 -23 -51 -54 -96 0
-25 -56 -58 -63 -65 0
-17 -18 -67 -86 -88 0
-21 -23 -51 -54 -97 0
-25 -56 -58 -63 -65 0
-17 -18 -67 -86 -88 0
-21 -23 -51 -54 -97 0
-26 -56 -59 -63 -65 0
-17 -18 -68 -86 -89 0
-21 -23 -51 -54 -98 0
-26 -56 -59 -63 -65 0
-17 -18 -68 -86 -89 0
-21 -23 -51 -54 -98 0
-27 -56 -60 -63 -65 0
-17 -18 -69 -86 -90 0
-21 -23 -51 -54 -99 0
-27 -56 -60 -63 -65 0
-17 -18 -69 -86 -90 0
-21 -23 -51 -54 -99 0
-25 -57 -58 -63 -66 0
-17 -18 -67 -87 -88 0
-21 -24 -51 -54 -100 0
-25 -57 -58 -63 -66 0
-17 -18 -67 -87 -88 0
-21 -24 -51 -54 -100 0
-26 -57 -59 -63 -66 0
-17 -18 -68 -87 -89 0
-21 -24 -51 -54 -101 0
-26 -57 -59 -63 -66 0
-17 -18 -68 -87 -89 0
-21 -24 -51 -54 -101 0
-27 -57 -60 -63 -66 0
-17 -18 -69 -87 -90 0
-21 -24 -51 -54 -102 0
-27 -57 -60 -63 -66 0
-17 -18 -69 -87 -90 0
-21 -24 -51 -54 -102 0
-26 -58 -59 -63 -67 0
-17 -18 -68 -88 -89 0
-21 -25 -51 -54 -103 0
-26 -58 -59 -63 -67 0
-17 -18 -68 -88 -89 0
-21 -25 -51 -54 -103 0
-27 -58 -60 -63 -67 0
-17 -18 -69 -88 -90 0
-21 -25 -51 -54 -104 0
-27 -58 -60 -63 -67 0
-17 -18 -69 -88 -90 0
-21 -25 -51 -54 -104 0
-27 -59 -60 -63 -68 0
-17 -18 -69 -89 -90 0
-21 -26 -51 -54 -105 0
-27 -59 -60 -63 -68 0
-17 -18 -69 -89 -90 0
-21 -26 -51 -54 -105 0
-24 -56 -57 -64 -65 0
-17 -18 -66 -91 -92 0
-22 -23 -51 -55 -96 0
-24 -56 -57 -64 -65 0
-17 -18 -66 -91 -92 0
-22 -23 -51 -55 -96 0
-25 -56 -58 -64 -65 0
-17 -18 -67 -91 -93 0
-22 -23 -51 -55 -97 0
-25 -56 -58 -64 -65 0
-17 -18 -67 -91 -93 0
-22 -23 -51 -55 -97 0
-26 -56 -59 -64 -65 0
-17 -18 -68 -91 -94 0
-22 -23 -51 -55 -98 0
-26 -56 -59 -64 -65 0
-17 -18 -68 -91 -94 0
-22 -23 -51 -55 -98 0
-27 -56 -60 -64 -65 0
-17 -18 -69 -91 -95 0
-22 -23 -51 -55 -99 0
-27 -56 -60 -64 -65 0
-17 -18 -69 -91 -95 0
-22 -23 -51 -55 -99 0
-25 -57 -58 -64 -66 0
-17 -18 -67 -92 -93 0
-22 -24 -51 -55 -100 0
-25 -57 -58 -64 -66 0
-17 -18 -67 -92 -93 0
-22 -24 -51 -55 -100 0
-26 -57 -59 -64 -66 0
-17 -18 -68 -92 -94 0
-22 -24 -51 -55 -101 0
-26 -57 -59 -64 -66 0
-17 -18 -68 -92 -94 0
-22 -24 -51 -55 -101 0
-27 -57 -60 -64 -66 0
-17 -18 -69 -92 -95 0
-22 -24 -51 -55 -102 0
-27 -57 -60 -64 -66 0
-17 -18 -69 -92 -95 0
-22 -24 -51 -55 -102 0
-26 -58 -59 -64 -67 0
-17 -18 -68 -93 -94 0
-22 -25 -51 -55 -103 0
-26 -58 -59 -64 -67 0
-17 -18 -68 -93 -94 0
-22 -25 -51 -55 -103 0
-27 -58 -60 -64 -67 0
-17 -18 -69 -93 -95 0
-22 -25 -51 -55 -104 0
-27 -58 -60 -64 -67 0
-17 -18 -69 -93 -95 0
-22 -25 -51 -55 -104 0
-27 -59 -60 -64 -68 0
-17 -18 -69 -94 -95 0
-22 -26 -51 -55 -105 0
-27 -59 -60 -64 -68 0
-17 -18 -69 -94 -95 0
-22 -26 -51 -55 -105 0
-25 -57 -58 -65 -66 0
-17 -18 -67 -96 -97 0
-23 -24 -51 -56 -100 0
-25 -57 -58 -65 -66 0
-17 -18 -67 -96 -97 0
-23 -24 -51 -56 -100 0
-26 -57 -59 -65 -66 0
-17 -18 -68 -96 -98 0
-23 -24 -51 -56 -101 0
-26 -57 -59 -65 -66 0
-17 -18 -68 -96 -98 0
-23 -24 -51 -56 -101 0
-27 -57 -60 -65 -66 0
-17 -18 -69 -96 -99 0
-23 -24 -51 -56 -102 0
-27 -57 -60 -65 -66 0
-17 -18 -69 -96 -99 0
-23 -24 -51 -56 -102 0
-26 -58 -59 -65 -67 0
-17 -18 -68 -97 -98 0
-23 -25 -51 -56 -103 0
-26 -58 -59 -65 -67 0
-17 -18 -68 -97 -98 0
-23 -25 -51 -56 -103 0
-27 -58 -60 -65 -67 0
-17 -18 -69 -97 -99 0
-23 -25 -51 -56 -104 0
-27 -58 -60 -65 -67 0
-17 -18 -69 -97 -99 0
-23 -25 -51 -56 -104 0
-27 -59 -60 -65 -68 0
-17 -18 -69 -98 -99 0
-23 -26 -51 -56 -105 0
-27 -59 -60 -65 -68 0
-17 -18 -69 -98 -99 0
-23 -26 -51 -56 -105 0
-26 -58 -59 -66 -67 0
-17 -18 -68 -100 -101 0
-24 -25 -51 -57 -103 0
-26 -58 -59 -66 -67 0
-17 -18 -68 -100 -101 0
-24 -25 -51 -57 -103 0
-27 -58 -60 -66 -67 0
-17 -18 -69 -100 -102 0
-24 -25 -51 -57 -104 0
-27 -58 -60 -66 -67 0
-17 -18 -69 -100 -102 0
-24 -25 -51 -57 -104 0
-27 -59 -60 -66 -68 0
-17 -18 -69 -101 -102 0
-24 -26 -51 -57 -105 0
-27 -59 -60 -66 -68 0
-17 -18 -69 -101 -102 0
-24 -26 -51 -57 -105 0
-27 -59 -60 -67 -68 0
-17 -18 -69 -103 -104 0
-25 -26 -51 -58 -105 0
-27 -59 -60 -67 -68 0
-17 -18 -69 -103 -104 0
-25 -26 -51 -58 -105 0
-22 -54 -55 -70 -71 0
-17 -19 -72 -78 -79 0
-20 -21 -52 -53 -85 0
-22 -54 -55 -70 -71 0
-17 -19 -72 -78 -79 0
-20 -21 -52 -53 -85 0
-23 -54 -56 -70 -71 0
-17 -19 -73 -78 -80 0
-20 -21 -52 -53 -86 0
-23 -54 -56 -70 -71 0
-17 -19 -73 -78 -80 0
-20 -21 -52 -53 -86 0
-24 -54 -57 -70 -71 0
-17 -19 -74 -78 -81 0
-20 -21 -52 -53 -87 0
-24 -54 -57 -70 -71 0
-17 -19 -74 -78 -81 0
-20 -21 -52 -53 -87 0
-25 -54 -58 -70 -71 0
-17 -19 -75 -78 -82 0
-20 -21 -52 -53 -88 0
-25 -54 -58 -70 -71 0
-17 -19 -75 -78 -82 0
-20 -21 -52 -53 -88 0
-26 -54 -59 -70 -71 0
-17 -19 -76 -78 -83 0
-20 -21 -52 -53 -89 0
-26 -54 -59 -70 -71 0
-17 -19 -76 -78 -83 0
-20 -21 -52 -53 -89 0
-27 -54 -60 -70 -71 0
-17 -19 -77 -78 -84 0
-20 -21 -52 -53 -90 0
-27 -54 -60 -70 -71 0
-17 -19 -77 -78 -84 0
-20 -21 -52 -53 -90 0
-23 -55 -56 -70 -72 0
-17 -19 -73 -79 -80 0
-20 -22 -52 -53 -91 0
-23 -55 -56 -70 -72 0
-17 -19 -73 -79 -80 0
-20 -22 -52 -53 -91 0
-24 -55 -57 -70 -72 0
-17 -19 -74 -79 -81 0
-20 -22 -52 -53 -92 0
-24 -55 -57 -70 -72 0
-17 -19 -74 -79 -81 0
-20 -22 -52 -53 -92 0
-25 -55 -58 -70 -72 0
-17 -19 -75 -79 -82 0
-20 -22 -52 -53 -93 0
-25 -55 -58 -70 -72 0
-17 -19 -75 -79 -82 0
-20 -22 -52 -53 -93 0
-26 -55 -59 -70 -72 0
-17 -19 -76 -79 -83 0
-20 -22 -52 -53 -94 0
-26 -55 -59 -70 -72 0
-17 -19 -76 -79 -83 0
-20 -22 -52 -53 -94 0
-27 -55 -60 -70 -72 0
-17 -19 -77 -79 -84 0
-20 -22 -52 -53 -95 0
-27 -55 -60 -70 -72 0
-17 -19 -77 -79 -84 0
-20 -22 -52 -53 -95 0
-24 -56 -57 -70 -73 0
-17 -19 -74 -80 -81 0
-20 -23 -52 -53 -96 0
-24 -56 -57 -70 -73 0
-17 -19 -74 -80 -81 0
-20 -23 -52 -53 -96 0
-25 -56 -58 -70 -73 0
-17 -19 -75 -80 -82 0
-20 -23 -52 -53 -97 0
-25 -56 -58 -70 -73 0
-17 -19 -75 -80 -82 0
-20 -23 -52 -53 -97 0
-26 -56 -59 -70 -73 0
-17 -19 -76 -80 -83 0
-20 -23 -52 -53 -98 0
-26 -56 -59 -70 -73 0
-17 -19 -76 -80 -83 0
-20 -23 -52 -53 -98 0
-27 -56 -60 -70 -73 0
-17 -19 -77 -80 -84 0
-20 -23 -52 -53 -99 0
-27 -56 -60 -70 -73 0
-17 -19 -77 -80 -84 0
-20 -23 -52 -53 -99 0
-25 -57 -58 -70 -74 0
-17 -19 -75 -81 -82 0
-20 -24 -52 -53 -100 0
-25 -57 -58 -70 -74 0
-17 -19 -75 -81 -82 0
-20 -24 -52 -53 -100 0
-26 -57 -59 -70 -74 0
-17 -19 -76 -81 -83 0
-20 -24 -52 -53 -101 0
-26 -57 -59 -70 -74 0
-17 -19 -76 -81 -83 0
-20 -24 -52 -53 -101 0
-27 -57 -60 -70 -74 0
-17 -19 -77 -81 -84 0
-20 -24 -52 -53 -102 0
-27 -57 -60 -70 -74 0
-17 -19 -77 -81 -84 0
-20 -24 -52 -53 -102 0
-26 -58 -59 -70 -75 0
-17 -19 -76 -82 -83 0
-20 -25 -52 -53 -103 0
-26 -58 -59 -70 -75 0
-17 -19 -76 -82 -83 0
-20 -25 -52 -53 -103 0
-27 -58 -60 -70 -75 0
-17 -19 -77 -82 -84 0
-20 -25 -52 -53 -104 0
-27 -58 -60 -70 -75 0
-17 -19 -77 -82 -84 0
-20 -25 -52 -53 -104 0
-27 -59 -60 -70 -76 0
-17 -19 -77 -83 -84 0
-20 -26 -52 -53 -105 0
-27 -59 -60 -70 -76 0
-17 -19 -77 -83 -84 0
-20 -26 -52 -53 -105 0
-23 -55 -56 -71 -72 0
-17 -19 -73 -85 -86 0
-21 -22 -52 -54 -91 0
-23 -55 -56 -71 -72 0
-17 -19 -73 -85 -86 0
-21 -22 -52 -54 -91 0
-24 -55 -57 -71 -72 0
-17 -19 -74 -85 -87 0
-21 -22 -52 -54 -92 0
-24 -55 -57 -71 -72 0
-17 -19 -74 -85 -87 0
-21 -22 -52 -54 -92 0
-25 -55 -58 -71 -72 0
-17 -19 -75 -85 -88 0
-21 -22 -52 -54 -93 0
-25 -55 -58 -71 -72 0
-17 -19 -75 -85 -88 0
-21 -22 -52 -54 -93 0
-26 -55 -59 -71 -72 0
-17 -19 -76 -85 -89 0
-21 -22 -52 -54 -94 0
-26 -55 -59 -71 -72 0
-17 -19 -76 -85 -89 0
-21 -22 -52 -54 -94 0
-27 -55 -60 -71 -72 0
-17 -19 -77 -85 -90 0
-21 -22 -52 -54 -95 0
-27 -55 -60 -71 -72 0
-17 -19 -77 -85 -90 0
-21 -22 -52 -54 -95 0
-24 -56 -57 -71 -73 0
-17 -19 -74 -86 -87 0
-21 -23 -52 -54 -96 0
-24 -56 -57 -71 -73 0
-17 -19 -74 -86 -87 0
-21 -23 -52 -54 -96 0
-25 -56 -58 -71 -73 0
-17 -19 -75 -86 -88 0
-21 -23 -52 -54 -97 0
-25 -56 -58 -71 -73 0
-17 -19 -75 -86 -88 0
-21 -23 -52 -54 -97 0
-26 -56 -59 -71 -73 0
-17 -19 -76 -86 -89 0
-21 -23 -52 -54 -98 0
-26 -56 -59 -71 -73 0
-17 -19 -76 -86 -89 0
-21 -23 -52 -54 -98 0
-27 -56 -60 -71 -73 0
-17 -19 -77 -86 -90 0
-21 -23 -52 -54 -99 0
-27 -56 -60 -71 -73 0
-17 -19 -77 -86 -90 0
-21 -23 -52 -54 -99 0
-25 -57 -58 -71 -74 0
-17 -19 -75 -87 -88 0
-21 -24 -52 -54 -100 0
-25 -57 -58 -71 -74 0
-17 -19 -75 -87 -88 0
-21 -24 -52 -54 -100 0
-26 -57 -59 -71 -74 0
-17 -19 -76 -87 -89 0
-21 -24 -52 -54 -101 0
-26 -57 -59 -71 -74 0
-17 -19 -76 -87 -89 0
-21 -24 -52 -54 -101 0
-27 -57 -60 -71 -74 0
-17 -19 -77 -87 -90 0
-21 -24 -52 -54 -102 0
-27 -57 -60 -71 -74 0
-17 -19 -77 -87 -90 0
-21 -24 -52 -54 -102 0
-26 -58 -59 -71 -75 0
-17 -19 -76 -88 -89 0
-21 -25 -52 -54 -103 0
-26 -58 -59 -71 -75 0
-17 -19 -76 -88 -89 0
-21 -25 -52 -54 -103 0
-27 -58 -60 -71 -75 0
-17 -19 -77 -88 -90 0
-21 -25 -52 -54 -104 0
-27 -58 -60 -71 -75 0
-17 -19 -77 -88 -90 0
-21 -25 -52 -54 -104 0
-27 -59 -60 -71 -76 0
-17 -19 -77 -89 -90 0
-21 -26 -52 -54 -105 0
-27 -59 -60 -71 -76 0
-17 -19 -77 -89 -90 0
-21 -26 -52 -54 -105 0
-24 -56 -57 -72 -73 0
-17 -19 -74 -91 -92 0
-22 -23 -52 -55 -96 0
-24 -56 -57 -72 -73 0
-17 -19 -74 -91 -92 0
-22 -23 -52 -55 -96 0
-25 -56 -58 -72 -73 0
-17 -19 -75 -91 -93 0
-22 -23 -52 -55 -97 0
-25 -56 -58 -72 -73 0
-17 -19 -75 -91 -93 0
-22 -23 -52 -55 -97 0
-26 -56 -59 -72 -73 0
-17 -19 -76 -91 -94 0
-22 -23 -52 -55 -98 0
-26 -56 -59 -72 -73 0
-17 -19 -76 -91 -94 0
-22 -23 -52 -55 -98 0
-27 -56 -60 -72 -73 0
-17 -19 -77 -91 -95 0
-22 -23 -52 -55 -99 0
-27 -56 -60 -72 -73 0
-17 -19 -77 -91 -95 0
-22 -23 -52 -55 -99 0
-25 -57 -58 -72 -74 0
-17 -19 -75 -92 -93 0
-22 -24 -52 -55 -100 0
-25 -57 -58 -72 -74 0
-17 -19 -75 -92 -93 0
-22 -24 -52 -55 -100 0
-26 -57 -59 -72 -74 0
-17 -19 -76 -92 -94 0
-22 -24 -52 -55 -101 0
-26 -57 -59 -72 -74 0
-17 -19 -76 -92 -94 0
-22 -24 -52 -55 -101 0
-27 -57 -60 -72 -74 0
-17 -19 -77 -92 -95 0
-22 -24 -52 -55 -102 0
-27 -57 -60 -72 -74 0
-17 -19 -77 -92 -95 0
-22 -24 -52 -55 -102 0
-26 -58 -59 -72 -75 0
-17 -19 -76 -93 -94 0
-22 -25 -52 -55 -103 0
-26 -58 -59 -72 -75 0
-17 -19 -76 -93 -94 0
-22 -25 -52 -55 -103 0
-27 -58 -60 -72 -75 0
-17 -19 -77 -93 -95 0
-22 -25 -52 -55 -104 0
-27 -58 -60 -72 -75 0
-17 -19 -77 -93 -95 0
-22 -25 -52 -55 -104 0
-27 -59 -60 -72 -76 0
-17 -19 -77 -94 -95 0
-22 -26 -52 -55 -105 0
-27 -59 -60 -72 -76 0
-17 -19 -77 -94 -95 0
-22 -26 -52 -55 -105 0
-25 -57 -58 -73 -74 0
-17 -19 -75 -96 -97 0
-23 -24 -52 -56 -100 0
-25 -57 -58 -73 -74 0
-17 -19 -75 -96 -97 0
-23 -24 -52 -56 -100 0
-26 -57 -59 -73 -74 0
-17 -19 -76 -96 -98 0
-23 -24 -52 -56 -101 0
-26 -57 -59 -73 -74 0
-17 -19 -76 -96 -98 0
-23 -24 -52 -56 -101 0
-27 -57 -60 -73 -74 0
-17 -19 -77 -96 -99 0
-23 -24 -52 -56 -102 0
-27 -57 -60 -73 -74 0
-17 -19 -77 -96 -99 0
-23 -24 -52 -56 -102 0
-26 -58 -59 -73 -75 0
-17 -19 -76 -97 -98 0
-23 -25 -52 -56 -103 0
-26 -58 -59 -73 -75 0
-17 -19 -76 -97 -98 0
-23 -25 -52 -56 -103 0
-27 -58 -60 -73 -75 0
-17 -19 -77 -97 -99 0
-23 -25 -52 -56 -104 0
-27 -58 -60 -73 -75 0
-17 -19 -77 -97 -99 0
-23 -25 -52 -56 -104 0
-27 -59 -60 -73 -76 0
-17 -19 -77 -98 -99 0
-23 -26 -52 -56 -105 0
-27 -59 -60 -73 -76 0
-17 -19 -77 -98 -99 0
-23 -26 -52 -56 -105 0
-26 -58 -59 -74 -75 0
-17 -19 -76 -100 -101 0
-24 -25 -52 -57 -103 0
-26 -58 -59 -74 -75 0
-17 -19 -76 -100 -101 0
-24 -25 -52 -57 -103 0
-27 -58 -60 -74 -75 0
-17 -19 -77 -100 -102 0
-24 -25 -52 -57 -104 0
-27 -58 -60 -74 -75 0
-17 -19 -77 -100 -102 0
-24 -25 -52 -57 -104 0
-27 -59 -60 -74 -76 0
-17 -19 -77 -101 -102 0
-24 -26 -52 -57 -105 0
-27 -59 -60 -74 -76 0
-17 -19 -77 -101 -102 0
-24 -26 -52 -57 -105 0
-27 -59 -60 -75 -76 0
-17 -19 -77 -103 -104 0
-25 -26 -52 -58 -105 0
-27 -59 -60 -75 -76 0
-17 -19 -77 -103 -104 0
-25 -26 -52 -58 -105 0
-23 -55 -56 -78 -79 0
-17 -20 -80 -85 -86 0
-21 -22 -53 -54 -91 0
-23 -55 -56 -78 -79 0
-17 -20 -80 -85 -86 0
-21 -22 -53 -54 -91 0
-24 -55 -57 -78 -79 0
-17 -20 -81 -85 -87 0
-21 -22 -53 -54 -92 0
-24 -55 -57 -78 -79 0
-17 -20 -81 -85 -87 0
-21 -22 -53 -54 -92 0
-25 -55 -58 -78 -79 0
-17 -20 -82 -85 -88 0
-21 -22 -53 -54 -93 0
-25 -55 -58 -78 -79 0
-17 -20 -82 -85 -88 0
-21 -22 -53 -54 -93 0
-26 -55 -59 -78 -79 0
-17 -20 -83 -85 -89 0
-21 -22 -53 -54 -94 0
-26 -55 -59 -78 -79 0
-17 -20 -83 -85 -89 0
-21 -22 -53 -54 -94 0
-27 -55 -60 -78 -79 0
-17 -20 -84 -85 -90 0
-21 -22 -53 -54 -95 0
-27 -55 -60 -78 -79 0
-17 -20 -84 -85 -90 0
-21 -22 -53 -54 -95 0
-24 -56 -57 -78 -80 0
-17 -20 -81 -86 -87 0
-21 -23 -53 -54 -96 0
-24 -56 -57 -78 -80 0
-17 -20 -81 -86 -87 0
-21 -23 -53 -54 -96 0
-25 -56 -58 -78 -80 0
-17 -20 -82 -86 -88 0
-21 -23 -53 -54 -97 0
-25 -56 -58 -78 -80 0
-17 -20 -82 -86 -88 0
-21 -23 -53 -54 -97 0
-26 -56 -59 -78 -80 0
-17 -20 -83 -86 -89 0
-21 -23 -53 -54 -98 0
-26 -56 -59 -78 -80 0
-17 -20 -83 -86 -89 0
-21 -23 -53 -54 -98 0
-27 -56 -60 -78 -80 0
-17 -20 -84 -86 -90 0
-21 -23 -53 -54 -99 0
-27 -56 -60 -78 -80 0
-17 -20 -84 -86 -90 0
-21 -23 -53 -54 -99 0
-25 -57 -58 -78 -81 0
-17 -20 -82 -87 -88 0
-21 -24 -53 -54 -100 0
-25 -57 -58 -78 -81 0
-17 -20 -82 -87 -88 0
-21 -24 -53 -54 -100 0
-26 -57 -59 -78 -81 0
-17 -20 -83 -87 -89 0
-21 -24 -53 -54 -101 0
-26 -57 -59 -78 -81 0
-17 -20 -83 -87 -89 0
-21 -24 -53 -54 -101 0
-27 -57 -60 -78 -81 0
-17 -20 -84 -87 -90 0
-21 -24 -53 -54 -102 0
-27 -57 -60 -78 -81 0
-17 -20 -84 -87 -90 0
-21 -24 -53 -54 -102 0
-26 -58 -59 -78 -82 0
-17 -20 -83 -88 -89 0
-21 -25 -53 -54 -103 0
-26 -58 -59 -78 -82 0
-17 -20 -83 -88 -89 0
-21 -25 -53 -54 -103 0
-27 -58 -60 -78 -82 0
-17 -20 -84 -88 -90 0
-21 -25 -53 -54 -104 0
-27 -58 -60 -78 -82 0
-17 -20 -84 -88 -90 0
-21 -25 -53 -54 -104 0
-27 -59 -60 -78 -83 0
-17 -20 -84 -89 -90 0
-21 -26 -53 -54 -105 0
-27 -59 -60 -78 -83 0
-17 -20 -84 -89 -90 0
-21 -26 -53 -54 -105 0
-24 -56 -57 -79 -80 0
-17 -20 -81 -91 -92 0
-22 -23 -53 -55 -96 0
-24 -56 -57 -79 -80 0
-17 -20 -81 -91 -92 0
-22 -23 -53 -55 -96 0
-25 -56 -58 -79 -80 0
-17 -20 -82 -91 -93 0
-22 -23 -53 -55 -97 0
-25 -56 -58 -79 -80 0
-17 -20 -82 -91 -93 0
-22 -23 -53 -55 -97 0
-26 -56 -59 -79 -80 0
-17 -20 -83 -91 -94 0
-22 -23 -53 -55 -98 0
-26 -56 -59 -79 -80 0
-17 -20 -83 -91 -94 0
-22 -23 -53 -55 -98 0
-27 -56 -60 -79 -80 0
-17 -20 -84 -91 -95 0
-22 -23 -53 -55 -99 0
-27 -56 -60 -79 -80 0
-17 -20 -84 -91 -95 0
-22 -23 -53 -55 -99 0
-25 -57 -58 -79 -81 0
-17 -20 -82 -92 -93 0
-22 -24 -53 -55 -100 0
-25 -57 -58 -79 -81 0
-17 -20 -82 -92 -93 0
-22 -24 -53 -55 -100 0
-26 -57 -59 -79 -81 0
-17 -20 -83 -92 -94 0
-22 -24 -53 -55 -101 0
-26 -57 -59 -79 -81 0
-17 -20 -83 -92 -94 0
-22 -24 -53 -55 -101 0
-27 -57 -60 -79 -81 0
-17 -20 -84 -92 -95 0
-22 -24 -53 -55 -102 0
-27 -57 -60 -79 -81 0
-17 -20 -84 -92 -95 0
-22 -24 -53 -55 -102 0
-26 -58 -59 -79 -82 0
-17 -20 -83 -93 -94 0
-22 -25 -53 -55 -103 0
-26 -58 -59 -79 -82 0
-17 -20 -83 -93 -94 0
-22 -25 -53 -55 -103 0
-27 -58 -60 -79 -82 0
-17 -20 -84 -93 -95 0
-22 -25 -53 -55 -104 0
-27 -58 -60 -79 -82 0
-17 -20 -84 -93 -95 0
-22 -25 -53 -55 -104 0
-27 -59 -60 -79 -83 0
-17 -20 -84 -94 -95 0
-22 -26 -53 -55 -105 0
-27 -59 -60 -79 -83 0
-17 -20 -84 -94 -95 0
-22 -26 -53 -55 -105 0
-25 -57 -58 -80 -81 0
-17 -20 -82 -96 -97 0
-23 -24 -53 -56 -100 0
-25 -57 -58 -80 -81 0
-17 -20 -82 -96 -97 0
-23 -24 -53 -56 -100 0
-26 -57 -59 -80 -81 0
-17 -20 -83 -96 -98 0
-23 -24 -53 -56 -101 0
-26 -57 -59 -80 -81 0
-17 -20 -83 -96 -98 0
-23 -24 -53 -56 -101 0
-27 -57 -60 -80 -81 0
-17 -20 -84 -96 -99 0
-23 -24 -53 -56 -102 0
-27 -57 -60 -80 -81 0
-17 -20 -84 -96 -99 0
-23 -24 -53 -56 -102 0
-26 -58 -59 -80 -82 0
-17 -20 -83 -97 -98 0
-23 -25 -53 -56 -103 0
-26 -58 -59 -80 -82 0
-17 -20 -83 -97 -98 0
-23 -25 -53 -56 -103 0
-27 -58 -60 -80 -82 0
-17 -20 -84 -97 -99 0
-23 -25 -53 -56 -104 0
-27 -58 -60 -80 -82 0
-17 -20 -84 -97 -99 0
-23 -25 -53 -56 -104 0
-27 -59 -60 -80 -83 0
-17 -20 -84 -98 -99 0
-23 -26 -53 -56 -105 0
-27 -59 -60 -80 -83 0
-17 -20 -84 -98 -99 0
-23 -26 -53 -56 -105 0
-26 -58 -59 -81 -82 0
-17 -20 -83 -100 -101 0
-24 -25 -53 -57 -103 0
-26 -58 -59 -81 -82 0
-17 -20 -83 -100 -101 0
-24 -25 -53 -57 -103 0
-27 -58 -60 -81 -82 0
-17 -20 -84 -100 -102 0
-24 -25 -53 -57 -104 0
-27 -58 -60 -81 -82 0
-17 -20 -84 -100 -102 0
-24 -25 -53 -57 -104 0
-27 -59 -60 -81 -83 0
-17 -20 -84 -101 -102 0
-24 -26 -53 -57 -105 0
-27 -59 -60 -81 -83 0
-17 -20 -84 -101 -102 0
-24 -26 -53 -57 -105 0
-27 -59 -60 -82 -83 0
-17 -20 -84 -103 -104 0
-25 -26 -53 -58 -105 0
-27 -59 -60 -82 -83 0
-17 -20 -84 -103 -104 0
-25 -26 -53 -58 -105 0
-24 -56 -57 -85 -86 0
-17 -21 -87 -91 -92 0
-22 -23 -54 -55 -96 0
-24 -56 -57 -85 -86 0
-17 -21 -87 -91 -92 0
-22 -23 -54 -55 -96 0
-25 -56 -58 -85 -86 0
-17 -21 -88 -91 -93 0
-22 -23 -54 -55 -97 0
-25 -56 -58 -85 -86 0
-17 -21 -88 -91 -93 0
-22 -23 -54 -55 -97 0
-26 -56 -59 -85 -86 0
-17 -21 -89 -91 -94 0
-22 -23 -54 -55 -98 0
-26 -56 -59 -85 -86 0
-17 -21 -89 -91 -94 0
-22 -23 -54 -55 -98 0
-27 -56 -60 -85 -86 0
-17 -21 -90 -91 -95 0
-22 -23 -54 -55 -99 0
-27 -56 -60 -85 -86 0
-17 -21 -90 -91 -95 0
-22 -23 -54 -55 -99 0
-25 -57 -58 -85 -87 0
-17 -21 -88 -92 -93 0
-22 -24 -54 -55 -100 0
-25 -57 -58 -85 -87 0
-17 -21 -88 -92 -93 0
-22 -24 -54 -55 -100 0
-26 -57 -59 -85 -87 0
-17 -21 -89 -92 -94 0
-22 -24 -54 -55 -101 0
-26 -57 -59 -85 -87 0
-17 -21 -89 -92 -94 0
-22 -24 -54 -55 -101 0
-27 -57 -60 -85 -87 0
-17 -21 -90 -92 -95 0
-22 -24 -54 -55 -102 0
-27 -57 -60 -85 -87 0
-17 -21 -90 -92 -95 0
-22 -24 -54 -55 -102 0
-26 -58 -59 -85 -88 0
-17 -21 -89 -93 -94 0
-22 -25 -54 -55 -103 0
-26 -58 -59 -85 -88 0
-17 -21 -89 -93 -94 0
-22 -25 -54 -55 -103 0
-27 -58 -60 -85 -88 0
-17 -21 -90 -93 -95 0
-22 -25 -54 -55 -104 0
-27 -58 -60 -85 -88 0
-17 -21 -90 -93 -95 0
-22 -25 -54 -55 -104 0
-27 -59 -60 -85 -89 0
-17 -21 -90 -94 -95 0
-22 -26 -54 -55 -105 0
-27 -59 -60 -85 -89 0
-17 -21 -90 -94 -95 0
-22 -26 -54 -55 -105 0
-25 -57 -58 -86 -87 0
-17 -21 -88 -96 -97 0
-23 -24 -54 -56 -100 0
-25 -57 -58 -86 -87 0
-17 -21 -88 -96 -97 0
-23 -24 -54 -56 -100 0
-26 -57 -59 -86 -87 0
-17 -21 -89 -96 -98 0
-23 -24 -54 -56 -101 0
-26 -57 -59 -86 -87 0
-17 -21 -89 -96 -98 0
-23 -24 -54 -56 -101 0
-27 -57 -60 -86 -87 0
-17 -21 -90 -96 -99 0
-23 -24 -54 -56 -102 0
-27 -57 -60 -86 -87 0
-17 -21 -90 -96 -99 0
-23 -24 -54 -56 -102 0
-26 -58 -59 -86 -88 0
-17 -21 -89 -97 -98 0
-23 -25 -54 -56 -103 0
-26 -58 -59 -86 -88 0
-17 -21 -89 -97 -98 0
-23 -25 -54 -56 -103 0
-27 -58 -60 -86 -88 0
-17 -21 -90 -97 -99 0
-23 -25 -54 -56 -104 0
-27 -58 -60 -86 -88 0
-17 -21 -90 -97 -99 0
-23 -25 -54 -56 -104 0
-27 -59 -60 -86 -89 0
-17 -21 -90 -98 -99 0
-23 -26 -54 -56 -105 0
-27 -59 -60 -86 -89 0
-17 -21 -90 -98 -99 0
-23 -26 -54 -56 -105 0
-26 -58 -59 -87 -88 0
-17 -21 -89 -100 -101 0
-24 -25 -54 -57 -103 0
-26 -58 -59 -87 -88 0
-17 -21 -89 -100 -101 0
-24 -25 -54 -57 -103 0
-27 -58 -60 -87 -88 0
-17 -21 -90 -100 -102 0
-24 -25 -54 -57 -104 0
-27 -58 -60 -87 -88 0
-17 -21 -90 -100 -102 0
-24 -25 -54 -57 -104 0
-27 -59 -60 -87 -89 0
-17 -21 -90 -101 -102 0
-24 -26 -54 -57 -105 0
-27 -59 -60 -87 -89 0
-17 -21 -90 -101 -102 0
-24 -26 -54 -57 -105 0
-27 -59 -60 -88 -89 0
-17 -21 -90 -103 -104 0
-25 -26 -54 -58 -105 0
-27 -59 -60 -88 -89 0
-17 -21 -90 -103 -104 0
-25 -26 -54 -58 -105 0
-25 -57 -58 -91 -92 0
-17 -22 -93 -96 -97 0
-23 -24 -55 -56 -100 0
-25 -57 -58 -91 -92 0
-17 -22 -93 -96 -97 0
-23 -24 -55 -56 -100 0
-26 -57 -59 -91 -92 0
-17 -22 -94 -96 -98 0
-23 -24 -55 -56 -101 0
-26 -57 -59 -91 -92 0
-17 -22 -94 -96 -98 0
-23 -24 -55 -56 -101 0
-27 -57 -60 -91 -92 0
-17 -22 -95 -96 -99 0
-23 -24 -55 -56 -102 0
-27 -57 -60 -91 -92 0
-17 -22 -95 -96 -99 0
-23 -24 -55 -56 -102 0
-26 -58 -59 -91 -93 0
-17 -22 -94 -97 -98 0
-23 -25 -55 -56 -103 0
-26 -58 -59 -91 -93 0
-17 -22 -94 -97 -98 0
-23 -25 -55 -56 -103 0
-27 -58 -60 -91 -93 0
-17 -22 -95 -97 -99 0
-23 -25 -55 -56 -104 0
-27 -58 -60 -91 -93 0
-17 -22 -95 -97 -99 0
-23 -25 -55 -56 -104 0
-27 -59 -60 -91 -94 0
-17 -22 -95 -98 -99 0
-23 -26 -55 -56 -105 0
-27 -59 -60 -91 -94 0
-17 -22 -95 -98 -99 0
-23 -26 -55 -56 -105 0
-26 -58 -59 -92 -93 0
-17 -22 -94 -100 -101 0
-24 -25 -55 -57 -103 0
-26 -58 -59 -92 -93 0
-17 -22 -94 -100 -101 0
-24 -25 -55 -57 -103 0
-27 -58 -60 -92 -93 0
-17 -22 -95 -100 -102 0
-24 -25 -55 -57 -104 0
-27 -58 -60 -92 -93 0
-17 -22 -95 -100 -102 0
-24 -25 -55 -57 -104 0
-27 -59 -60 -92 -94 0
-17 -22 -95 -101 -102 0
-24 -26 -55 -57 -105 0
-27 -59 -60 -92 -94 0
-17 -22 -95 -101 -102 0
-24 -26 -55 -57 -105 0
-27 -59 -60 -93 -94 0
-17 -22 -95 -103 -104 0
-25 -26 -55 -58 -105 0
-27 -59 -60 -93 -94 0
-17 -22 -95 -103 -104 0
-25 -26 -55 -58 -105 0
-26 -58 -59 -96 -97 0
-17 -23 -98 -100 -101 0
-24 -25 -56 -57 -103 0
-26 -58 -59 -96 -97 0
-17 -23 -98 -100 -101 0
-24 -25 -56 -57 -103 0
-27 -58 -60 -96 -97 0
-17 -23 -99 -100 -102 0
-24 -25 -56 -57 -104 0
-27 -58 -60 -96 -97 0
-17 -23 -99 -100 -102 0
-24 -25 -56 -57 -104 0
-27 -59 -60 -96 -98 0
-17 -23 -99 -101 -102 0
-24 -26 -56 -57 -105 0
-27 -59 -60 -96 -98 0
-17 -23 -99 -101 -102 0
-24 -26 -56 -57 -105 0
-27 -59 -60 -97 -98 0
-17 -23 -99 -103 -104 0
-25 -26 -56 -58 -105 0
-27 -59 -60 -97 -98 0
-17 -23 -99 -103 -104 0
-25 -26 -56 -58 -105 0
-27 -59 -60 -100 -101 0
-17 -24 -102 -103 -104 0
-25 -26 -57 -58 -105 0
-27 -59 -60 -100 -101 0
-17 -24 -102 -103 -104 0
-25 -26 -57 -58 -105 0
-22 -63 -64 -70 -71 0
-18 -19 -72 -78 -79 0
-20 -21 -61 -62 -85 0
-22 -63 -64 -70 -71 0
-18 -19 -72 -78 -79 0
-20 -21 -61 -62 -85 0
-23 -63 -65 -70 -71 0
-18 -19 -73 -78 -80 0
-20 -21 -61 -62 -86 0
-23 -63 -65 -70 -71 0
-18 -19 -73 -78 -80 0
-20 -21 -61 -62 -86 0
-24 -63 -66 -70 -71 0
-18 -19 -74 -78 -81 0
-20 -21 -61 -62 -87 0
-24 -63 -66 -70 -71 0
-18 -19 -74 -78 -81 0
-20 -21 -61 -62 -87 0
-25 -63 -67 -70 -71 0
-18 -19 -75 -78 -82 0
-20 -21 -61 -62 -88 0
-25 -63 -67 -70 -71 0
-18 -19 -75 -78 -82 0
-20 -21 -61 -62 -88 0
-26 -63 -68 -70 -71 0
-18 -19 -76 -78 -83 0
-20 -21 -61 -62 -89 0
-26 -63 -68 -70 -71 0
-18 -19 -76 -78 -83 0
-20 -21 -61 -62 -89 0
-27 -63 -69 -70 -71 0
-18 -19 -77 -78 -84 0
-20 -21 -61 -62 -90 0
-27 -63 -69 -70 -71 0
-18 -19 -77 -78 -84 0
-20 -21 -61 -62 -90 0
-23 -64 -65 -70 -72 0
-18 -19 -73 -79 -80 0
-20 -22 -61 -62 -91 0
-23 -64 -65 -70 -72 0
-18 -19 -73 -79 -80 0
-20 -22 -61 -62 -91 0
-24 -64 -66 -70 -72 0
-18 -19 -74 -79 -81 0
-20 -22 -61 -62 -92 0
-24 -64 -66 -70 -72 0
-18 -19 -74 -79 -81 0
-20 -22 -61 -62 -92 0
-25 -64 -67 -70 -72 0
-18 -19 -75 -79 -82 0
-20 -22 -61 -62 -93 0
-25 -64 -67 -70 -72 0
-18 -19 -75 -79 -82 0
-20 -22 -61 -62 -93 0
-26 -64 -68 -70 -72 0
-18 -19 -76 -79 -83 0
-20 -22 -61 -62 -94 0
-26 -64 -68 -70 -72 0
-18 -19 -76 -79 -83 0
-20 -22 -61 -62 -94 0
-27 -64 -69 -70 -72 0
-18 -19 -77 -79 -84 0
-20 -22 -61 -62 -95 0
-27 -64 -69 -70 -72 0
-18 -19 -77 -79 -84 0
-20 -22 -61 -62 -95 0
-24 -65 -66 -70 -73 0
-18 -19 -74 -80 -81 0
-20 -23 -61 -62 -96 0
-24 -65 -66 -70 -73 0
-18 -19 -74 -80 -81 0
-20 -23 -61 -62 -96 0
-25 -65 -67 -70 -73 0
-18 -19 -75 -80 -82 0
-20 -23 -61 -62 -97 0
-25 -65 -67 -70 -73 0
-18 -19 -75 -80 -82 0
-20 -23 -61 -62 -97 0
-26 -65 -68 -70 -73 0
-18 -19 -76 -80 -83 0
-20 -23 -61 -62 -98 0
-26 -65 -68 -70 -73 0
-18 -19 -76 -80 -83 0
-20 -23 -61 -62 -98 0
-27 -65 -69 -70 -73 0
-18 -19 -77 -80 -84 0
-20 -23 -61 -62 -99 0
-27 -65 -69 -70 -73 0
-18 -19 -77 -80 -84 0
-20 -23 -61 -62 -99 0
-25 -66 -67 -70 -74 0
-18 -19 -75 -81 -82 0
-20 -24 -61 -62 -100 0
-25 -66 -67 -70 -74 0
-18 -19 -75 -81 -82 0
-20 -24 -61 -62 -100 0
-26 -66 -68 -70 -74 0
-18 -19 -76 -81 -83 0
-20 -24 -61 -62 -101 0
-26 -66 -68 -70 -74 0
-18 -19 -76 -81 -83 0
-20 -24 -61 -62 -101 0
-27 -66 -69 -70 -74 0
-18 -19 -77 -81 -84 0
-20 -24 -61 -62 -102 0
-27 -66 -69 -70 -74 0
-18 -19 -77 -81 -84 0
-20 -24 -61 -62 -102 0
-26 -67 -68 -70 -75 0
-18 -19 -76 -82 -83 0
-20 -25 -61 -62 -103 0
-26 -67 -68 -70 -75 0
-18 -19 -76 -82 -83 0
-20 -25 -61 -62 -103 0
-27 -67 -69 -70 -75 0
-18 -19 -77 -82 -84 0
-20 -25 -61 -62 -104 0
-27 -67 -69 -70 -75 0
-18 -19 -77 -82 -84 0
-20 -25 -61 -62 -104 0
-27 -68 -69 -70 -76 0
-18 -19 -77 -83 -84 0
-20 -26 -61 -62 -105 0
-27 -68 -69 -70 -76 0
-18 -19 -77 -83 -84 0
-20 -26 -61 -62 -105 0
-23 -64 -65 -71 -72 0
-18 -19 -73 -85 -86 0
-21 -22 -61 -63 -91 0
-23 -64 -65 -71 -72 0
-18 -19 -73 -85 -86 0
-21 -22 -61 -63 -91 0
-24 -64 -66 -71 -72 0
-18 -19 -74 -85 -87 0
-21 -22 -61 -63 -92 0
-24 -64 -66 -71 -72 0
-18 -19 -74 -85 -87 0
-21 -22 -61 -63 -92 0
-25 -64 -67 -71 -72 0
-18 -19 -75 -85 -88 0
-21 -22 -61 -63 -93 0
-25 -64 -67 -71 -72 0
-18 -19 -75 -85 -88 0
-21 -22 -61 -63 -93 0
-26 -64 -68 -71 -72 0
-18 -19 -76 -85 -89 0
-21 -22 -61 -63 -94 0
-26 -64 -68 -71 -72 0
-18 -19 -76 -85 -89 0
-21 -22 -61 -63 -94 0
-27 -64 -69 -71 -72 0
-18 -19 -77 -85 -90 0
-21 -22 -61 -63 -95 0
-27 -64 -69 -71 -72 0
-18 -19 -77 -85 -90 0
-21 -22 -61 -63 -95 0
-24 -65 -66 -71 -73 0
-18 -19 -74 -86 -87 0
-21 -23 -61 -63 -96 0
-24 -65 -66 -71 -73 0
-18 -19 -74 -86 -87 0
-21 -23 -61 -63 -96 0
-25 -65 -67 -71 -73 0
-18 -19 -75 -86 -88 0
-21 -23 -61 -63 -97 0
-25 -65 -67 -71 -73 0
-18 -19 -75 -86 -88 0
-21 -23 -61 -63 -97 0
-26 -65 -68 -71 -73 0
-18 -19 -76 -86 -89 0
-21 -23 -61 -63 -98 0
-26 -65 -68 -71 -73 0
-18 -19 -76 -86 -89 0
-21 -23 -61 -63 -98 0
-27 -65 -69 -71 -73 0
-18 -19 -77 -86 -90 0
-21 -23 -61 -63 -99 0
-27 -65 -69 -71 -73 0
-18 -19 -77 -86 -90 0
-21 -23 -61 -63 -99 0
-25 -66 -67 -71 -74 0
-18 -19 -75 -87 -88 0
-21 -24 -61 -63 -100 0
-25 -66 -67 -71 -74 0
-18 -19 -75 -87 -88 0
-21 -24 -61 -63 -100 0
-26 -66 -68 -71 -74 0
-18 -19 -76 -87 -89 0
-21 -24 -61 -63 -101 0
-26 -66 -68 -71 -74 0
-18 -19 -76 -87 -89 0
-21 -24 -61 -63 -101 0
-27 -66 -69 -71 -74 0
-18 -19 -77 -87 -90 0
-21 -24 -61 -63 -102 0
-27 -66 -69 -71 -74 0
-18 -19 -77 -87 -90 0
-21 -24 -61 -63 -102 0
-26 -67 -68 -71 -75 0
-18 -19 -76 -88 -89 0
-21 -25 -61 -63 -103 0
-26 -67 -68 -71 -75 0
-18 -19 -76 -88 -89 0
-21 -25 -61 -63 -103 0
-27 -67 -69 -71 -75 0
-18 -19 -77 -88 -90 0
-21 -25 -61 -63 -104 0
-27 -67 -69 -71 -75 0
-18 -19 -77 -88 -90 0
-21 -25 -61 -63 -104 0
-27 -68 -69 -71 -76 0
-18 -19 -77 -89 -90 0
-21 -26 -61 -63 -105 0
-27 -68 -69 -71 -76 0
-18 -19 -77 -89 -90 0
-21 -26 -61 -63 -105 0
-24 -65 -66 -72 -73 0
-18 -19 -74 -91 -92 0
-22 -23 -61 -64 -96 0
-24 -65 -66 -72 -73 0
-18 -19 -74 -91 -92 0
-22 -23 -61 -64 -96 0
-25 -65 -67 -72 -73 0
-18 -19 -75 -91 -93 0
-22 -23 -61 -64 -97 0
-25 -65 -67 -72 -73 0
-18 -19 -75 -91 -93 0
-22 -23 -61 -64 -97 0
-26 -65 -68 -72 -73 0
-18 -19 -76 -91 -94 0
-22 -23 -61 -64 -98 0
-26 -65 -68 -72 -73 0
-18 -19 -76 -91 -94 0
-22 -23 -61 -64 -98 0
-27 -65 -69 -72 -73 0
-18 -19 -77 -91 -95 0
-22 -23 -61 -64 -99 0
-27 -65 -69 -72 -73 0
-18 -19 -77 -91 -95 0
-22 -23 -61 -64 -99 0
-25 -66 -67 -72 -74 0
-18 -19 -75 -92 -93 0
-22 -24 -61 -64 -100 0
-25 -66 -67 -72 -74 0
-18 -19 -75 -92 -93 0
-22 -24 -61 -64 -100 0
-26 -66 -68 -72 -74 0
-18 -19 -76 -92 -94 0
-22 -24 -61 -64 -101 0
-26 -66 -68 -72 -74 0
-18 -19 -76 -92 -94 0
-22 -24 -61 -64 -101 0
-27 -66 -69 -72 -74 0
-18 -19 -77 -92 -95 0
-22 -24 -61 -64 -102 0
-27 -66 -69 -72 -74 0
-18 -19 -77 -92 -95 0
-22 -24 -61 -64 -102 0
-26 -67 -68 -72 -75 0
-18 -19 -76 -93 -94 0
-22 -25 -61 -64 -103 0
-26 -67 -68 -72 -75 0
-18 -19 -76 -93 -94 0
-22 -25 -61 -64 -103 0
-27 -67 -69 -72 -75 0
-18 -19 -77 -93 -95 0
-22 -25 -61 -64 -104 0
-27 -67 -69 -72 -75 0
-18 -19 -77 -93 -95 0
-22 -25 -61 -64 -104 0
-27 -68 -69 -72 -76 0
-18 -19 -77 -94 -95 0
-22 -26 -61 -64 -105 0
-27 -68 -69 -72 -76 0
-18 -19 -77 -94 -95 0
-22 -26 -61 -64 -105 0
-25 -66 -67 -73 -74 0
-18 -19 -75 -96 -97 0
-23 -24 -61 -65 -100 0
-25 -66 -67 -73 -74 0
-18 -19 -75 -96 -97 0
-23 -24 -61 -65 -100 0
-26 -66 -68 -73 -74 0
-18 -19 -76 -96 -98 0
-23 -24 -61 -65 -101 0
-26 -66 -68 -73 -74 0
-18 -19 -76 -96 -98 0
-23 -24 -61 -65 -101 0
-27 -66 -69 -73 -74 0
-18 -19 -77 -96 -99 0
-23 -24 -61 -65 -102 0
-27 -66 -69 -73 -74 0
-18 -19 -77 -96 -99 0
-23 -24 -61 -65 -102 0
-26 -67 -68 -73 -75 0
-18 -19 -76 -97 -98 0
-23 -25 -61 -65 -103 0
-26 -67 -68 -73 -75 0
-18 -19 -76 -97 -98 0
-23 -25 -61 -65 -103 0
-27 -67 -69 -73 -75 0
-18 -19 -77 -97 -99 0
-23 -25 -61 -65 -104 0
-27 -67 -69 -73 -75 0
-18 -19 -77 -97 -99 0
-23 -25 -61 -65 -104 0
-27 -68 -69 -73 -76 0
-18 -19 -77 -98 -99 0
-23 -26 -61 -65 -105 0
-27 -68 -69 -73 -76 0
-18 -19 -77 -98 -99 0
-23 -26 -61 -65 -105 0
-26 -67 -68 -74 -75 0
-18 -19 -76 -100 -101 0
-24 -25 -61 -66 -103 0
-26 -67 -68 -74 -75 0
-18 -19 -76 -100 -101 0
-24 -25 -61 -66 -103 0
-27 -67 -69 -74 -75 0
-18 -19 -77 -100 -102 0
-24 -25 -61 -66 -104 0
-27 -67 -69 -74 -75 0
-18 -19 -77 -100 -102 0
-24 -25 -61 -66 -104 0
-27 -68 -69 -74 -76 0
-18 -19 -77 -101 -102 0
-24 -26 -61 -66 -105 0
-27 -68 -69 -74 -76 0
-18 -19 -77 -101 -102 0
-24 -26 -61 -66 -105 0
-27 -68 -69 -75 -76 0
-18 -19 -77 -103 -104 0
-25 -26 -61 -67 -105 0
-27 -68 -69 -75 -76 0
-18 -19 -77 -103 -104 0
-25 -26 -61 -67 -105 0
-23 -64 -65 -78 -79 0
-18 -20 -80 -85 -86 0
-21 -22 -62 -63 -91 0
-23 -64 -65 -78 -79 0
-18 -20 -80 -85 -86 0
-21 -22 -62 -63 -91 0
-24 -64 -66 -78 -79 0
-18 -20 -81 -85 -87 0
-21 -22 -62 -63 -92 0
-24 -64 -66 -78 -79 0
-18 -20 -81 -85 -87 0
-21 -22 -62 -63 -92 0
-25 -64 -67 -78 -79 0
-18 -20 -82 -85 -88 0
-21 -22 -62 -63 -93 0
-25 -64 -67 -78 -79 0
-18 -20 -82 -85 -88 0
-21 -22 -62 -63 -93 0
-26 -64 -68 -78 -79 0
-18 -20 -83 -85 -89 0
-21 -22 -62 -63 -94 0
-26 -64 -68 -78 -79 0
-18 -20 -83 -85 -89 0
-21 -22 -62 -63 -94 0
-27 -64 -69 -78 -79 0
-18 -20 -84 -85 -90 0
-21 -22 -62 -63 -95 0
-27 -64 -69 -78 -79 0
-18 -20 -84 -85 -90 0
-21 -22 -62 -63 -95 0
-24 -65 -66 -78 -80 0
-18 -20 -81 -86 -87 0
-21 -23 -62 -63 -96 0
-24 -65 -66 -78 -80 0
-18 -20 -81 -86 -87 0
-21 -23 -62 -63 -96 0
-25 -65 -67 -78 -80 0
-18 -20 -82 -86 -88 0
-21 -23 -62 -63 -97 0
-25 -65 -67 -78 -80 0
-18 -20 -82 -86 -88 0
-21 -23 -62 -63 -97 0
-26 -65 -68 -78 -80 0
-18 -20 -83 -86 -89 0
-21 -23 -62 -63 -98 0
-26 -65 -68 -78 -80 0
-18 -20 -83 -86 -89 0
-21 -23 -62 -63 -98 0
-27 -65 -69 -78 -80 0
-18 -20 -84 -86 -90 0
-21 -23 -62 -63 -99 0
-27 -65 -69 -78 -80 0
-18 -20 -84 -86 -90 0
-21 -23 -62 -63 -99 0
-25 -66 -67 -78 -81 0
-18 -20 -82 -87 -88 0
-21 -24 -62 -63 -100 0
-25 -66 -67 -78 -81 0
-18 -20 -82 -87 -88 0
-21 -24 -62 -63 -100 0
-26 -66 -68 -78 -81 0
-18 -20 -83 -87 -89 0
-21 -24 -62 -63 -101 0
-26 -66 -68 -78 -81 0
-18 -20 -83 -87 -89 0
-21 -24 -62 -63 -101 0
-27 -66 -69 -78 -81 0
-18 -20 -84 -87 -90 0
-21 -24 -62 -63 -102 0
-27 -66 -69 -78 -81 0
-18 -20 -84 -87 -90 0
-21 -24 -62 -63 -102 0
-26 -67 -68 -78 -82 0
-18 -20 -83 -88 -89 0
-21 -25 -62 -63 -103 0
-26 -67 -68 -78 -82 0
-18 -20 -83 -88 -89 0
-21 -25 -62 -63 -103 0
-27 -67 -69 -78 -82 0
-18 -20 -84 -88 -90 0
-21 -25 -62 -63 -104 0
-27 -67 -69 -78 -82 0
-18 -20 -84 -88 -90 0
-21 -25 -62 -63 -104 0
-27 -68 -69 -78 -83 0
-18 -20 -84 -89 -90 0
-21 -26 -62 -63 -105 0
-27 -68 -69 -78 -83 0
-18 -20 -84 -89 -90 0
-21 -26 -62 -63 -105 0
-24 -65 -66 -79 -80 0
-18 -20 -81 -91 -92 0
-22 -23 -62 -64 -96 0
-24 -65 -66 -79 -80 0
-18 -20 -81 -91 -92 0
-22 -23 -62 -64 -96 0
-25 -65 -67 -79 -80 0
-18 -20 -82 -91 -93 0
-22 -23 -62 -64 -97 0
-25 -65 -67 -79 -80 0
-18 -20 -82 -91 -93 0
-22 -23 -62 -64 -97 0
-26 -65 -68 -79 -80 0
-18 -20 -83 -91 -94 0
-22 -23 -62 -64 -98 0
-26 -65 -68 -79 -80 0
-18 -20 -83 -91 -94 0
-22 -23 -62 -64 -98 0
-27 -65 -69 -79 -80 0
-18 -20 -84 -91 -95 0
-22 -23 -62 -64 -99 0
-27 -65 -69 -79 -80 0
-18 -20 -84 -91 -95 0
-22 -23 -62 -64 -99 0
-25 -66 -67 -79 -81 0
-18 -20 -82 -92 -93 0
-22 -24 -62 -64 -100 0
-25 -66 -67 -79 -81 0
-18 -20 -82 -92 -93 0
-22 -24 -62 -64 -100 0
-26 -66 -68 -79 -81 0
-18 -20 -83 -92 -94 0
-22 -24 -62 -64 -101 0
-26 -66 -68 -79 -81 0
-18 -20 -83 -92 -94 0
-22 -24 -62 -64 -101 0
-27 -66 -69 -79 -81 0
-18 -20 -84 -92 -95 0
-22 -24 -62 -64 -102 0
-27 -66 -69 -79 -81 0
-18 -20 -84 -92 -95 0
-22 -24 -62 -64 -102 0
-26 -67 -68 -79 -82 0
-18 -20 -83 -93 -94 0
-22 -25 -62 -64 -103 0
-26 -67 -68 -79 -82 0
-18 -20 -83 -93 -94 0
-22 -25 -62 -64 -103 0
-27 -67 -69 -79 -82 0
-18 -20 -84 -93 -95 0
-22 -25 -62 -64 -104 0
-27 -67 -69 -79 -82 0
-18 -20 -84 -93 -95 0
-22 -25 -62 -64 -104 0
-27 -68 -69 -79 -83 0
-18 -20 -84 -94 -95 0
-22 -26 -62 -64 -105 0
-27 -68 -69 -79 -83 0
-18 -20 -84 -94 -95 0
-22 -26 -62 -64 -105 0
-25 -66 -67 -80 -81 0
-18 -20 -82 -96 -97 0
-23 -24 -62 -65 -100 0
-25 -66 -67 -80 -81 0
-18 -20 -82 -96 -97 0
-23 -24 -62 -65 -100 0
-26 -66 -68 -80 -81 0
-18 -20 -83 -96 -98 0
-23 -24 -62 -65 -101 0
-26 -66 -68 -80 -81 0
-18 -20 -83 -96 -98 0
-23 -24 -62 -65 -101 0
-27 -66 -69 -80 -81 0
-18 -20 -84 -96 -99 0
-23 -24 -62 -65 -102 0
-27 -66 -69 -80 -81 0
-18 -20 -84 -96 -99 0
-23 -24 -62 -65 -102 0
-26 -67 -68 -80 -82 0
-18 -20 -83 -97 -98 0
-23 -25 -62 -65 -103 0
-26 -67 -68 -80 -82 0
-18 -20 -83 -97 -98 0
-23 -25 -62 -65 -103 0
-27 -67 -69 -80 -82 0
-18 -20 -84 -97 -99 0
-23 -25 -62 -65 -104 0
-27 -67 -69 -80 -82 0
-18 -20 -84 -97 -99 0
-23 -25 -62 -65 -104 0
-27 -68 -69 -80 -83 0
-18 -20 -84 -98 -99 0
-23 -26 -62 -65 -105 0
-27 -68 -69 -80 -83 0
-18 -20 -84 -98 -99 0
-23 -26 -62 -65 -105 0
-26 -67 -68 -81 -82 0
-18 -20 -83 -100 -101 0
-24 -25 -62 -66 -103 0
-26 -67 -68 -81 -82 0
-18 -20 -83 -100 -101 0
-24 -25 -62 -66 -103 0
-27 -67 -69 -81 -82 0
-18 -20 -84 -100 -102 0
-24 -25 -62 -66 -104 0
-27 -67 -69 -81 -82 0
-18 -20 -84 -100 -102 0
-24 -25 -62 -66 -104 0
-27 -68 -69 -81 -83 0
-18 -20 -84 -101 -102 0
-24 -26 -62 -66 -105 0
-27 -68 -69 -81 -83 0
-18 -20 -84 -101 -102 0
-24 -26 -62 -66 -105 0
-27 -68 -69 -82 -83 0
-18 -20 -84 -103 -104 0
-25 -26 -62 -67 -105 0
-27 -68 -69 -82 -83 0
-18 -20 -84 -103 -104 0
-25 -26 -62 -67 -105 0
-24 -65 -66 -85 -86 0
-18 -21 -87 -91 -92 0
-22 -23 -63 -64 -96 0
-24 -65 -66 -85 -86 0
-18 -21 -87 -91 -92 0
-22 -23 -63 -64 -96 0
-25 -65 -67 -85 -86 0
-18 -21 -88 -91 -93 0
-22 -23 -63 -64 -97 0
-25 -65 -67 -85 -86 0
-18 -21 -88 -91 -93 0
-22 -23 -63 -64 -97 0
-26 -65 -68 -85 -86 0
-18 -21 -89 -91 -94 0
-22 -23 -63 -64 -98 0
-26 -65 -68 -85 -86 0
-18 -21 -89 -91 -94 0
-22 -23 -63 -64 -98 0
-27 -65 -69 -85 -86 0
-18 -21 -90 -91 -95 0
-22 -23 -63 -64 -99 0
-27 -65 -69 -85 -86 0
-18 -21 -90 -91 -95 0
-22 -23 -63 -64 -99 0
-25 -66 -67 -85 -87 0
-18 -21 -88 -92 -93 0
-22 -24 -63 -64 -100 0
-25 -66 -67 -85 -87 0
-18 -21 -88 -92 -93 0
-22 -24 -63 -64 -100 0
-26 -66 -68 -85 -87 0
-18 -21 -89 -92 -94 0
-22 -24 -63 -64 -101 0
-26 -66 -68 -85 -87 0
-18 -21 -89 -92 -94 0
-22 -24 -63 -64 -101 0
-27 -66 -69 -85 -87 0
-18 -21 -90 -92 -95 0
-22 -24 -63 -64 -102 0
-27 -66 -69 -85 -87 0
-18 -21 -90 -92 -95 0
-22 -24 -63 -64 -102 0
-26 -67 -68 -85 -88 0
-18 -21 -89 -93 -94 0
-22 -25 -63 -64 -103 0
-26 -67 -68 -85 -88 0
-18 -21 -89 -93 -94 0
-22 -25 -63 -64 -103 0
-27 -67 -69 -85 -88 0
-18 -21 -90 -93 -95 0
-22 -25 -63 -64 -104 0
-27 -67 -69 -85 -88 0
-18 -21 -90 -93 -95 0
-22 -25 -63 -64 -104 0
-27 -68 -69 -85 -89 0
-18 -21 -90 -94 -95 0
-22 -26 -63 -64 -105 0
-27 -68 -69 -85 -89 0
-18 -21 -90 -94 -95 0
-22 -26 -63 -64 -105 0
-25 -66 -67 -86 -87 0
-18 -21 -88 -96 -97 0
-23 -24 -63 -65 -100 0
-25 -66 -67 -86 -87 0
-18 -21 -88 -96 -97 0
-23 -24 -63 -65 -100 0
-26 -66 -68 -86 -87 0
-18 -21 -89 -96 -98 0
-23 -24 -63 -65 -101 0
-26 -66 -68 -86 -87 0
-18 -21 -89 -96 -98 0
-23 -24 -63 -65 -101 0
-27 -66 -69 -86 -87 0
-18 -21 -90 -96 -99 0
-23 -24 -63 -65 -102 0
-27 -66 -69 -86 -87 0
-18 -21 -90 -96 -99 0
-23 -24 -63 -65 -102 0
-26 -67 -68 -86 -88 0
-18 -21 -89 -97 -98 0
-23 -25 -63 -65 -103 0
-26 -67 -68 -86 -88 0
-18 -21 -89 -97 -98 0
-23 -25 -63 -65 -103 0
-27 -67 -69 -86 -88 0
-18 -21 -90 -97 -99 0
-23 -25 -63 -65 -104 0
-27 -67 -69 -86 -88 0
-18 -21 -90 -97 -99 0
-23 -25 -63 -65 -104 0
-27 -68 -69 -86 -89 0
-18 -21 -90 -98 -99 0
-23 -26 -63 -65 -105 0
-27 -68 -69 -86 -89 0
-18 -21 -90 -98 -99 0
-23 -26 -63 -65 -105 0
-26 -67 -68 -87 -88 0
-18 -21 -89 -100 -101 0
-24 -25 -63 -66 -103 0
-26 -67 -68 -87 -88 0
-18 -21 -89 -100 -101 0
-24 -25 -63 -66 -103 0
-27 -67 -69 -87 -88 0
-18 -21 -90 -100 -102 0
-24 -25 -63 -66 -104 0
-27 -67 -69 -87 -88 0
-18 -21 -90 -100 -102 0
-24 -25 -63 -66 -104 0
-27 -68 -69 -87 -89 0
-18 -21 -90 -101 -102 0
-24 -26 -63 -66 -105 0
-27 -68 -69 -87 -89 0
-18 -21 -90 -101 -102 0
-24 -26 -63 -66 -105 0
-27 -68 -69 -88 -89 0
-18 -21 -90 -103 -104 0
-25 -26 -63 -67 -105 0
-27 -68 -69 -88 -89 0
-18 -21 -90 -103 -104 0
-25 -26 -63 -67 -105 0
-25 -66 -67 -91 -92 0
-18 -22 -93 -96 -97 0
-23 -24 -64 -65 -100 0
-25 -66 -67 -91 -92 0
-18 -22 -93 -96 -97 0
-23 -24 -64 -65 -100 0
-26 -66 -68 -91 -92 0
-18 -22 -94 -96 -98 0
-23 -24 -64 -65 -101 0
-26 -66 -68 -91 -92 0
-18 -22 -94 -96 -98 0
-23 -24 -64 -65 -101 0
-27 -66 -69 -91 -92 0
-18 -22 -95 -96 -99 0
-23 -24 -64 -65 -102 0
-27 -66 -69 -91 -92 0
-18 -22 -95 -96 -99 0
-23 -24 -64 -65 -102 0
-26 -67 -68 -91 -93 0
-18 -22 -94 -97 -98 0
-23 -25 -64 -65 -103 0
-26 -67 -68 -91 -93 0
-18 -22 -94 -97 -98 0
-23 -25 -64 -65 -103 0
-27 -67 -69 -91 -93 0
-18 -22 -95 -97 -99 0
-23 -25 -64 -65 -104 0
-27 -67 -69 -91 -93 0
-18 -22 -95 -97 -99 0
-23 -25 -64 -65 -104 0
-27 -68 -69 -91 -94 0
-18 -22 -95 -98 -99 0
-23 -26 -64 -65 -105 0
-27 -68 -69 -91 -94 0
-18 -22 -95 -98 -99 0
-23 -26 -64 -65 -105 0
-26 -67 -68 -92 -93 0
-18 -22 -94 -100 -101 0
-24 -25 -64 -66 -103 0
-26 -67 -68 -92 -93 0
-18 -22 -94 -100 -101 0
-24 -25 -64 -66 -103 0
-27 -67 -69 -92 -93 0
-18 -22 -95 -100 -102 0
-24 -25 -64 -66 -104 0
-27 -67 -69 -92 -93 0
-18 -22 -95 -100 -102 0
-24 -25 -64 -66 -104 0
-27 -68 -69 -92 -94 0
-18 -22 -95 -101 -102 0
-24 -26 -64 -66 -105 0
-27 -68 -69 -92 -94 0
-18 -22 -95 -101 -102 0
-24 -26 -64 -66 -105 0
-27 -68 -69 -93 -94 0
-18 -22 -95 -103 -104 0
-25 -26 -64 -67 -105 0
-27 -68 -69 -93 -94 0
-18 -22 -95 -103 -104 0
-25 -26 -64 -67 -105 0
-26 -67 -68 -96 -97 0
-18 -23 -98 -100 -101 0
-24 -25 -65 -66 -103 0
-26 -67 -68 -96 -97 0
-18 -23 -98 -100 -101 0
-24 -25 -65 -66 -103 0
-27 -67 -69 -96 -97 0
-18 -23 -99 -100 -102 0
-24 -25 -65 -66 -104 0
-27 -67 -69 -96 -97 0
-18 -23 -99 -100 -102 0
-24 -25 -65 -66 -104 0
-27 -68 -69 -96 -98 0
-18 -23 -99 -101 -102 0
-24 -26 -65 -66 -105 0
-27 -68 -69 -96 -98 0
-18 -23 -99 -101 -102 0
-24 -26 -65 -66 -105 0
-27 -68 -69 -97 -98 0
-18 -23 -99 -103 -104 0
-25 -26 -65 -67 -105 0
-27 -68 -69 -97 -98 0
-18 -23 -99 -103 -104 0
-25 -26 -65 -67 -105 0
-27 -68 -69 -100 -101 0
-18 -24 -102 -103 -104 0
-25 -26 -66 -67 -105 0
-27 -68 -69 -100 -101 0
-18 -24 -102 -103 -104 0
-25 -26 -66 -67 -105 0
-23 -72 -73 -78 -79 0
-19 -20 -80 -85 -86 0
-21 -22 -70 -71 -91 0
-23 -72 -73 -78 -79 0
-19 -20 -80 -85 -86 0
-21 -22 -70 -71 -91 0
-24 -72 -74 -78 -79 0
-19 -20 -81 -85 -87 0
-21 -22 -70 -71 -92 0
-24 -72 -74 -78 -79 0
-19 -20 -81 -85 -87 0
-21 -22 -70 -71 -92 0
-25 -72 -75 -78 -79 0
-19 -20 -82 -85 -88 0
-21 -22 -70 -71 -93 0
-25 -72 -75 -78 -79 0
-19 -20 -82 -85 -88 0
-21 -22 -70 -71 -93 0
-26 -72 -76 -78 -79 0
-19 -20 -83 -85 -89 0
-21 -22 -70 -71 -94 0
-26 -72 -76 -78 -79 0
-19 -20 -83 -85 -89 0
-21 -22 -70 -71 -94 0
-27 -72 -77 -78 -79 0
-19 -20 -84 -85 -90 0
-21 -22 -70 -71 -95 0
-27 -72 -77 -78 -79 0
-19 -20 -84 -85 -90 0
-21 -22 -70 -71 -95 0
-24 -73 -74 -78 -80 0
-19 -20 -81 -86 -87 0
-21 -23 -70 -71 -96 0
-24 -73 -74 -78 -80 0
-19 -20 -81 -86 -87 0
-21 -23 -70 -71 -96 0
-25 -73 -75 -78 -80 0
-19 -20 -82 -86 -88 0
-21 -23 -70 -71 -97 0
-25 -73 -75 -78 -80 0
-19 -20 -82 -86 -88 0
-21 -23 -70 -71 -97 0
-26 -73 -76 -78 -80 0
-19 -20 -83 -86 -89 0
-21 -23 -70 -71 -98 0
-26 -73 -76 -78 -80 0
-19 -20 -83 -86 -89 0
-21 -23 -70 -71 -98 0
-27 -73 -77 -78 -80 0
-19 -20 -84 -86 -90 0
-21 -23 -70 -71 -99 0
-27 -73 -77 -78 -80 0
-19 -20 -84 -86 -90 0
-21 -23 -70 -71 -99 0
-25 -74 -75 -78 -81 0
-19 -20 -82 -87 -88 0
-21 -24 -70 -71 -100 0
-25 -74 -75 -78 -81 0
-19 -20 -82 -87 -88 0
-21 -24 -70 -71 -100 0
-26 -74 -76 -78 -81 0
-19 -20 -83 -87 -89 0
-21 -24 -70 -71 -101 0
-26 -74 -76 -78 -81 0
-19 -20 -83 -87 -89 0
-21 -24 -70 -71 -101 0
-27 -74 -77 -78 -81 0
-19 -20 -84 -87 -90 0
-21 -24 -70 -71 -102 0
-27 -74 -77 -78 -81 0
-19 -20 -84 -87 -90 0
-21 -24 -70 -71 -102 0
-26 -75 -76 -78 -82 0
-19 -20 -83 -88 -89 0
-21 -25 -70 -71 -103 0
-26 -75 -76 -78 -82 0
-19 -20 -83 -88 -89 0
-21 -25 -70 -71 -103 0
-27 -75 -77 -78 -82 0
-19 -20 -84 -88 -90 0
-21 -25 -70 -71 -104 0
-27 -75 -77 -78 -82 0
-19 -20 -84 -88 -90 0
-21 -25 -70 -71 -104 0
-27 -76 -77 -78 -83 0
-19 -20 -84 -89 -90 0
-21 -26 -70 -71 -105 0
-27 -76 -77 -78 -83 0
-19 -20 -84 -89 -90 0
-21 -26 -70 -71 -105 0
-24 -73 -74 -79 -80 0
-19 -20 -81 -91 -92 0
-22 -23 -70 -72 -96 0
-24 -73 -74 -79 -80 0
-19 -20 -81 -91 -92 0
-22 -23 -70 -72 -96 0
-25 -73 -75 -79 -80 0
-19 -20 -82 -91 -93 0
-22 -23 -70 -72 -97 0
-25 -73 -75 -79 -80 0
-19 -20 -82 -91 -93 0
-22 -23 -70 -72 -97 0
-26 -73 -76 -79 -80 0
-19 -20 -83 -91 -94 0
-22 -23 -70 -72 -98 0
-26 -73 -76 -79 -80 0
-19 -20 -83 -91 -94 0
-22 -23 -70 -72 -98 0
-27 -73 -77 -79 -80 0
-19 -20 -84 -91 -95 0
-22 -23 -70 -72 -99 0
-27 -73 -77 -79 -80 0
-19 -20 -84 -91 -95 0
-22 -23 -70 -72 -99 0
-25 -74 -75 -79 -81 0
-19 -20 -82 -92 -93 0
-22 -24 -70 -72 -100 0
-25 -74 -75 -79 -81 0
-19 -20 -82 -92 -93 0
-22 -24 -70 -72 -100 0
-26 -74 -76 -79 -81 0
-19 -20 -83 -92 -94 0
-22 -24 -70 -72 -101 0
-26 -74 -76 -79 -81 0
-19 -20 -83 -92 -94 0
-22 -24 -70 -72 -101 0
-27 -74 -77 -79 -81 0
-19 -20 -84 -92 -95 0
-22 -24 -70 -72 -102 0
-27 -74 -77 -79 -81 0
-19 -20 -84 -92 -95 0
-22 -24 -70 -72 -102 0
-26 -75 -76 -79 -82 0
-19 -20 -83 -93 -94 0
-22 -25 -70 -72 -103 0
-26 -75 -76 -79 -82 0
-19 -20 -83 -93 -94 0
-22 -25 -70 -72 -103 0
-27 -75 -77 -79 -82 0
-19 -20 -84 -93 -95 0
-22 -25 -70 -72 -104 0
-27 -75 -77 -79 -82 0
-19 -20 -84 -93 -95 0
-22 -25 -70 -72 -104 0
-27 -76 -77 -79 -83 0
-19 -20 -84 -94 -95 0
-22 -26 -70 -72 -105 0
-27 -76 -77 -79 -83 0
-19 -20 -84 -94 -95 0
-22 -26 -70 -72 -105 0
-25 -74 -75 -80 -81 0
-19 -20 -82 -96 -97 0
-23 -24 -70 -73 -100 0
-25 -74 -75 -80 -81 0
-19 -20 -82 -96 -97 0
-23 -24 -70 -73 -100 0
-26 -74 -76 -80 -81 0
-19 -20 -83 -96 -98 0
-23 -24 -70 -73 -101 0
-26 -74 -76 -80 -81 0
-19 -20 -83 -96 -98 0
-23 -24 -70 -73 -101 0
-27 -74 -77 -80 -81 0
-19 -20 -84 -96 -99 0
-23 -24 -70 -73 -102 0
-27 -74 -77 -80 -81 0
-19 -20 -84 -96 -99 0
-23 -24 -70 -73 -102 0
-26 -75 -76 -80 -82 0
-19 -20 -83 -97 -98 0
-23 -25 -70 -73 -103 0
-26 -75 -76 -80 -82 0
-19 -20 -83 -97 -98 0
-23 -25 -70 -73 -103 0
-27 -75 -77 -80 -82 0
-19 -20 -84 -97 -99 0
-23 -25 -70 -73 -104 0
-27 -75 -77 -80 -82 0
-19 -20 -84 -97 -99 0
-23 -25 -70 -73 -104 0
-27 -76 -77 -80 -83 0
-19 -20 -84 -98 -99 0
-23 -26 -70 -73 -105 0
-27 -76 -77 -80 -83 0
-19 -20 -84 -98 -99 0
-23 -26 -70 -73 -105 0
-26 -75 -76 -81 -82 0
-19 -20 -83 -100 -101 0
-24 -25 -70 -74 -103 0
-26 -75 -76 -81 -82 0
-19 -20 -83 -100 -101 0
-24 -25 -70 -74 -103 0
-27 -75 -77 -81 -82 0
-19 -20 -84 -100 -102 0
-24 -25 -70 -74 -104 0
-27 -75 -77 -81 -82 0
-19 -20 -84 -100 -102 0
-24 -25 -70 -74 -104 0
-27 -76 -77 -81 -83 0
-19 -20 -84 -101 -102 0
-24 -26 -70 -74 -105 0
-27 -76 -77 -81 -83 0
-19 -20 -84 -101 -102 0
-24 -26 -70 -74 -105 0
-27 -76 -77 -82 -83 0
-19 -20 -84 -103 -104 0
-25 -26 -70 -75 -105 0
-27 -76 -77 -82 -83 0
-19 -20 -84 -103 -104 0
-25 -26 -70 -75 -105 0
-24 -73 -74 -85 -86 0
-19 -21 -87 -91 -92 0
-22 -23 -71 -72 -96 0
-24 -73 -74 -85 -86 0
-19 -21 -87 -91 -92 0
-22 -23 -71 -72 -96 0
-25 -73 -75 -85 -86 0
-19 -21 -88 -91 -93 0
-22 -23 -71 -72 -97 0
-25 -73 -75 -85 -86 0
-19 -21 -88 -91 -93 0
-22 -23 -71 -72 -97 0
-26 -73 -76 -85 -86 0
-19 -21 -89 -91 -94 0
-22 -23 -71 -72 -98 0
-26 -73 -76 -85 -86 0
-19 -21 -89 -91 -94 0
-22 -23 -71 -72 -98 0
-27 -73 -77 -85 -86 0
-19 -21 -90 -91 -95 0
-22 -23 -71 -72 -99 0
-27 -73 -77 -85 -86 0
-19 -21 -90 -91 -95 0
-22 -23 -71 -72 -99 0
-25 -74 -75 -85 -87 0
-19 -21 -88 -92 -93 0
-22 -24 -71 -72 -100 0
-25 -74 -75 -85 -87 0
-19 -21 -88 -92 -93 0
-22 -24 -71 -72 -100 0
-26 -74 -76 -85 -87 0
-19 -21 -89 -92 -94 0
-22 -24 -71 -72 -101 0
-26 -74 -76 -85 -87 0
-19 -21 -89 -92 -94 0
-22 -24 -71 -72 -101 0
-27 -74 -77 -85 -87 0
-19 -21 -90 -92 -95 0
-22 -24 -71 -72 -102 0
-27 -74 -77 -85 -87 0
-19 -21 -90 -92 -95 0
-22 -24 -71 -72 -102 0
-26 -75 -76 -85 -88 0
-19 -21 -89 -93 -94 0
-22 -25 -71 -72 -103 0
-26 -75 -76 -85 -88 0
-19 -21 -89 -93 -94 0
-22 -25 -71 -72 -103 0
-27 -75 -77 -85 -88 0
-19 -21 -90 -93 -95 0
-22 -25 -71 -72 -104 0
-27 -75 -77 -85 -88 0
-19 -21 -90 -93 -95 0
-22 -25 -71 -72 -104 0
-27 -76 -77 -85 -89 0
-19 -21 -90 -94 -95 0
-22 -26 -71 -72 -105 0
-27 -76 -77 -85 -89 0
-19 -21 -90 -94 -95 0
-22 -26 -71 -72 -105 0
-25 -74 -75 -86 -87 0
-19 -21 -88 -96 -97 0
-23 -24 -71 -73 -100 0
-25 -74 -75 -86 -87 0
-19 -21 -88 -96 -97 0
-23 -24 -71 -73 -100 0
-26 -74 -76 -86 -87 0
-19 -21 -89 -96 -98 0
-23 -24 -71 -73 -101 0
-26 -74 -76 -86 -87 0
-19 -21 -89 -96 -98 0
-23 -24 -71 -73 -101 0
-27 -74 -77 -86 -87 0
-19 -21 -90 -96 -99 0
-23 -24 -71 -73 -102 0
-27 -74 -77 -86 -87 0
-19 -21 -90 -96 -99 0
-23 -24 -71 -73 -102 0
-26 -75 -76 -86 -88 0
-19 -21 -89 -97 -98 0
-23 -25 -71 -73 -103 0
-26 -75 -76 -86 -88 0
-19 -21 -89 -97 -98 0
-23 -25 -71 -73 -103 0
-27 -75 -77 -86 -88 0
-19 -21 -90 -97 -99 0
-23 -25 -71 -73 -104 0
-27 -75 -77 -86 -88 0
-19 -21 -90 -97 -99 0
-23 -25 -71 -73 -104 0
-27 -76 -77 -86 -89 0
-19 -21 -90 -98 -99 0
-23 -26 -71 -73 -105 0
-27 -76 -77 -86 -89 0
-19 -21 -90 -98 -99 0
-23 -26 -71 -73 -105 0
-26 -75 -76 -87 -88 0
-19 -21 -89 -100 -101 0
-24 -25 -71 -74 -103 0
-26 -75 -76 -87 -88 0
-19 -21 -89 -100 -101 0
-24 -25 -71 -74 -103 0
-27 -75 -77 -87 -88 0
-19 -21 -90 -100 -102 0
-24 -25 -71 -74 -104 0
-27 -75 -77 -87 -88 0
-19 -21 -90 -100 -102 0
-24 -25 -71 -74 -104 0
-27 -76 -77 -87 -89 0
-19 -21 -90 -101 -102 0
-24 -26 -71 -74 -105 0
-27 -76 -77 -87 -89 0
-19 -21 -90 -101 -102 0
-24 -26 -71 -74 -105 0
-27 -76 -77 -88 -89 0
-19 -21 -90 -103 -104 0
-25 -26 -71 -75 -105 0
-27 -76 -77 -88 -89 0
-19 -21 -90 -103 -104 0
-25 -26 -71 -75 -105 0
-25 -74 -75 -91 -92 0
-19 -22 -93 -96 -97 0
-23 -24 -72 -73 -100 0
-25 -74 -75 -91 -92 0
-19 -22 -93 -96 -97 0
-23 -24 -72 -73 -100 0
-26 -74 -76 -91 -92 0
-19 -22 -94 -96 -98 0
-23 -24 -72 -73 -101 0
-26 -74 -76 -91 -92 0
-19 -22 -94 -96 -98 0
-23 -24 -72 -73 -101 0
-27 -74 -77 -91 -92 0
-19 -22 -95 -96 -99 0
-23 -24 -72 -73 -102 0
-27 -74 -77 -91 -92 0
-19 -22 -95 -96 -99 0
-23 -24 -72 -73 -102 0
-26 -75 -76 -91 -93 0
-19 -22 -94 -97 -98 0
-23 -25 -72 -73 -103 0
-26 -75 -76 -91 -93 0
-19 -22 -94 -97 -98 0
-23 -25 -72 -73 -103 0
-27 -75 -77 -91 -93 0
-19 -22 -95 -97 -99 0
-23 -25 -72 -73 -104 0
-27 -75 -77 -91 -93 0
-19 -22 -95 -97 -99 0
-23 -25 -72 -73 -104 0
-27 -76 -77 -91 -94 0
-19 -22 -95 -98 -99 0
-23 -26 -72 -73 -105 0
-27 -76 -77 -91 -94 0
-19 -22 -95 -98 -99 0
-23 -26 -72 -73 -105 0
-26 -75 -76 -92 -93 0
-19 -22 -94 -100 -101 0
-24 -25 -72 -74 -103 0
-26 -75 -76 -92 -93 0
-19 -22 -94 -100 -101 0
-24 -25 -72 -74 -103 0
-27 -75 -77 -92 -93 0
-19 -22 -95 -100 -102 0
-24 -25 -72 -74 -104 0
-27 -75 -77 -92 -93 0
-19 -22 -95 -100 -102 0
-24 -25 -72 -74 -104 0
-27 -76 -77 -92 -94 0
-19 -22 -95 -101 -102 0
-24 -26 -72 -74 -105 0
-27 -76 -77 -92 -94 0
-19 -22 -95 -101 -102 0
-24 -26 -72 -74 -105 0
-27 -76 -77 -93 -94 0
-19 -22 -95 -103 -104 0
-25 -26 -72 -75 -105 0
-27 -76 -77 -93 -94 0
-19 -22 -95 -103 -104 0
-25 -26 -72 -75 -105 0
-26 -75 -76 -96 -97 0
-19 -23 -98 -100 -101 0
-24 -25 -73 -74 -103 0
-26 -75 -76 -96 -97 0
-19 -23 -98 -100 -101 0
-24 -25 -73 -74 -103 0
-27 -75 -77 -96 -97 0
-19 -23 -99 -100 -102 0
-24 -25 -73 -74 -104 0
-27 -75 -77 -96 -97 0
-19 -23 -99 -100 -102 0
-24 -25 -73 -74 -104 0
-27 -76 -77 -96 -98 0
-19 -23 -99 -101 -102 0
-24 -26 -73 -74 -105 0
-27 -76 -77 -96 -98 0
-19 -23 -99 -101 -102 0
-24 -26 -73 -74 -105 0
-27 -76 -77 -97 -98 0
-19 -23 -99 -103 -104 0
-25 -26 -73 -75 -105 0
-27 -76 -77 -97 -98 0
-19 -23 -99 -103 -104 0
-25 -26 -73 -75 -105 0
-27 -76 -77 -100 -101 0
-19 -24 -102 -103 -104 0
-25 -26 -74 -75 -105 0
-27 -76 -77 -100 -101 0
-19 -24 -102 -103 -104 0
-25 -26 -74 -75 -105 0
-24 -80 -81 -85 -86 0
-20 -21 -87 -91 -92 0
-22 -23 -78 -79 -96 0
-24 -80 -81 -85 -86 0
-20 -21 -87 -91 -92 0
-22 -23 -78 -79 -96 0
-25 -80 -82 -85 -86 0
-20 -21 -88 -91 -93 0
-22 -23 -78 -79 -97 0
-25 -80 -82 -85 -86 0
-20 -21 -88 -91 -93 0
-22 -23 -78 -79 -97 0
-26 -80 -83 -85 -86 0
-20 -21 -89 -91 -94 0
-22 -23 -78 -79 -98 0
-26 -80 -83 -85 -86 0
-20 -21 -89 -91 -94 0
-22 -23 -78 -79 -98 0
-27 -80 -84 -85 -86 0
-20 -21 -90 -91 -95 0
-22 -23 -78 -79 -99 0
-27 -80 -84 -85 -86 0
-20 -21 -90 -91 -95 0
-22 -23 -78 -79 -99 0
-25 -81 -82 -85 -87 0
-20 -21 -88 -92 -93 0
-22 -24 -78 -79 -100 0
-25 -81 -82 -85 -87 0
-20 -21 -88 -92 -93 0
-22 -24 -78 -79 -100 0
-26 -81 -83 -85 -87 0
-20 -21 -89 -92 -94 0
-22 -24 -78 -79 -101 0
-26 -81 -83 -85 -87 0
-20 -21 -89 -92 -94 0
-22 -24 -78 -79 -101 0
-27 -81 -84 -85 -87 0
-20 -21 -90 -92 -95 0
-22 -24 -78 -79 -102 0
-27 -81 -84 -85 -87 0
-20 -21 -90 -92 -95 0
-22 -24 -78 -79 -102 0
-26 -82 -83 -85 -88 0
-20 -21 -89 -93 -94 0
-22 -25 -78 -79 -103 0
-26 -82 -83 -85 -88 0
-20 -21 -89 -93 -94 0
-22 -25 -78 -79 -103 0
-27 -82 -84 -85 -88 0
-20 -21 -90 -93 -95 0
-22 -25 -78 -79 -104 0
-27 -82 -84 -85 -88 0
-20 -21 -90 -93 -95 0
-22 -25 -78 -79 -104 0
-27 -83 -84 -85 -89 0
-20 -21 -90 -94 -95 0
-22 -26 -78 -79 -105 0
-27 -83 -84 -85 -89 0
-20 -21 -90 -94 -95 0
-22 -26 -78 -79 -105 0
-25 -81 -82 -86 -87 0
-20 -21 -88 -96 -97 0
-23 -24 -78 -80 -100 0
-25 -81 -82 -86 -87 0
-20 -21 -88 -96 -97 0
-23 -24 -78 -80 -100 0
-26 -81 -83 -86 -87 0
-20 -21 -89 -96 -98 0
-23 -24 -78 -80 -101 0
-26 -81 -83 -86 -87 0
-20 -21 -89 -96 -98 0
-23 -24 -78 -80 -101 0
-27 -81 -84 -86 -87 0
-20 -21 -90 -96 -99 0
-23 -24 -78 -80 -102 0
-27 -81 -84 -86 -87 0
-20 -21 -90 -96 -99 0
-23 -24 -78 -80 -102 0
-26 -82 -83 -86 -88 0
-20 -21 -89 -97 -98 0
-23 -25 -78 -80 -103 0
-26 -82 -83 -86 -88 0
-20 -21 -89 -97 -98 0
-23 -25 -78 -80 -103 0
-27 -82 -84 -86 -88 0
-20 -21 -90 -97 -99 0
-23 -25 -78 -80 -104 0
-27 -82 -84 -86 -88 0
-20 -21 -90 -97 -99 0
-23 -25 -78 -80 -104 0
-27 -83 -84 -86 -89 0
-20 -21 -90 -98 -99 0
-23 -26 -78 -80 -105 0
-27 -83 -84 -86 -89 0
-20 -21 -90 -98 -99 0
-23 -26 -78 -80 -105 0
-26 -82 -83 -87 -88 0
-20 -21 -89 -100 -101 0
-24 -25 -78 -81 -103 0
-26 -82 -83 -87 -88 0
-20 -21 -89 -100 -101 0
-24 -25 -78 -81 -103 0
-27 -82 -84 -87 -88 0
-20 -21 -90 -100 -102 0
-24 -25 -78 -81 -104 0
-27 -82 -84 -87 -88 0
-20 -21 -90 -100 -102 0
-24 -25 -78 -81 -104 0
-27 -83 -84 -87 -89 0
-20 -21 -90 -101 -102 0
-24 -26 -78 -81 -105 0
-27 -83 -84 -87 -89 0
-20 -21 -90 -101 -102 0
-24 -26 -78 -81 -105 0
-27 -83 -84 -88 -89 0
-20 -21 -90 -103 -104 0
-25 -26 -78 -82 -105 0
-27 -83 -84 -88 -89 0
-20 -21 -90 -103 -104 0
-25 -26 -78 -82 -105 0
-25 -81 -82 -91 -92 0
-20 -22 -93 -96 -97 0
-23 -24 -79 -80 -100 0
-25 -81 -82 -91 -92 0
-20 -22 -93 -96 -97 0
-23 -24 -79 -80 -100 0
-26 -81 -83 -91 -92 0
-20 -22 -94 -96 -98 0
-23 -24 -79 -80 -101 0
-26 -81 -83 -91 -92 0
-20 -22 -94 -96 -98 0
-23 -24 -79 -80 -101 0
-27 -81 -84 -91 -92 0
-20 -22 -95 -96 -99 0
-23 -24 -79 -80 -102 0
-27 -81 -84 -91 -92 0
-20 -22 -95 -96 -99 0
-23 -24 -79 -80 -102 0
-26 -82 -83 -91 -93 0
-20 -22 -94 -97 -98 0
-23 -25 -79 -80 -103 0
-26 -82 -83 -91 -93 0
-20 -22 -94 -97 -98 0
-23 -25 -79 -80 -103 0
-27 -82 -84 -91 -93 0
-20 -22 -95 -97 -99 0
-23 -25 -79 -80 -104 0
-27 -82 -84 -91 -93 0
-20 -22 -95 -97 -99 0
-23 -25 -79 -80 -104 0
-27 -83 -84 -91 -94 0
-20 -22 -95 -98 -99 0
-23 -26 -79 -80 -105 0
-27 -83 -84 -91 -94 0
-20 -22 -95 -98 -99 0
-23 -26 -79 -80 -105 0
-26 -82 -83 -92 -93 0
-20 -22 -94 -100 -101 0
-24 -25 -79 -81 -103 0
-26 -82 -83 -92 -93 0
-20 -22 -94 -100 -101 0
-24 -25 -79 -81 -103 0
-27 -82 -84 -92 -93 0
-20 -22 -95 -100 -102 0
-24 -25 -79 -81 -104 0
-27 -82 -84 -92 -93 0
-20 -22 -95 -100 -102 0
-24 -25 -79 -81 -104 0
-27 -83 -84 -92 -94 0
-20 -22 -95 -101 -102 0
-24 -26 -79 -81 -105 0
-27 -83 -84 -92 -94 0
-20 -22 -95 -101 -102 0
-24 -26 -79 -81 -105 0
-27 -83 -84 -93 -94 0
-20 -22 -95 -103 -104 0
-25 -26 -79 -82 -105 0
-27 -83 -84 -93 -94 0
-20 -22 -95 -103 -104 0
-25 -26 -79 -82 -105 0
-26 -82 -83 -96 -97 0
-20 -23 -98 -100 -101 0
-24 -25 -80 -81 -103 0
-26 -82 -83 -96 -97 0
-20 -23 -98 -100 -101 0
-24 -25 -80 -81 -103 0
-27 -82 -84 -96 -97 0
-20 -23 -99 -100 -102 0
-24 -25 -80 -81 -104 0
-27 -82 -84 -96 -97 0
-20 -23 -99 -100 -102 0
-24 -25 -80 -81 -104 0
-27 -83 -84 -96 -98 0
-20 -23 -99 -101 -102 0
-24 -26 -80 -81 -105 0
-27 -83 -84 -96 -98 0
-20 -23 -99 -101 -102 0
-24 -26 -80 -81 -105 0
-27 -83 -84 -97 -98 0
-20 -23 -99 -103 -104 0
-25 -26 -80 -82 -105 0
-27 -83 -84 -97 -98 0
-20 -23 -99 -103 -104 0
-25 -26 -80 -82 -105 0
-27 -83 -84 -100 -101 0
-20 -24 -102 -103 -104 0
-25 -26 -81 -82 -105 0
-27 -83 -84 -100 -101 0
-20 -24 -102 -103 -104 0
-25 -26 -81 -82 -105 0
-25 -87 -88 -91 -92 0
-21 -22 -93 -96 -97 0
-23 -24 -85 -86 -100 0
-25 -87 -88 -91 -92 0
-21 -22 -93 -96 -97 0
-23 -24 -85 -86 -100 0
-26 -87 -89 -91 -92 0
-21 -22 -94 -96 -98 0
-23 -24 -85 -86 -101 0
-26 -87 -89 -91 -92 0
-21 -22 -94 -96 -98 0
-23 -24 -85 -86 -101 0
-27 -87 -90 -91 -92 0
-21 -22 -95 -96 -99 0
-23 -24 -85 -86 -102 0
-27 -87 -90 -91 -92 0
-21 -22 -95 -96 -99 0
-23 -24 -85 -86 -102 0
-26 -88 -89 -91 -93 0
-21 -22 -94 -97 -98 0
-23 -25 -85 -86 -103 0
-26 -88 -89 -91 -93 0
-21 -22 -94 -97 -98 0
-23 -25 -85 -86 -103 0
-27 -88 -90 -91 -93 0
-21 -22 -95 -97 -99 0
-23 -25 -85 -86 -104 0
-27 -88 -90 -91 -93 0
-21 -22 -95 -97 -99 0
-23 -25 -85 -86 -104 0
-27 -89 -90 -91 -94 0
-21 -22 -95 -98 -99 0
-23 -26 -85 -86 -105 0
-27 -89 -90 -91 -94 0
-21 -22 -95 -98 -99 0
-23 -26 -85 -86 -105 0
-26 -88 -89 -92 -93 0
-21 -22 -94 -100 -101 0
-24 -25 -85 -87 -103 0
-26 -88 -89 -92 -93 0
-21 -22 -94 -100 -101 0
-24 -25 -85 -87 -103 0
-27 -88 -90 -92 -93 0
-21 -22 -95 -100 -102 0
-24 -25 -85 -87 -104 0
-27 -88 -90 -92 -93 0
-21 -22 -95 -100 -102 0
-24 -25 -85 -87 -104 0
-27 -89 -90 -92 -94 0
-21 -22 -95 -101 -102 0
-24 -26 -85 -87 -105 0
-27 -89 -90 -92 -94 0
-21 -22 -95 -101 -102 0
-24 -26 -85 -87 -105 0
-27 -89 -90 -93 -94 0
-21 -22 -95 -103 -104 0
-25 -26 -85 -88 -105 0
-27 -89 -90 -93 -94 0
-21 -22 -95 -103 -104 0
-25 -26 -85 -88 -105 0
-26 -88 -89 -96 -97 0
-21 -23 -98 -100 -101 0
-24 -25 -86 -87 -103 0
-26 -88 -89 -96 -97 0
-21 -23 -98 -100 -101 0
-24 -25 -86 -87 -103 0
-27 -88 -90 -96 -97 0
-21 -23 -99 -100 -102 0
-24 -25 -86 -87 -104 0
-27 -88 -90 -96 -97 0
-21 -23 -99 -100 -102 0
-24 -25 -86 -87 -104 0
-27 -89 -90 -96 -98 0
-21 -23 -99 -101 -102 0
-24 -26 -86 -87 -105 0
-27 -89 -90 -96 -98 0
-21 -23 -99 -101 -102 0
-24 -26 -86 -87 -105 0
-27 -89 -90 -97 -98 0
-21 -23 -99 -103 -104 0
-25 -26 -86 -88 -105 0
-27 -89 -90 -97 -98 0
-21 -23 -99 -103 -104 0
-25 -26 -86 -88 -105 0
-27 -89 -90 -100 -101 0
-21 -24 -102 -103 -104 0
-25 -26 -87 -88 -105 0
-27 -89 -90 -100 -101 0
-21 -24 -102 -103 -104 0
-25 -26 -87 -88 -105 0
-26 -93 -94 -96 -97 0
-22 -23 -98 -100 -101 0
-24 -25 -91 -92 -103 0
-26 -93 -94 -96 -97 0
-22 -23 -98 -100 -101 0
-24 -25 -91 -92 -103 0
-27 -93 -95 -96 -97 0
-22 -23 -99 -100 -102 0
-24 -25 -91 -92 -104 0
-27 -93 -95 -96 -97 0
-22 -23 -99 -100 -102 0
-24 -25 -91 -92 -104 0
-27 -94 -95 -96 -98 0
-22 -23 -99 -101 -102 0
-24 -26 -91 -92 -105 0
-27 -94 -95 -96 -98 0
-22 -23 -99 -101 -102 0
-24 -26 -91 -92 -105 0
-27 -94 -95 -97 -98 0
-22 -23 -99 -103 -104 0
-25 -26 -91 -93 -105 0
-27 -94 -95 -97 -98 0
-22 -23 -99 -103 -104 0
-25 -26 -91 -93 -105 0
-27 -94 -95 -100 -101 0
-22 -24 -102 -103 -104 0
-25 -26 -92 -93 -105 0
-27 -94 -95 -100 -101 0
-22 -24 -102 -103 -104 0
-25 -26 -92 -93 -105 0
-27 -98 -99 -100 -101 0
-23 -24 -102 -103 -104 0
-25 -26 -96 -97 -105 0
-27 -98 -99 -100 -101 0
-23 -24 -102 -103 -104 0
-25 -26 -96 -97 -105 0
-32 -42 -43 -51 -52 0
-28 -29 -53 -61 -62 0
-30 -31 -40 -41 -70 0
-32 -42 -43 -51 -52 0
-28 -29 -53 -61 -62 0
-30 -31 -40 -41 -70 0
-33 -42 -44 -51 -52 0
-28 -29 -54 -61 -63 0
-30 -31 -40 -41 -71 0
-33 -42 -44 -51 -52 0
-28 -29 -54 -61 -63 0
-30 -31 -40 -41 -71 0
-34 -42 -45 -51 -52 0
-28 -29 -55 -61 -64 0
-30 -31 -40 -41 -72 0
-34 -42 -45 -51 -52 0
-28 -29 -55 -61 -64 0
-30 -31 -40 -41 -72 0
-35 -42 -46 -51 -52 0
-28 -29 -56 -61 -65 0
-30 -31 -40 -41 -73 0
-35 -42 -46 -51 -52 0
-28 -29 -56 -61 -65 0
-30 -31 -40 -41 -73 0
-36 -42 -47 -51 -52 0
-28 -29 -57 -61 -66 0
-30 -31 -40 -41 -74 0
-36 -42 -47 -51 -52 0
-28 -29 -57 -61 -66 0
-30 -31 -40 -41 -74 0
-37 -42 -48 -51 -52 0
-28 -29 -58 -61 -67 0
-30 -31 -40 -41 -75 0
-37 -42 -48 -51 -52 0
-28 -29 -58 -61 -67 0
-30 -31 -40 -41 -75 0
-38 -42 -49 -51 -52 0
-28 -29 -59 -61 -68 0
-30 -31 -40 -41 -76 0
-38 -42 -49 -51 -52 0
-28 -29 -59 -61 -68 0
-30 -31 -40 -41 -76 0
-39 -42 -50 -51 -52 0
-28 -29 -60 -61 -69 0
-30 -31 -40 -41 -77 0
-39 -42 -50 -51 -52 0
-28 -29 -60 -61 -69 0
-30 -31 -40 -41 -77 0
-33 -43 -44 -51 -53 0
-28 -29 -54 -62 -63 0
-30 -32 -40 -41 -78 0
-33 -43 -44 -51 -53 0
-28 -29 -54 -62 -63 0
-30 -32 -40 -41 -78 0
-34 -43 -45 -51 -53 0
-28 -29 -55 -62 -64 0
-30 -32 -40 -41 -79 0
-34 -43 -45 -51 -53 0
-28 -29 -55 -62 -64 0
-30 -32 -40 -41 -79 0
-35 -43 -46 -51 -53 0
-28 -29 -56 -62 -65 0
-30 -32 -40 -41 -80 0
-35 -43 -46 -51 -53 0
-28 -29 -56 -62 -65 0
-30 -32 -40 -41 -80 0
-36 -43 -47 -51 -53 0
-28 -29 -57 -62 -66 0
-30 -32 -40 -41 -81 0
-36 -43 -47 -51 -53 0
-28 -29 -57 -62 -66 0
-30 -32 -40 -41 -81 0
-37 -43 -48 -51 -53 0
-28 -29 -58 -62 -67 0
-30 -32 -40 -41 -82 0
-37 -43 -48 -51 -53 0
-28 -29 -58 -62 -67 0
-30 -32 -40 -41 -82 0
-38 -43 -49 -51 -53 0
-28 -29 -59 -62 -68 0
-30 -32 -40 -41 -83 0
-38 -43 -49 -51 -53 0
-28 -29 -59 -62 -68 0
-30 -32 -40 -41 -83 0
-39 -43 -50 -51 -53 0
-28 -29 -60 -62 -69 0
-30 -32 -40 -41 -84 0
-39 -43 -50 -51 -53 0
-28 -29 -60 -62 -69 0
-30 -32 -40 -41 -84 0
-34 -44 -45 -51 -54 0
-28 -29 -55 -63 -64 0
-30 -33 -40 -41 -85 0
-34 -44 -45 -51 -54 0
-28 -29 -55 -63 -64 0
-30 -33 -40 -41 -85 0
-35 -44 -46 -51 -54 0
-28 -29 -56 -63 -65 0
-30 -33 -40 -41 -86 0
-35 -44 -46 -51 -54 0
-28 -29 -56 -63 -65 0
-30 -33 -40 -41 -86 0
-36 -44 -47 -51 -54 0
-28 -29 -57 -63 -66 0
-30 -33 -40 -41 -87 0
-36 -44 -47 -51 -54 0
-28 -29 -57 -63 -66 0
-30 -33 -40 -41 -87 0
-37 -44 -48 -51 -54 0
-28 -29 -58 -63 -67 0
-30 -33 -40 -41 -88 0
-37 -44 -48 -51 -54 0
-28 -29 -58 -63 -67 0
-30 -33 -40 -41 -88 0
-38 -44 -49 -51 -54 0
-28 -29 -59 -63 -68 0
-30 -33 -40 -41 -89 0
-38 -44 -49 -51 -54 0
-28 -29 -59 -63 -68 0
-30 -33 -40 -41 -89 0
-39 -44 -50 -51 -54 0
-28 -29 -60 -63 -69 0
-30 -33 -40 -41 -90 0
-39 -44 -50 -51 -54 0
-28 -29 -60 -63 -69 0
-30 -33 -40 -41 -90 0
-35 -45 -46 -51 -55 0
-28 -29 -56 -64 -65 0
-30 -34 -40 -41 -91 0
-35 -45 -46 -51 -55 0
-28 -29 -56 -64 -65 0
-30 -34 -40 -41 -91 0
-36 -45 -47 -51 -55 0
-28 -29 -57 -64 -66 0
-30 -34 -40 -41 -92 0
-36 -45 -47 -51 -55 0
-28 -29 -57 -64 -66 0
-30 -34 -40 -41 -92 0
-37 -45 -48 -51 -55 0
-28 -29 -58 -64 -67 0
-30 -34 -40 -41 -93 0
-37 -45 -48 -51 -55 0
-28 -29 -58 -64 -67 0
-30 -34 -40 -41 -93 0
-38 -45 -49 -51 -55 0
-28 -29 -59 -64 -68 0
-30 -34 -40 -41 -94 0
-38 -45 -49 -51 -55 0
-28 -29 -59 -64 -68 0
-30 -34 -40 -41 -94 0
-39 -45 -50 -51 -55 0
-28 -29 -60 -64 -69 0
-30 -34 -40 -41 -95 0
-39 -45 -50 -51 -55 0
-28 -29 -60 -64 -69 0
-30 -34 -40 -41 -95 0
-36 -46 -47 -51 -56 0
-28 -29 -57 -65 -66 0
-30 -35 -40 -41 -96 0
-36 -46 -47 -51 -56 0
-28 -29 -57 -65 -66 0
-30 -35 -40 -41 -96 0
-37 -46 -48 -51 -56 0
-28 -29 -58 -65 -67 0
-30 -35 -40 -41 -97 0
-37 -46 -48 -51 -56 0
-28 -29 -58 -65 -67 0
-30 -35 -40 -41 -97 0
-38 -46 -49 -51 -56 0
-28 -29 -59 -65 -68 0
-30 -35 -40 -41 -98 0
-38 -46 -49 -51 -56 0
-28 -29 -59 -65 -68 0
-30 -35 -40 -41 -98 0
-39 -46 -50 -51 -56 0
-28 -29 -60 -65 -69 0
-30 -35 -40 -41 -99 0
-39 -46 -50 -51 -56 0
-28 -29 -60 -65 -69 0
-30 -35 -40 -41 -99 0
-37 -47 -48 -51 -57 0
-28 -29 -58 -66 -67 0
-30 -36 -40 -41 -100 0
-37 -47 -48 -51 -57 0
-28 -29 -58 -66 -67 0
-30 -36 -40 -41 -100 0
-38 -47 -49 -51 -57 0
-28 -29 -59 -66 -68 0
-30 -36 -40 -41 -101 0
-38 -47 -49 -51 -57 0
-28 -29 -59 -66 -68 0
-30 -36 -40 -41 -101 0
-39 -47 -50 -51 -57 0
-28 -29 -60 -66 -69 0
-30 -36 -40 -41 -102 0
-39 -47 -50 -51 -57 0
-28 -29 -60 -66 -69 0
-30 -36 -40 -41 -102 0
-38 -48 -49 -51 -58 0
-28 -29 -59 -67 -68 0
-30 -37 -40 -41 -103 0
-38 -48 -49 -51 -58 0
-28 -29 -59 -67 -68 0
-30 -37 -40 -41 -103 0
-39 -48 -50 -51 -58 0
-28 -29 -60 -67 -69 0
-30 -37 -40 -41 -104 0
-39 -48 -50 -51 -58 0
-28 -29 -60 -67 -69 0
-30 -37 -40 -41 -104 0
-39 -49 -50 -51 -59 0
-28 -29 -60 -68 -69 0
-30 -38 -40 -41 -105 0
-39 -49 -50 -51 -59 0
-28 -29 -60 -68 -69 0
-30 -38 -40 -41 -105 0
-33 -43 -44 -52 -53 0
-28 -29 -54 -70 -71 0
-31 -32 -40 -42 -78 0
-33 -43 -44 -52 -53 0
-28 -29 -54 -70 -71 0
-31 -32 -40 -42 -78 0
-34 -43 -45 -52 -53 0
-28 -29 -55 -70 -72 0
-31 -32 -40 -42 -79 0
-34 -43 -45 -52 -53 0
-28 -29 -55 -70 -72 0
-31 -32 -40 -42 -79 0
-35 -43 -46 -52 -53 0
-28 -29 -56 -70 -73 0
-31 -32 -40 -42 -80 0
-35 -43 -46 -52 -53 0
-28 -29 -56 -70 -73 0
-31 -32 -40 -42 -80 0
-36 -43 -47 -52 -53 0
-28 -29 -57 -70 -74 0
-31 -32 -40 -42 -81 0
-36 -43 -47 -52 -53 0
-28 -29 -57 -70 -74 0
-31 -32 -40 -42 -81 0
-37 -43 -48 -52 -53 0
-28 -29 -58 -70 -75 0
-31 -32 -40 -42 -82 0
-37 -43 -48 -52 -53 0
-28 -29 -58 -70 -75 0
-31 -32 -40 -42 -82 0
-38 -43 -49 -52 -53 0
-28 -29 -59 -70 -76 0
-31 -32 -40 -42 -83 0
-38 -43 -49 -52 -53 0
-28 -29 -59 -70 -76 0
-31 -32 -40 -42 -83 0
-39 -43 -50 -52 -53 0
-28 -29 -60 -70 -77 0
-31 -32 -40 -42 -84 0
-39 -43 -50 -52 -53 0
-28 -29 -60 -70 -77 0
-31 -32 -40 -42 -84 0
-34 -44 -45 -52 -54 0
-28 -29 -55 -71 -72 0
-31 -33 -40 -42 -85 0
-34 -44 -45 -52 -54 0
-28 -29 -55 -71 -72 0
-31 -33 -40 -42 -85 0
-35 -44 -46 -52 -54 0
-28 -29 -56 -71 -73 0
-31 -33 -40 -42 -86 0
-35 -44 -46 -52 -54 0
-28 -29 -56 -71 -73 0
-31 -33 -40 -42 -86 0
-36 -44 -47 -52 -54 0
-28 -29 -57 -71 -74 0
-31 -33 -40 -42 -87 0
-36 -44 -47 -52 -54 0
-28 -29 -57 -71 -74 0
-31 -33 -40 -42 -87 0
-37 -44 -48 -52 -54 0
-28 -29 -58 -71 -75 0
-31 -33 -40 -42 -88 0
-37 -44 -48 -52 -54 0
-28 -29 -58 -71 -75 0
-31 -33 -40 -42 -88 0
-38 -44 -49 -52 -54 0
-28 -29 -59 -71 -76 0
-31 -33 -40 -42 -89 0
-38 -44 -49 -52 -54 0
-28 -29 -59 -71 -76 0
-31 -33 -40 -42 -89 0
-39 -44 -50 -52 -54 0
-28 -29 -60 -71 -77 0
-31 -33 -40 -42 -90 0
-39 -44 -50 -52 -54 0
-28 -29 -60 -71 -77 0
-31 -33 -40 -42 -90 0
-35 -45 -46 -52 -55 0
-28 -29 -56 -72 -73 0
-31 -34 -40 -42 -91 0
-35 -45 -46 -52 -55 0
-28 -29 -56 -72 -73 0
-31 -34 -40 -42 -91 0
-36 -45 -47 -52 -55 0
-28 -29 -57 -72 -74 0
-31 -34 -40 -42 -92 0
-36 -45 -47 -52 -55 0
-28 -29 -57 -72 -74 0
-31 -34 -40 -42 -92 0
-37 -45 -48 -52 -55 0
-28 -29 -58 -72 -75 0
-31 -34 -40 -42 -93 0
-37 -45 -48 -52 -55 0
-28 -29 -58 -72 -75 0
-31 -34 -40 -42 -93 0
-38 -45 -49 -52 -55 0
-28 -29 -59 -72 -76 0
-31 -34 -40 -42 -94 0
-38 -45 -49 -52 -55 0
-28 -29 -59 -72 -76 0
-31 -34 -40 -42 -94 0
-39 -45 -50 -52 -55 0
-28 -29 -60 -72 -77 0
-31 -34 -40 -42 -95 0
-39 -45 -50 -52 -55 0
-28 -29 -60 -72 -77 0
-31 -34 -40 -42 -95 0
-36 -46 -47 -52 -56 0
-28 -29 -57 -73 -74 0
-31 -35 -40 -42 -96 0
-36 -46 -47 -52 -56 0
-28 -29 -57 -73 -74 0
-31 -35 -40 -42 -96 0
-37 -46 -48 -52 -56 0
-28 -29 -58 -73 -75 0
-31 -35 -40 -42 -97 0
-37 -46 -48 -52 -56 0
-28 -29 -58 -73 -75 0
-31 -35 -40 -42 -97 0
-38 -46 -49 -52 -56 0
-28 -29 -59 -73 -76 0
-31 -35 -40 -42 -98 0
-38 -46 -49 -52 -56 0
-28 -29 -59 -73 -76 0
-31 -35 -40 -42 -98 0
-39 -46 -50 -52 -56 0
-28 -29 -60 -73 -77 0
-31 -35 -40 -42 -99 0
-39 -46 -50 -52 -56 0
-28 -29 -60 -73 -77 0
-31 -35 -40 -42 -99 0
-37 -47 -48 -52 -57 0
-28 -29 -58 -74 -75 0
-31 -36 -40 -42 -100 0
-37 -47 -48 -52 -57 0
-28 -29 -58 -74 -75 0
-31 -36 -40 -42 -100 0
-38 -47 -49 -52 -57 0
-28 -29 -59 -74 -76 0
-31 -36 -40 -42 -101 0
-38 -47 -49 -52 -57 0
-28 -29 -59 -74 -76 0
-31 -36 -40 -42 -101 0
-39 -47 -50 -52 -57 0
-28 -29 -60 -74 -77 0
-31 -36 -40 -42 -102 0
-39 -47 -50 -52 -57 0
-28 -29 -60 -74 -77 0
-31 -36 -40 -42 -102 0
-38 -48 -49 -52 -58 0
-28 -29 -59 -75 -76 0
-31 -37 -40 -42 -103 0
-38 -48 -49 -52 -58 0
-28 -29 -59 -75 -76 0
-31 -37 -40 -42 -103 0
-39 -48 -50 -52 -58 0
-28 -29 -60 -75 -77 0
-31 -37 -40 -42 -104 0
-39 -48 -50 -52 -58 0
-28 -29 -60 -75 -77 0
-31 -37 -40 -42 -104 0
-39 -49 -50 -52 -59 0
-28 -29 -60 -76 -77 0
-31 -38 -40 -42 -105 0
-39 -49 -50 -52 -59 0
-28 -29 -60 -76 -77 0
-31 -38 -40 -42 -105 0
-34 -44 -45 -53 -54 0
-28 -29 -55 -78 -79 0
-32 -33 -40 -43 -85 0
-34 -44 -45 -53 -54 0
-28 -29 -55 -78 -79 0
-32 -33 -40 -43 -85 0
-35 -44 -46 -53 -54 0
-28 -29 -56 -78 -80 0
-32 -33 -40 -43 -86 0
-35 -44 -46 -53 -54 0
-28 -29 -56 -78 -80 0
-32 -33 -40 -43 -86 0
-36 -44 -47 -53 -54 0
-28 -29 -57 -78 -81 0
-32 -33 -40 -43 -87 0
-36 -44 -47 -53 -54 0
-28 -29 -57 -78 -81 0
-32 -33 -40 -43 -87 0
-37 -44 -48 -53 -54 0
-28 -29 -58 -78 -82 0
-32 -33 -40 -43 -88 0
-37 -44 -48 -53 -54 0
-28 -29 -58 -78 -82 0
-32 -33 -40 -43 -88 0
-38 -44 -49 -53 -54 0
-28 -29 -59 -78 -83 0
-32 -33 -40 -43 -89 0
-38 -44 -49 -53 -54 0
-28 -29 -59 -78 -83 0
-32 -33 -40 -43 -89 0
-39 -44 -50 -53 -54 0
-28 -29 -60 -78 -84 0
-32 -33 -40 -43 -90 0
-39 -44 -50 -53 -54 0
-28 -29 -60 -78 -84 0
-32 -33 -40 -43 -90 0
-35 -45 -46 -53 -55 0
-28 -29 -56 -79 -80 0
-32 -34 -40 -43 -91 0
-35 -45 -46 -53 -55 0
-28 -29 -56 -79 -80 0
-32 -34 -40 -43 -91 0
-36 -45 -47 -53 -55 0
-28 -29 -57 -79 -81 0
-32 -34 -40 -43 -92 0
-36 -45 -47 -53 -55 0
-28 -29 -57 -79 -81 0
-32 -34 -40 -43 -92 0
-37 -45 -48 -53 -55 0
-28 -29 -58 -79 -82 0
-32 -34 -40 -43 -93 0
-37 -45 -48 -53 -55 0
-28 -29 -58 -79 -82 0
-32 -34 -40 -43 -93 0
-38 -45 -49 -53 -55 0
-28 -29 -59 -79 -83 0
-32 -34 -40 -43 -94 0
-38 -45 -49 -53 -55 0
-28 -29 -59 -79 -83 0
-32 -34 -40 -43 -94 0
-39 -45 -50 -53 -55 0
-28 -29 -60 -79 -84 0
-32 -34 -40 -43 -95 0
-39 -45 -50 -53 -55 0
-28 -29 -60 -79 -84 0
-32 -34 -40 -43 -95 0
-36 -46 -47 -53 -56 0
-28 -29 -57 -80 -81 0
-32 -35 -40 -43 -96 0
-36 -46 -47 -53 -56 0
-28 -29 -57 -80 -81 0
-32 -35 -40 -43 -96 0
-37 -46 -48 -53 -56 0
-28 -29 -58 -80 -82 0
-32 -35 -40 -43 -97 0
-37 -46 -48 -53 -56 0
-28 -29 -58 -80 -82 0
-32 -35 -40 -43 -97 0
-38 -46 -49 -53 -56 0
-28 -29 -59 -80 -83 0
-32 -35 -40 -43 -98 0
-38 -46 -49 -53 -56 0
-28 -29 -59 -80 -83 0
-32 -35 -40 -43 -98 0
-39 -46 -50 -53 -56 0
-28 -29 -60 -80 -84 0
-32 -35 -40 -43 -99 0
-39 -46 -50 -53 -56 0
-28 -29 -60 -80 -84 0
-32 -35 -40 -43 -99 0
-37 -47 -48 -53 -57 0
-28 -29 -58 -81 -82 0
-32 -36 -40 -43 -100 0
-37 -47 -48 -53 -57 0
-28 -29 -58 -81 -82 0
-32 -36 -40 -43 -100 0
-38 -47 -49 -53 -57 0
-28 -29 -59 -81 -83 0
-32 -36 -40 -43 -101 0
-38 -47 -49 -53 -57 0
-28 -29 -59 -81 -83 0
-32 -36 -40 -43 -101 0
-39 -47 -50 -53 -57 0
-28 -29 -60 -81 -84 0
-32 -36 -40 -43 -102 0
-39 -47 -50 -53 -57 0
-28 -29 -60 -81 -84 0
-32 -36 -40 -43 -102 0
-38 -48 -49 -53 -58 0
-28 -29 -59 -82 -83 0
-32 -37 -40 -43 -103 0
-38 -48 -49 -53 -58 0
-28 -29 -59 -82 -83 0
-32 -37 -40 -43 -103 0
-39 -48 -50 -53 -58 0
-28 -29 -60 -82 -84 0
-32 -37 -40 -43 -104 0
-39 -48 -50 -53 -58 0
-28 -29 -60 -82 -84 0
-32 -37 -40 -43 -104 0
-39 -49 -50 -53 -59 0
-28 -29 -60 -83 -84 0
-32 -38 -40 -43 -105 0
-39 -49 -50 -53 -59 0
-28 -29 -60 -83 -84 0
-32 -38 -40 -43 -105 0
-35 -45 -46 -54 -55 0
-28 -29 -56 -85 -86 0
-33 -34 -40 -44 -91 0
-35 -45 -46 -54 -55 0
-28 -29 -56 -85 -86 0
-33 -34 -40 -44 -91 0
-36 -45 -47 -54 -55 0
-28 -29 -57 -85 -87 0
-33 -34 -40 -44 -92 0
-36 -45 -47 -54 -55 0
-28 -29 -57 -85 -87 0
-33 -34 -40 -44 -92 0
-37 -45 -48 -54 -55 0
-28 -29 -58 -85 -88 0
-33 -34 -40 -44 -93 0
-37 -45 -48 -54 -55 0
-28 -29 -58 -85 -88 0
-33 -34 -40 -44 -93 0
-38 -45 -49 -54 -55 0
-28 -29 -59 -85 -89 0
-33 -34 -40 -44 -94 0
-38 -45 -49 -54 -55 0
-28 -29 -59 -85 -89 0
-33 -34 -40 -44 -94 0
-39 -45 -50 -54 -55 0
-28 -29 -60 -85 -90 0
-33 -34 -40 -44 -95 0
-39 -45 -50 -54 -55 0
-28 -29 -60 -85 -90 0
-33 -34 -40 -44 -95 0
-36 -46 -47 -54 -56 0
-28 -29 -57 -86 -87 0
-33 -35 -40 -44 -96 0
-36 -46 -47 -54 -56 0
-28 -29 -57 -86 -87 0
-33 -35 -40 -44 -96 0
-37 -46 -48 -54 -56 0
-28 -29 -58 -86 -88 0
-33 -35 -40 -44 -97 0
-37 -46 -48 -54 -56 0
-28 -29 -58 -86 -88 0
-33 -35 -40 -44 -97 0
-38 -46 -49 -54 -56 0
-28 -29 -59 -86 -89 0
-33 -35 -40 -44 -98 0
-38 -46 -49 -54 -56 0
-28 -29 -59 -86 -89 0
-33 -35 -40 -44 -98 0
-39 -46 -50 -54 -56 0
-28 -29 -60 -86 -90 0
-33 -35 -40 -44 -99 0
-39 -46 -50 -54 -56 0
-28 -29 -60 -86 -90 0
-33 -35 -40 -44 -99 0
-37 -47 -48 -54 -57 0
-28 -29 -58 -87 -88 0
-33 -36 -40 -44 -100 0
-37 -47 -48 -54 -57 0
-28 -29 -58 -87 -88 0
-33 -36 -40 -44 -100 0
-38 -47 -49 -54 -57 0
-28 -29 -59 -87 -89 0
-33 -36 -40 -44 -101 0
-38 -47 -49 -54 -57 0
-28 -29 -59 -87 -89 0
-33 -36 -40 -44 -101 0
-39 -47 -50 -54 -57 0
-28 -29 -60 -87 -90 0
-33 -36 -40 -44 -102 0
-39 -47 -50 -54 -57 0
-28 -29 -60 -87 -90 0
-33 -36 -40 -44 -102 0
-38 -48 -49 -54 -58 0
-28 -29 -59 -88 -89 0
-33 -37 -40 -44 -103 0
-38 -48 -49 -54 -58 0
-28 -29 -59 -88 -89 0
-33 -37 -40 -44 -103 0
-39 -48 -50 -54 -58 0
-28 -29 -60 -88 -90 0
-33 -37 -40 -44 -104 0
-39 -48 -50 -54 -58 0
-28 -29 -60 -88 -90 0
-33 -37 -40 -44 -104 0
-39 -49 -50 -54 -59 0
-28 -29 -60 -89 -90 0
-33 -38 -40 -44 -105 0
-39 -49 -50 -54 -59 0
-28 -29 -60 -89 -90 0
-33 -38 -40 -44 -105 0
-36 -46 -47 -55 -56 0
-28 -29 -57 -91 -92 0
-34 -35 -40 -45 -96 0
-36 -46 -47 -55 -56 0
-28 -29 -57 -91 -92 0
-34 -35 -40 -45 -96 0
-37 -46 -48 -55 -56 0
-28 -29 -58 -91 -93 0
-34 -35 -40 -45 -97 0
-37 -46 -48 -55 -56 0
-28 -29 -58 -91 -93 0
-34 -35 -40 -45 -97 0
-38 -46 -49 -55 -56 0
-28 -29 -59 -91 -94 0
-34 -35 -40 -45 -98 0
-38 -46 -49 -55 -56 0
-28 -29 -59 -91 -94 0
-34 -35 -40 -45 -98 0
-39 -46 -50 -55 -56 0
-28 -29 -60 -91 -95 0
-34 -35 -40 -45 -99 0
-39 -46 -50 -55 -56 0
-28 -29 -60 -91 -95 0
-34 -35 -40 -45 -99 0
-37 -47 -48 -55 -57 0
-28 -29 -58 -92 -93 0
-34 -36 -40 -45 -100 0
-37 -47 -48 -55 -57 0
-28 -29 -58 -92 -93 0
-34 -36 -40 -45 -100 0
-38 -47 -49 -55 -57 0
-28 -29 -59 -92 -94 0
-34 -36 -40 -45 -101 0
-38 -47 -49 -55 -57 0
-28 -29 -59 -92 -94 0
-34 -36 -40 -45 -101 0
-39 -47 -50 -55 -57 0
-28 -29 -60 -92 -95 0
-34 -36 -40 -45 -102 0
-39 -47 -50 -55 -57 0
-28 -29 -60 -92 -95 0
-34 -36 -40 -45 -102 0
-38 -48 -49 -55 -58 0
-28 -29 -59 -93 -94 0
-34 -37 -40 -45 -103 0
-38 -48 -49 -55 -58 0
-28 -29 -59 -93 -94 0
-34 -37 -40 -45 -103 0
-39 -48 -50 -55 -58 0
-28 -29 -60 -93 -95 0
-34 -37 -40 -45 -104 0
-39 -48 -50 -55 -58 0
-28 -29 -60 -93 -95 0
-34 -37 -40 -45 -104 0
-39 -49 -50 -55 -59 0
-28 -29 -60 -94 -95 0
-34 -38 -40 -45 -105 0
-39 -49 -50 -55 -59 0
-28 -29 -60 -94 -95 0
-34 -38 -40 -45 -105 0
-37 -47 -48 -56 -57 0
-28 -29 -58 -96 -97 0
-35 -36 -40 -46 -100 0
-37 -47 -48 -56 -57 0
-28 -29 -58 -96 -97 0
-35 -36 -40 -46 -100 0
-38 -47 -49 -56 -57 0
-28 -29 -59 -96 -98 0
-35 -36 -40 -46 -101 0
-38 -47 -49 -56 -57 0
-28 -29 -59 -96 -98 0
-35 -36 -40 -46 -101 0
-39 -47 -50 -56 -57 0
-28 -29 -60 -96 -99 0
-35 -36 -40 -46 -102 0
-39 -47 -50 -56 -57 0
-28 -29 -60 -96 -99 0
-35 -36 -40 -46 -102 0
-38 -48 -49 -56 -58 0
-28 -29 -59 -97 -98 0
-35 -37 -40 -46 -103 0
-38 -48 -49 -56 -58 0
-28 -29 -59 -97 -98 0
-35 -37 -40 -46 -103 0
-39 -48 -50 -56 -58 0
-28 -29 -60 -97 -99 0
-35 -37 -40 -46 -104 0
-39 -48 -50 -56 -58 0
-28 -29 -60 -97 -99 0
-35 -37 -40 -46 -104 0
-39 -49 -50 -56 -59 0
-28 -29 -60 -98 -99 0
-35 -38 -40 -46 -105 0
-39 -49 -50 -56 -59 0
-28 -29 -60 -98 -99 0
-35 -38 -40 -46 -105 0
-38 -48 -49 -57 -58 0
-28 -29 -59 -100 -101 0
-36 -37 -40 -47 -103 0
-38 -48 -49 -57 -58 0
-28 -29 -59 -100 -101 0
-36 -37 -40 -47 -103 0
-39 -48 -50 -57 -58 0
-28 -29 -60 -100 -102 0
-36 -37 -40 -47 -104 0
-39 -48 -50 -57 -58 0
-28 -29 -60 -100 -102 0
-36 -37 -40 -47 -104 0
-39 -49 -50 -57 -59 0
-28 -29 -60 -101 -102 0
-36 -38 -40 -47 -105 0
-39 -49 -50 -57 -59 0
-28 -29 -60 -101 -102 0
-36 -38 -40 -47 -105 0
-39 -49 -50 -58 -59 0
-28 -29 -60 -103 -104 0
-37 -38 -40 -48 -105 0
-39 -49 -50 -58 -59 0
-28 -29 -60 -103 -104 0
-37 -38 -40 -48 -105 0
-33 -43 -44 -61 -62 0
-28 -30 -63 -70 -71 0
-31 -32 -41 -42 -78 0
-33 -43 -44 -61 -62 0
-28 -30 -63 -70 -71 0
-31 -32 -41 -42 -78 0
-34 -43 -45 -61 -62 0
-28 -30 -64 -70 -72 0
-31 -32 -41 -42 -79 0
-34 -43 -45 -61 -62 0
-28 -30 -64 -70 -72 0
-31 -32 -41 -42 -79 0
-35 -43 -46 -61 -62 0
-28 -30 -65 -70 -73 0
-31 -32 -41 -42 -80 0
-35 -43 -46 -61 -62 0
-28 -30 -65 -70 -73 0
-31 -32 -41 -42 -80 0
-36 -43 -47 -61 -62 0
-28 -30 -66 -70 -74 0
-31 -32 -41 -42 -81 0
-36 -43 -47 -61 -62 0
-28 -30 -66 -70 -74 0
-31 -32 -41 -42 -81 0
-37 -43 -48 -61 -62 0
-28 -30 -67 -70 -75 0
-31 -32 -41 -42 -82 0
-37 -43 -48 -61 -62 0
-28 -30 -67 -70 -75 0
-31 -32 -41 -42 -82 0
-38 -43 -49 -61 -62 0
-28 -30 -68 -70 -76 0
-31 -32 -41 -42 -83 0
-38 -43 -49 -61 -62 0
-28 -30 -68 -70 -76 0
-31 -32 -41 -42 -83 0
-39 -43 -50 -61 -62 0
-28 -30 -69 -70 -77 0
-31 -32 -41 -42 -84 0
-39 -43 -50 -61 -62 0
-28 -30 -69 -70 -77 0
-31 -32 -41 -42 -84 0
-34 -44 -45 -61 -63 0
-28 -30 -64 -71 -72 0
-31 -33 -41 -42 -85 0
-34 -44 -45 -61 -63 0
-28 -30 -64 -71 -72 0
-31 -33 -41 -42 -85 0
-35 -44 -46 -61 -63 0
-28 -30 -65 -71 -73 0
-31 -33 -41 -42 -86 0
-35 -44 -46 -61 -63 0
-28 -30 -65 -71 -73 0
-31 -33 -41 -42 -86 0
-36 -44 -47 -61 -63 0
-28 -30 -66 -71 -74 0
-31 -33 -41 -42 -87 0
-36 -44 -47 -61 -63 0
-28 -30 -66 -71 -74 0
-31 -33 -41 -42 -87 0
-37 -44 -48 -61 -63 0
-28 -30 -67 -71 -75 0
-31 -33 -41 -42 -88 0
-37 -44 -48 -61 -63 0
-28 -30 -67 -71 -75 0
-31 -33 -41 -42 -88 0
-38 -44 -49 -61 -63 0
-28 -30 -68 -71 -76 0
-31 -33 -41 -42 -89 0
-38 -44 -49 -61 -63 0
-28 -30 -68 -71 -76 0
-31 -33 -41 -42 -89 0
-39 -44 -50 -61 -63 0
-28 -30 -69 -71 -77 0
-31 -33 -41 -42 -90 0
-39 -44 -50 -61 -63 0
-28 -30 -69 -71 -77 0
-31 -33 -41 -42 -90 0
-35 -45 -46 -61 -64 0
-28 -30 -65 -72 -73 0
-31 -34 -41 -42 -91 0
-35 -45 -46 -61 -64 0
-28 -30 -65 -72 -73 0
-31 -34 -41 -42 -91 0
-36 -45 -47 -61 -64 0
-28 -30 -66 -72 -74 0
-31 -34 -41 -42 -92 0
-36 -45 -47 -61 -64 0
-28 -30 -66 -72 -74 0
-31 -34 -41 -42 -92 0
-37 -45 -48 -61 -64 0
-28 -30 -67 -72 -75 0
-31 -34 -41 -42 -93 0
-37 -45 -48 -61 -64 0
-28 -30 -67 -72 -75 0
-31 -34 -41 -42 -93 0
-38 -45 -49 -61 -64 0
-28 -30 -68 -72 -76 0
-31 -34 -41 -42 -94 0
-38 -45 -49 -61 -64 0
-28 -30 -68 -72 -76 0
-31 -34 -41 -42 -94 0
-39 -45 -50 -61 -64 0
-28 -30 -69 -72 -77 0
-31 -34 -41 -42 -95 0
-39 -45 -50 -61 -64 0
-28 -30 -69 -72 -77 0
-31 -34 -41 -42 -95 0
-36 -46 -47 -61 -65 0
-28 -30 -66 -73 -74 0
-31 -35 -41 -42 -96 0
-36 -46 -47 -61 -65 0
-28 -30 -66 -73 -74 0
-31 -35 -41 -42 -96 0
-37 -46 -48 -61 -65 0
-28 -30 -67 -73 -75 0
-31 -35 -41 -42 -97 0
-37 -46 -48 -61 -65 0
-28 -30 -67 -73 -75 0
-31 -35 -41 -42 -97 0
-38 -46 -49 -61 -65 0
-28 -30 -68 -73 -76 0
-31 -35 -41 -42 -98 0
-38 -46 -49 -61 -65 0
-28 -30 -68 -73 -76 0
-31 -35 -41 -42 -98 0
-39 -46 -50 -61 -65 0
-28 -30 -69 -73 -77 0
-31 -35 -41 -42 -99 0
-39 -46 -50 -61 -65 0
-28 -30 -69 -73 -77 0
-31 -35 -41 -42 -99 0
-37 -47 -48 -61 -66 0
-28 -30 -67 -74 -75 0
-31 -36 -41 -42 -100 0
-37 -47 -48 -61 -66 0
-28 -30 -67 -74 -75 0
-31 -36 -41 -42 -100 0
-38 -47 -49 -61 -66 0
-28 -30 -68 -74 -76 0
-31 -36 -41 -42 -101 0
-38 -47 -49 -61 -66 0
-28 -30 -68 -74 -76 0
-31 -36 -41 -42 -101 0
-39 -47 -50 -61 -66 0
-28 -30 -69 -74 -77 0
-31 -36 -41 -42 -102 0
-39 -47 -50 -61 -66 0
-28 -30 -69 -74 -77 0
-31 -36 -41 -42 -102 0
-38 -48 -49 -61 -67 0
-28 -30 -68 -75 -76 0
-31 -37 -41 -42 -103 0
-38 -48 -49 -61 -67 0
-28 -30 -68 -75 -76 0
-31 -37 -41 -42 -103 0
-39 -48 -50 -61 -67 0
-28 -30 -69 -75 -77 0
-31 -37 -41 -42 -104 0
-39 -48 -50 -61 -67 0
-28 -30 -69 -75 -77 0
-31 -37 -41 -42 -104 0
-39 -49 -50 -61 -68 0
-28 -30 -69 -76 -77 0
-31 -38 -41 -42 -105 0
-39 -49 -50 -61 -68 0
-28 -30 -69 -76 -77 0
-31 -38 -41 -42 -105 0
-34 -44 -45 -62 -63 0
-28 -30 -64 -78 -79 0
-32 -33 -41 -43 -85 0
-34 -44 -45 -62 -63 0
-28 -30 -64 -78 -79 0
-32 -33 -41 -43 -85 0
-35 -44 -46 -62 -63 0
-28 -30 -65 -78 -80 0
-32 -33 -41 -43 -86 0
-35 -44 -46 -62 -63 0
-28 -30 -65 -78 -80 0
-32 -33 -41 -43 -86 0
-36 -44 -47 -62 -63 0
-28 -30 -66 -78 -81 0
-32 -33 -41 -43 -87 0
-36 -44 -47 -62 -63 0
-28 -30 -66 -78 -81 0
-32 -33 -41 -43 -87 0
-37 -44 -48 -62 -63 0
-28 -30 -67 -78 -82 0
-32 -33 -41 -43 -88 0
-37 -44 -48 -62 -63 0
-28 -30 -67 -78 -82 0
-32 -33 -41 -43 -88 0
-38 -44 -49 -62 -63 0
-28 -30 -68 -78 -83 0
-32 -33 -41 -43 -89 0
-38 -44 -49 -62 -63 0
-28 -30 -68 -78 -83 0
-32 -33 -41 -43 -89 0
-39 -44 -50 -62 -63 0
-28 -30 -69 -78 -84 0
-32 -33 -41 -43 -90 0
-39 -44 -50 -62 -63 0
-28 -30 -69 -78 -84 0
-32 -33 -41 -43 -90 0
-35 -45 -46 -62 -64 0
-28 -30 -65 -79 -80 0
-32 -34 -41 -43 -91 0
-35 -45 -46 -62 -64 0
-28 -30 -65 -79 -80 0
-32 -34 -41 -43 -91 0
-36 -45 -47 -62 -64 0
-28 -30 -66 -79 -81 0
-32 -34 -41 -43 -92 0
-36 -45 -47 -62 -64 0
-28 -30 -66 -79 -81 0
-32 -34 -41 -43 -92 0
-37 -45 -48 -62 -64 0
-28 -30 -67 -79 -82 0
-32 -34 -41 -43 -93 0
-37 -45 -48 -62 -64 0
-28 -30 -67 -79 -82 0
-32 -34 -41 -43 -93 0
-38 -45 -49 -62 -64 0
-28 -30 -68 -79 -83 0
-32 -34 -41 -43 -94 0
-38 -45 -49 -62 -64 0
-28 -30 -68 -79 -83 0
-32 -34 -41 -43 -94 0
-39 -45 -50 -62 -64 0
-28 -30 -69 -79 -84 0
-32 -34 -41 -43 -95 0
-39 -45 -50 -62 -64 0
-28 -30 -69 -79 -84 0
-32 -34 -41 -43 -95 0
-36 -46 -47 -62 -65 0
-28 -30 -66 -80 -81 0
-32 -35 -41 -43 -96 0
-36 -46 -47 -62 -65 0
-28 -30 -66 -80 -81 0
-32 -35 -41 -43 -96 0
-37 -46 -48 -62 -65 0
-28 -30 -67 -80 -82 0
-32 -35 -41 -43 -97 0
-37 -46 -48 -62 -65 0
-28 -30 -67 -80 -82 0
-32 -35 -41 -43 -97 0
-38 -46 -49 -62 -65 0
-28 -30 -68 -80 -83 0
-32 -35 -41 -43 -98 0
-38 -46 -49 -62 -65 0
-28 -30 -68 -80 -83 0
-32 -35 -41 -43 -98 0
-39 -46 -50 -62 -65 0
-28 -30 -69 -80 -84 0
-32 -35 -41 -43 -99 0
-39 -46 -50 -62 -65 0
-28 -30 -69 -80 -84 0
-32 -35 -41 -43 -99 0
-37 -47 -48 -62 -66 0
-28 -30 -67 -81 -82 0
-32 -36 -41 -43 -100 0
-37 -47 -48 -62 -66 0
-28 -30 -67 -81 -82 0
-32 -36 -41 -43 -100 0
-38 -47 -49 -62 -66 0
-28 -30 -68 -81 -83 0
-32 -36 -41 -43 -101 0
-38 -47 -49 -62 -66 0
-28 -30 -68 -81 -83 0
-32 -36 -41 -43 -101 0
-39 -47 -50 -62 -66 0
-28 -30 -69 -81 -84 0
-32 -36 -41 -43 -102 0
-39 -47 -50 -62 -66 0
-28 -30 -69 -81 -84 0
-32 -36 -41 -43 -102 0
-38 -48 -49 -62 -67 0
-28 -30 -68 -82 -83 0
-32 -37 -41 -43 -103 0
-38 -48 -49 -62 -67 0
-28 -30 -68 -82 -83 0
-32 -37 -41 -43 -103 0
-39 -48 -50 -62 -67 0
-28 -30 -69 -82 -84 0
-32 -37 -41 -43 -104 0
-39 -48 -50 -62 -67 0
-28 -30 -69 -82 -84 0
-32 -37 -41 -43 -104 0
-39 -49 -50 -62 -68 0
-28 -30 -69 -83 -84 0
-32 -38 -41 -43 -105 0
-39 -49 -50 -62 -68 0
-28 -30 -69 -83 -84 0
-32 -38 -41 -43 -105 0
-35 -45 -46 -63 -64 0
-28 -30 -65 -85 -86 0
-33 -34 -41 -44 -91 0
-35 -45 -46 -63 -64 0
-28 -30 -65 -85 -86 0
-33 -34 -41 -44 -91 0
-36 -45 -47 -63 -64 0
-28 -30 -66 -85 -87 0
-33 -34 -41 -44 -92 0
-36 -45 -47 -63 -64 0
-28 -30 -66 -85 -87 0
-33 -34 -41 -44 -92 0
-37 -45 -48 -63 -64 0
-28 -30 -67 -85 -88 0
-33 -34 -41 -44 -93 0
-37 -45 -48 -63 -64 0
-28 -30 -67 -85 -88 0
-33 -34 -41 -44 -93 0
-38 -45 -49 -63 -64 0
-28 -30 -68 -85 -89 0
-33 -34 -41 -44 -94 0
-38 -45 -49 -63 -64 0
-28 -30 -68 -85 -89 0
-33 -34 -41 -44 -94 0
-39 -45 -50 -63 -64 0
-28 -30 -69 -85 -90 0
-33 -34 -41 -44 -95 0
-39 -45 -50 -63 -64 0
-28 -30 -69 -85 -90 0
-33 -34 -41 -44 -95 0
-36 -46 -47 -63 -65 0
-28 -30 -66 -86 -87 0
-33 -35 -41 -44 -96 0
-36 -46 -47 -63 -65 0
-28 -30 -66 -86 -87 0
-33 -35 -41 -44 -96 0
-37 -46 -48 -63 -65 0
-28 -30 -67 -86 -88 0
-33 -35 -41 -44 -97 0
-37 -46 -48 -63 -65 0
-28 -30 -67 -86 -88 0
-33 -35 -41 -44 -97 0
-38 -46 -49 -63 -65 0
-28 -30 -68 -86 -89 0
-33 -35 -41 -44 -98 0
-38 -46 -49 -63 -65 0
-28 -30 -68 -86 -89 0
-33 -35 -41 -44 -98 0
-39 -46 -50 -63 -65 0
-28 -30 -69 -86 -90 0
-33 -35 -41 -44 -99 0
-39 -46 -50 -63 -65 0
-28 -30 -69 -86 -90 0
-33 -35 -41 -44 -99 0
-37 -47 -48 -63 -66 0
-28 -30 -67 -87 -88 0
-33 -36 -41 -44 -100 0
-37 -47 -48 -63 -66 0
-28 -30 -67 -87 -88 0
-33 -36 -41 -44 -100 0
-38 -47 -49 -63 -66 0
-28 -30 -68 -87 -89 0
-33 -36 -41 -44 -101 0
-38 -47 -49 -63 -66 0
-28 -30 -68 -87 -89 0
-33 -36 -41 -44 -101 0
-39 -47 -50 -63 -66 0
-28 -30 -69 -87 -90 0
-33 -36 -41 -44 -102 0
-39 -47 -50 -63 -66 0
-28 -30 -69 -87 -90 0
-33 -36 -41 -44 -102 0
-38 -48 -49 -63 -67 0
-28 -30 -68 -88 -89 0
-33 -37 -41 -44 -103 0
-38 -48 -49 -63 -67 0
-28 -30 -68 -88 -89 0
-33 -37 -41 -44 -103 0
-39 -48 -50 -63 -67 0
-28 -30 -69 -88 -90 0
-33 -37 -41 -44 -104 0
-39 -48 -50 -63 -67 0
-28 -30 -69 -88 -90 0
-33 -37 -41 -44 -104 0
-39 -49 -50 -63 -68 0
-28 -30 -69 -89 -90 0
-33 -38 -41 -44 -105 0
-39 -49 -50 -63 -68 0
-28 -30 -69 -89 -90 0
-33 -38 -41 -44 -105 0
-36 -46 -47 -64 -65 0
-28 -30 -66 -91 -92 0
-34 -35 -41 -45 -96 0
-36 -46 -47 -64 -65 0
-28 -30 -66 -91 -92 0
-34 -35 -41 -45 -96 0
-37 -46 -48 -64 -65 0
-28 -30 -67 -91 -93 0
-34 -35 -41 -45 -97 0
-37 -46 -48 -64 -65 0
-28 -30 -67 -91 -93 0
-34 -35 -41 -45 -97 0
-38 -46 -49 -64 -65 0
-28 -30 -68 -91 -94 0
-34 -35 -41 -45 -98 0
-38 -46 -49 -64 -65 0
-28 -30 -68 -91 -94 0
-34 -35 -41 -45 -98 0
-39 -46 -50 -64 -65 0
-28 -30 -69 -91 -95 0
-34 -35 -41 -45 -99 0
-39 -46 -50 -64 -65 0
-28 -30 -69 -91 -95 0
-34 -35 -41 -45 -99 0
-37 -47 -48 -64 -66 0
-28 -30 -67 -92 -93 0
-34 -36 -41 -45 -100 0
-37 -47 -48 -64 -66 0
-28 -30 -67 -92 -93 0
-34 -36 -41 -45 -100 0
-38 -47 -49 -64 -66 0
-28 -30 -68 -92 -94 0
-34 -36 -41 -45 -101 0
-38 -47 -49 -64 -66 0
-28 -30 -68 -92 -94 0
-34 -36 -41 -45 -101 0
-39 -47 -50 -64 -66 0
-28 -30 -69 -92 -95 0
-34 -36 -41 -45 -102 0
-39 -47 -50 -64 -66 0
-28 -30 -69 -92 -95 0
-34 -36 -41 -45 -102 0
-38 -48 -49 -64 -67 0
-28 -30 -68 -93 -94 0
-34 -37 -41 -45 -103 0
-38 -48 -49 -64 -67 0
-28 -30 -68 -93 -94 0
-34 -37 -41 -45 -103 0
-39 -48 -50 -64 -67 0
-28 -30 -69 -93 -95 0
-34 -37 -41 -45 -104 0
-39 -48 -50 -64 -67 0
-28 -30 -69 -93 -95 0
-34 -37 -41 -45 -104 0
-39 -49 -50 -64 -68 0
-28 -30 -69 -94 -95 0
-34 -38 -41 -45 -105 0
-39 -49 -50 -64 -68 0
-28 -30 -69 -94 -95 0
-34 -38 -41 -45 -105 0
-37 -47 -48 -65 -66 0
-28 -30 -67 -96 -97 0
-35 -36 -41 -46 -100 0
-37 -47 -48 -65 -66 0
-28 -30 -67 -96 -97 0
-35 -36 -41 -46 -100 0
-38 -47 -49 -65 -66 0
-28 -30 -68 -96 -98 0
-35 -36 -41 -46 -101 0
-38 -47 -49 -65 -66 0
-28 -30 -68 -96 -98 0
-35 -36 -41 -46 -101 0
-39 -47 -50 -65 -66 0
-28 -30 -69 -96 -99 0
-35 -36 -41 -46 -102 0
-39 -47 -50 -65 -66 0
-28 -30 -69 -96 -99 0
-35 -36 -41 -46 -102 0
-38 -48 -49 -65 -67 0
-28 -30 -68 -97 -98 0
-35 -37 -41 -46 -103 0
-38 -48 -49 -65 -67 0
-28 -30 -68 -97 -98 0
-35 -37 -41 -46 -103 0
-39 -48 -50 -65 -67 0
-28 -30 -69 -97 -99 0
-35 -37 -41 -46 -104 0
-39 -48 -50 -65 -67 0
-28 -30 -69 -97 -99 0
-35 -37 -41 -46 -104 0
-39 -49 -50 -65 -68 0
-28 -30 -69 -98 -99 0
-35 -38 -41 -46 -105 0
-39 -49 -50 -65 -68 0
-28 -30 -69 -98 -99 0
-35 -38 -41 -46 -105 0
-38 -48 -49 -66 -67 0
-28 -30 -68 -100 -101 0
-36 -37 -41 -47 -103 0
-38 -48 -49 -66 -67 0
-28 -30 -68 -100 -101 0
-36 -37 -41 -47 -103 0
-39 -48 -50 -66 -67 0
-28 -30 -69 -100 -102 0
-36 -37 -41 -47 -104 0
-39 -48 -50 -66 -67 0
-28 -30 -69 -100 -102 0
-36 -37 -41 -47 -104 0
-39 -49 -50 -66 -68 0
-28 -30 -69 -101 -102 0
-36 -38 -41 -47 -105 0
-39 -49 -50 -66 -68 0
-28 -30 -69 -101 -102 0
-36 -38 -41 -47 -105 0
-39 -49 -50 -67 -68 0
-28 -30 -69 -103 -104 0
-37 -38 -41 -48 -105 0
-39 -49 -50 -67 -68 0
-28 -30 -69 -103 -104 0
-37 -38 -41 -48 -105 0
-34 -44 -45 -70 -71 0
-28 -31 -72 -78 -79 0
-32 -33 -42 -43 -85 0
-34 -44 -45 -70 -71 0
-28 -31 -72 -78 -79 0
-32 -33 -42 -43 -85 0
-35 -44 -46 -70 -71 0
-28 -31 -73 -78 -80 0
-32 -33 -42 -43 -86 0
-35 -44 -46 -70 -71 0
-28 -31 -73 -78 -80 0
-32 -33 -42 -43 -86 0
-36 -44 -47 -70 -71 0
-28 -31 -74 -78 -81 0
-32 -33 -42 -43 -87 0
-36 -44 -47 -70 -71 0
-28 -31 -74 -78 -81 0
-32 -33 -42 -43 -87 0
-37 -44 -48 -70 -71 0
-28 -31 -75 -78 -82 0
-32 -33 -42 -43 -88 0
-37 -44 -48 -70 -71 0
-28 -31 -75 -78 -82 0
-32 -33 -42 -43 -88 0
-38 -44 -49 -70 -71 0
-28 -31 -76 -78 -83 0
-32 -33 -42 -43 -89 0
-38 -44 -49 -70 -71 0
-28 -31 -76 -78 -83 0
-32 -33 -42 -43 -89 0
-39 -44 -50 -70 -71 0
-28 -31 -77 -78 -84 0
-32 -33 -42 -43 -90 0
-39 -44 -50 -70 -71 0
-28 -31 -77 -78 -84 0
-32 -33 -42 -43 -90 0
-35 -45 -46 -70 -72 0
-28 -31 -73 -79 -80 0
-32 -34 -42 -43 -91 0
-35 -45 -46 -70 -72 0
-28 -31 -73 -79 -80 0
-32 -34 -42 -43 -91 0
-36 -45 -47 -70 -72 0
-28 -31 -74 -79 -81 0
-32 -34 -42 -43 -92 0
-36 -45 -47 -70 -72 0
-28 -31 -74 -79 -81 0
-32 -34 -42 -43 -92 0
-37 -45 -48 -70 -72 0
-28 -31 -75 -79 -82 0
-32 -34 -42 -43 -93 0
-37 -45 -48 -70 -72 0
-28 -31 -75 -79 -82 0
-32 -34 -42 -43 -93 0
-38 -45 -49 -70 -72 0
-28 -31 -76 -79 -83 0
-32 -34 -42 -43 -94 0
-38 -45 -49 -70 -72 0
-28 -31 -76 -79 -83 0
-32 -34 -42 -43 -94 0
-39 -45 -50 -70 -72 0
-28 -31 -77 -79 -84 0
-32 -34 -42 -43 -95 0
-39 -45 -50 -70 -72 0
-28 -31 -77 -79 -84 0
-32 -34 -42 -43 -95 0
-36 -46 -47 -70 -73 0
-28 -31 -74 -80 -81 0
-32 -35 -42 -43 -96 0
-36 -46 -47 -70 -73 0
-28 -31 -74 -80 -81 0
-32 -35 -42 -43 -96 0
-37 -46 -48 -70 -73 0
-28 -31 -75 -80 -82 0
-32 -35 -42 -43 -97 0
-37 -46 -48 -70 -73 0
-28 -31 -75 -80 -82 0
-32 -35 -42 -43 -97 0
-38 -46 -49 -70 -73 0
-28 -31 -76 -80 -83 0
-32 -35 -42 -43 -98 0
-38 -46 -49 -70 -73 0
-28 -31 -76 -80 -83 0
-32 -35 -42 -43 -98 0
-39 -46 -50 -70 -73 0
-28 -31 -77 -80 -84 0
-32 -35 -42 -43 -99 0
-39 -46 -50 -70 -73 0
-28 -31 -77 -80 -84 0
-32 -35 -42 -43 -99 0
-37 -47 -48 -70 -74 0
-28 -31 -75 -81 -82 0
-32 -36 -42 -43 -100 0
-37 -47 -48 -70 -74 0
-28 -31 -75 -81 -82 0
-32 -36 -42 -43 -100 0
-38 -47 -49 -70 -74 0
-28 -31 -76 -81 -83 0
-32 -36 -42 -43 -101 0
-38 -47 -49 -70 -74 0
-28 -31 -76 -81 -83 0
-32 -36 -42 -43 -101 0
-39 -47 -50 -70 -74 0
-28 -31 -77 -81 -84 0
-32 -36 -42 -43 -102 0
-39 -47 -50 -70 -74 0
-28 -31 -77 -81 -84 0
-32 -36 -42 -43 -102 0
-38 -48 -49 -70 -75 0
-28 -31 -76 -82 -83 0
-32 -37 -42 -43 -103 0
-38 -48 -49 -70 -75 0
-28 -31 -76 -82 -83 0
-32 -37 -42 -43 -103 0
-39 -48 -50 -70 -75 0
-28 -31 -77 -82 -84 0
-32 -37 -42 -43 -104 0
-39 -48 -50 -70 -75 0
-28 -31 -77 -82 -84 0
-32 -37 -42 -43 -104 0
-39 -49 -50 -70 -76 0
-28 -31 -77 -83 -84 0
-32 -38 -42 -43 -105 0
-39 -49 -50 -70 -76 0
-28 -31 -77 -83 -84 0
-32 -38 -42 -43 -105 0
-35 -45 -46 -71 -72 0
-28 -31 -73 -85 -86 0
-33 -34 -42 -44 -91 0
-35 -45 -46 -71 -72 0
-28 -31 -73 -85 -86 0
-33 -34 -42 -44 -91 0
-36 -45 -47 -71 -72 0
-28 -31 -74 -85 -87 0
-33 -34 -42 -44 -92 0
-36 -45 -47 -71 -72 0
-28 -31 -74 -85 -87 0
-33 -34 -42 -44 -92 0
-37 -45 -48 -71 -72 0
-28 -31 -75 -85 -88 0
-33 -34 -42 -44 -93 0
-37 -45 -48 -71 -72 0
-28 -31 -75 -85 -88 0
-33 -34 -42 -44 -93 0
-38 -45 -49 -71 -72 0
-28 -31 -76 -85 -89 0
-33 -34 -42 -44 -94 0
-38 -45 -49 -71 -72 0
-28 -31 -76 -85 -89 0
-33 -34 -42 -44 -94 0
-39 -45 -50 -71 -72 0
-28 -31 -77 -85 -90 0
-33 -34 -42 -44 -95 0
-39 -45 -50 -71 -72 0
-28 -31 -77 -85 -90 0
-33 -34 -42 -44 -95 0
-36 -46 -47 -71 -73 0
-28 -31 -74 -86 -87 0
-33 -35 -42 -44 -96 0
-36 -46 -47 -71 -73 0
-28 -31 -74 -86 -87 0
-33 -35 -42 -44 -96 0
-37 -46 -48 -71 -73 0
-28 -31 -75 -86 -88 0
-33 -35 -42 -44 -97 0
-37 -46 -48 -71 -73 0
-28 -31 -75 -86 -88 0
-33 -35 -42 -44 -97 0
-38 -46 -49 -71 -73 0
-28 -31 -76 -86 -89 0
-33 -35 -42 -44 -98 0
-38 -46 -49 -71 -73 0
-28 -31 -76 -86 -89 0
-33 -35 -42 -44 -98 0
-39 -46 -50 -71 -73 0
-28 -31 -77 -86 -90 0
-33 -35 -42 -44 -99 0
-39 -46 -50 -71 -73 0
-28 -31 -77 -86 -90 0
-33 -35 -42 -44 -99 0
-37 -47 -48 -71 -74 0
-28 -31 -75 -87 -88 0
-33 -36 -42 -44 -100 0
-37 -47 -48 -71 -74 0
-28 -31 -75 -87 -88 0
-33 -36 -42 -44 -100 0
-38 -47 -49 -71 -74 0
-28 -31 -76 -87 -89 0
-33 -36 -42 -44 -101 0
-38 -47 -49 -71 -74 0
-28 -31 -76 -87 -89 0
-33 -36 -42 -44 -101 0
-39 -47 -50 -71 -74 0
-28 -31 -77 -87 -90 0
-33 -36 -42 -44 -102 0
-39 -47 -50 -71 -74 0
-28 -31 -77 -87 -90 0
-33 -36 -42 -44 -102 0
-38 -48 -49 -71 -75 0
-28 -31 -76 -88 -89 0
-33 -37 -42 -44 -103 0
-38 -48 -49 -71 -75 0
-28 -31 -76 -88 -89 0
-33 -37 -42 -44 -103 0
-39 -48 -50 -71 -75 0
-28 -31 -77 -88 -90 0
-33 -37 -42 -44 -104 0
-39 -48 -50 -71 -75 0
-28 -31 -77 -88 -90 0
-33 -37 -42 -44 -104 0
-39 -49 -50 -71 -76 0
-28 -31 -77 -89 -90 0
-33 -38 -42 -44 -105 0
-39 -49 -50 -71 -76 0
-28 -31 -77 -89 -90 0
-33 -38 -42 -44 -105 0
-36 -46 -47 -72 -73 0
-28 -31 -74 -91 -92 0
-34 -35 -42 -45 -96 0
-36 -46 -47 -72 -73 0
-28 -31 -74 -91 -92 0
-34 -35 -42 -45 -96 0
-37 -46 -48 -72 -73 0
-28 -31 -75 -91 -93 0
-34 -35 -42 -45 -97 0
-37 -46 -48 -72 -73 0
-28 -31 -75 -91 -93 0
-34 -35 -42 -45 -97 0
-38 -46 -49 -72 -73 0
-28 -31 -76 -91 -94 0
-34 -35 -42 -45 -98 0
-38 -46 -49 -72 -73 0
-28 -31 -76 -91 -94 0
-34 -35 -42 -45 -98 0
-39 -46 -50 -72 -73 0
-28 -31 -77 -91 -95 0
-34 -35 -42 -45 -99 0
-39 -46 -50 -72 -73 0
-28 -31 -77 -91 -95 0
-34 -35 -42 -45 -99 0
-37 -47 -48 -72 -74 0
-28 -31 -75 -92 -93 0
-34 -36 -42 -45 -100 0
-37 -47 -48 -72 -74 0
-28 -31 -75 -92 -93 0
-34 -36 -42 -45 -100 0
-38 -47 -49 -72 -74 0
-28 -31 -76 -92 -94 0
-34 -36 -42 -45 -101 0
-38 -47 -49 -72 -74 0
-28 -31 -76 -92 -94 0
-34 -36 -42 -45 -101 0
-39 -47 -50 -72 -74 0
-28 -31 -77 -92 -95 0
-34 -36 -42 -45 -102 0
-39 -47 -50 -72 -74 0
-28 -31 -77 -92 -95 0
-34 -36 -42 -45 -102 0
-38 -48 -49 -72 -75 0
-28 -31 -76 -93 -94 0
-34 -37 -42 -45 -103 0
-38 -48 -49 -72 -75 0
-28 -31 -76 -93 -94 0
-34 -37 -42 -45 -103 0
-39 -48 -50 -72 -75 0
-28 -31 -77 -93 -95 0
-34 -37 -42 -45 -104 0
-39 -48 -50 -72 -75 0
-28 -31 -77 -93 -95 0
-34 -37 -42 -45 -104 0
-39 -49 -50 -72 -76 0
-28 -31 -77 -94 -95 0
-34 -38 -42 -45 -105 0
-39 -49 -50 -72 -76 0
-28 -31 -77 -94 -95 0
-34 -38 -42 -45 -105 0
-37 -47 -48 -73 -74 0
-28 -31 -75 -96 -97 0
-35 -36 -42 -46 -100 0
-37 -47 -48 -73 -74 0
-28 -31 -75 -96 -97 0
-35 -36 -42 -46 -100 0
-38 -47 -49 -73 -74 0
-28 -31 -76 -96 -98 0
-35 -36 -42 -46 -101 0
-38 -47 -49 -73 -74 0
-28 -31 -76 -96 -98 0
-35 -36 -42 -46 -101 0
-39 -47 -50 -73 -74 0
-28 -31 -77 -96 -99 0
-35 -36 -42 -46 -102 0
-39 -47 -50 -73 -74 0
-28 -31 -77 -96 -99 0
-35 -36 -42 -46 -102 0
-38 -48 -49 -73 -75 0
-28 -31 -76 -97 -98 0
-35 -37 -42 -46 -103 0
-38 -48 -49 -73 -75 0
-28 -31 -76 -97 -98 0
-35 -37 -42 -46 -103 0
-39 -48 -50 -73 -75 0
-28 -31 -77 -97 -99 0
-35 -37 -42 -46 -104 0
-39 -48 -50 -73 -75 0
-28 -31 -77 -97 -99 0
-35 -37 -42 -46 -104 0
-39 -49 -50 -73 -76 0
-28 -31 -77 -98 -99 0
-35 -38 -42 -46 -105 0
-39 -49 -50 -73 -76 0
-28 -31 -77 -98 -99 0
-35 -38 -42 -46 -105 0
-38 -48 -49 -74 -75 0
-28 -31 -76 -100 -101 0
-36 -37 -42 -47 -103 0
-38 -48 -49 -74 -75 0
-28 -31 -76 -100 -101 0
-36 -37 -42 -47 -103 0
-39 -48 -50 -74 -75 0
-28 -31 -77 -100 -102 0
-36 -37 -42 -47 -104 0
-39 -48 -50 -74 -75 0
-28 -31 -77 -100 -102 0
-36 -37 -42 -47 -104 0
-39 -49 -50 -74 -76 0
-28 -31 -77 -101 -102 0
-36 -38 -42 -47 -105 0
-39 -49 -50 -74 -76 0
-28 -31 -77 -101 -102 0
-36 -38 -42 -47 -105 0
-39 -49 -50 -75 -76 0
-28 -31 -77 -103 -104 0
-37 -38 -42 -48 -105 0
-39 -49 -50 -75 -76 0
-28 -31 -77 -103 -104 0
-37 -38 -42 -48 -105 0
-35 -45 -46 -78 -79 0
-28 -32 -80 -85 -86 0
-33 -34 -43 -44 -91 0
-35 -45 -46 -78 -79 0
-28 -32 -80 -85 -86 0
-33 -34 -43 -44 -91 0
-36 -45 -47 -78 -79 0
-28 -32 -81 -85 -87 0
-33 -34 -43 -44 -92 0
-36 -45 -47 -78 -79 0
-28 -32 -81 -85 -87 0
-33 -34 -43 -44 -92 0
-37 -45 -48 -78 -79 0
-28 -32 -82 -85 -88 0
-33 -34 -43 -44 -93 0
-37 -45 -48 -78 -79 0
-28 -32 -82 -85 -88 0
-33 -34 -43 -44 -93 0
-38 -45 -49 -78 -79 0
-28 -32 -83 -85 -89 0
-33 -34 -43 -44 -94 0
-38 -45 -49 -78 -79 0
-28 -32 -83 -85 -89 0
-33 -34 -43 -44 -94 0
-39 -45 -50 -78 -79 0
-28 -32 -84 -85 -90 0
-33 -34 -43 -44 -95 0
-39 -45 -50 -78 -79 0
-28 -32 -84 -85 -90 0
-33 -34 -43 -44 -95 0
-36 -46 -47 -78 -80 0
-28 -32 -81 -86 -87 0
-33 -35 -43 -44 -96 0
-36 -46 -47 -78 -80 0
-28 -32 -81 -86 -87 0
-33 -35 -43 -44 -96 0
-37 -46 -48 -78 -80 0
-28 -32 -82 -86 -88 0
-33 -35 -43 -44 -97 0
-37 -46 -48 -78 -80 0
-28 -32 -82 -86 -88 0
-33 -35 -43 -44 -97 0
-38 -46 -49 -78 -80 0
-28 -32 -83 -86 -89 0
-33 -35 -43 -44 -98 0
-38 -46 -49 -78 -80 0
-28 -32 -83 -86 -89 0
-33 -35 -43 -44 -98 0
-39 -46 -50 -78 -80 0
-28 -32 -84 -86 -90 0
-33 -35 -43 -44 -99 0
-39 -46 -50 -78 -80 0
-28 -32 -84 -86 -90 0
-33 -35 -43 -44 -99 0
-37 -47 -48 -78 -81 0
-28 -32 -82 -87 -88 0
-33 -36 -43 -44 -100 0
-37 -47 -48 -78 -81 0
-28 -32 -82 -87 -88 0
-33 -36 -43 -44 -100 0
-38 -47 -49 -78 -81 0
-28 -32 -83 -87 -89 0
-33 -36 -43 -44 -101 0
-38 -47 -49 -78 -81 0
-28 -32 -83 -87 -89 0
-33 -36 -43 -44 -101 0
-39 -47 -50 -78 -81 0
-28 -32 -84 -87 -90 0
-33 -36 -43 -44 -102 0
-39 -47 -50 -78 -81 0
-28 -32 -84 -87 -90 0
-33 -36 -43 -44 -102 0
-38 -48 -49 -78 -82 0
-28 -32 -83 -88 -89 0
-33 -37 -43 -44 -103 0
-38 -48 -49 -78 -82 0
-28 -32 -83 -88 -89 0
-33 -37 -43 -44 -103 0
-39 -48 -50 -78 -82 0
-28 -32 -84 -88 -90 0
-33 -37 -43 -44 -104 0
-39 -48 -50 -78 -82 0
-28 -32 -84 -88 -90 0
-33 -37 -43 -44 -104 0
-39 -49 -50 -78 -83 0
-28 -32 -84 -89 -90 0
-33 -38 -43 -44 -105 0
-39 -49 -50 -78 -83 0
-28 -32 -84 -89 -90 0
-33 -38 -43 -44 -105 0
-36 -46 -47 -79 -80 0
-28 -32 -81 -91 -92 0
-34 -35 -43 -45 -96 0
-36 -46 -47 -79 -80 0
-28 -32 -81 -91 -92 0
-34 -35 -43 -45 -96 0
-37 -46 -48 -79 -80 0
-28 -32 -82 -91 -93 0
-34 -35 -43 -45 -97 0
-37 -46 -48 -79 -80 0
-28 -32 -82 -91 -93 0
-34 -35 -43 -45 -97 0
-38 -46 -49 -79 -80 0
-28 -32 -83 -91 -94 0
-34 -35 -43 -45 -98 0
-38 -46 -49 -79 -80 0
-28 -32 -83 -91 -94 0
-34 -35 -43 -45 -98 0
-39 -46 -50 -79 -80 0
-28 -32 -84 -91 -95 0
-34 -35 -43 -45 -99 0
-39 -46 -50 -79 -80 0
-28 -32 -84 -91 -95 0
-34 -35 -43 -45 -99 0
-37 -47 -48 -79 -81 0
-28 -32 -82 -92 -93 0
-34 -36 -43 -45 -100 0
-37 -47 -48 -79 -81 0
-28 -32 -82 -92 -93 0
-34 -36 -43 -45 -100 0
-38 -47 -49 -79 -81 0
-28 -32 -83 -92 -94 0
-34 -36 -43 -45 -101 0
-38 -47 -49 -79 -81 0
-28 -32 -83 -92 -94 0
-34 -36 -43 -45 -101 0
-39 -47 -50 -79 -81 0
-28 -32 -84 -92 -95 0
-34 -36 -43 -45 -102 0
-39 -47 -50 -79 -81 0
-28 -32 -84 -92 -95 0
-34 -36 -43 -45 -102 0
-38 -48 -49 -79 -82 0
-28 -32 -83 -93 -94 0
-34 -37 -43 -45 -103 0
-38 -48 -49 -79 -82 0
-28 -32 -83 -93 -94 0
-34 -37 -43 -45 -103 0
-39 -48 -50 -79 -82 0
-28 -32 -84 -93 -95 0
-34 -37 -43 -45 -104 0
-39 -48 -50 -79 -82 0
-28 -32 -84 -93 -95 0
-34 -37 -43 -45 -104 0
-39 -49 -50 -79 -83 0
-28 -32 -84 -94 -95 0
-34 -38 -43 -45 -105 0
-39 -49 -50 -79 -83 0
-28 -32 -84 -94 -95 0
-34 -38 -43 -45 -105 0
-37 -47 -48 -80 -81 0
-28 -32 -82 -96 -97 0
-35 -36 -43 -46 -100 0
-37 -47 -48 -80 -81 0
-28 -32 -82 -96 -97 0
-35 -36 -43 -46 -100 0
-38 -47 -49 -80 -81 0
-28 -32 -83 -96 -98 0
-35 -36 -43 -46 -101 0
-38 -47 -49 -80 -81 0
-28 -32 -83 -96 -98 0
-35 -36 -43 -46 -101 0
-39 -47 -50 -80 -81 0
-28 -32 -84 -96 -99 0
-35 -36 -43 -46 -102 0
-39 -47 -50 -80 -81 0
-28 -32 -84 -96 -99 0
-35 -36 -43 -46 -102 0
-38 -48 -49 -80 -82 0
-28 -32 -83 -97 -98 0
-35 -37 -43 -46 -103 0
-38 -48 -49 -80 -82 0
-28 -32 -83 -97 -98 0
-35 -37 -43 -46 -103 0
-39 -48 -50 -80 -82 0
-28 -32 -84 -97 -99 0
-35 -37 -43 -46 -104 0
-39 -48 -50 -80 -82 0
-28 -32 -84 -97 -99 0
-35 -37 -43 -46 -104 0
-39 -49 -50 -80 -83 0
-28 -32 -84 -98 -99 0
-35 -38 -43 -46 -105 0
-39 -49 -50 -80 -83 0
-28 -32 -84 -98 -99 0
-35 -38 -43 -46 -105 0
-38 -48 -49 -81 -82 0
-28 -32 -83 -100 -101 0
-36 -37 -43 -47 -103 0
-38 -48 -49 -81 -82 0
-28 -32 -83 -100 -101 0
-36 -37 -43 -47 -103 0
-39 -48 -50 -81 -82 0
-28 -32 -84 -100 -102 0
-36 -37 -43 -47 -104 0
-39 -48 -50 -81 -82 0
-28 -32 -84 -100 -102 0
-36 -37 -43 -47 -104 0
-39 -49 -50 -81 -83 0
-28 -32 -84 -101 -102 0
-36 -38 -43 -47 -105 0
-39 -49 -50 -81 -83 0
-28 -32 -84 -101 -102 0
-36 -38 -43 -47 -105 0
-39 -49 -50 -82 -83 0
-28 -32 -84 -103 -104 0
-37 -38 -43 -48 -105 0
-39 -49 -50 -82 -83 0
-28 -32 -84 -103 -104 0
-37 -38 -43 -48 -105 0
-36 -46 -47 -85 -86 0
-28 -33 -87 -91 -92 0
-34 -35 -44 -45 -96 0
-36 -46 -47 -85 -86 0
-28 -33 -87 -91 -92 0
-34 -35 -44 -45 -96 0
-37 -46 -48 -85 -86 0
-28 -33 -88 -91 -93 0
-34 -35 -44 -45 -97 0
-37 -46 -48 -85 -86 0
-28 -33 -88 -91 -93 0
-34 -35 -44 -45 -97 0
-38 -46 -49 -85 -86 0
-28 -33 -89 -91 -94 0
-34 -35 -44 -45 -98 0
-38 -46 -49 -85 -86 0
-28 -33 -89 -91 -94 0
-34 -35 -44 -45 -98 0
-39 -46 -50 -85 -86 0
-28 -33 -90 -91 -95 0
-34 -35 -44 -45 -99 0
-39 -46 -50 -85 -86 0
-28 -33 -90 -91 -95 0
-34 -35 -44 -45 -99 0
-37 -47 -48 -85 -87 0
-28 -33 -88 -92 -93 0
-34 -36 -44 -45 -100 0
-37 -47 -48 -85 -87 0
-28 -33 -88 -92 -93 0
-34 -36 -44 -45 -100 0
-38 -47 -49 -85 -87 0
-28 -33 -89 -92 -94 0
-34 -36 -44 -45 -101 0
-38 -47 -49 -85 -87 0
-28 -33 -89 -92 -94 0
-34 -36 -44 -45 -101 0
-39 -47 -50 -85 -87 0
-28 -33 -90 -92 -95 0
-34 -36 -44 -45 -102 0
-39 -47 -50 -85 -87 0
-28 -33 -90 -92 -95 0
-34 -36 -44 -45 -102 0
-38 -48 -49 -85 -88 0
-28 -33 -89 -93 -94 0
-34 -37 -44 -45 -103 0
-38 -48 -49 -85 -88 0
-28 -33 -89 -93 -94 0
-34 -37 -44 -45 -103 0
-39 -48 -50 -85 -88 0
-28 -33 -90 -93 -95 0
-34 -37 -44 -45 -104 0
-39 -48 -50 -85 -88 0
-28 -33 -90 -93 -95 0
-34 -37 -44 -45 -104 0
-39 -49 -50 -85 -89 0
-28 -33 -90 -94 -95 0
-34 -38 -44 -45 -105 0
-39 -49 -50 -85 -89 0
-28 -33 -90 -94 -95 0
-34 -38 -44 -45 -105 0
-37 -47 -48 -86 -87 0
-28 -33 -88 -96 -97 0
-35 -36 -44 -46 -100 0
-37 -47 -48 -86 -87 0
-28 -33 -88 -96 -97 0
-35 -36 -44 -46 -100 0
-38 -47 -49 -86 -87 0
-28 -33 -89 -96 -98 0
-35 -36 -44 -46 -101 0
-38 -47 -49 -86 -87 0
-28 -33 -89 -96 -98 0
-35 -36 -44 -46 -101 0
-39 -47 -50 -86 -87 0
-28 -33 -90 -96 -99 0
-35 -36 -44 -46 -102 0
-39 -47 -50 -86 -87 0
-28 -33 -90 -96 -99 0
-35 -36 -44 -46 -102 0
-38 -48 -49 -86 -88 0
-28 -33 -89 -97 -98 0
-35 -37 -44 -46 -103 0
-38 -48 -49 -86 -88 0
-28 -33 -89 -97 -98 0
-35 -37 -44 -46 -103 0
-39 -48 -50 -86 -88 0
-28 -33 -90 -97 -99 0
-35 -37 -44 -46 -104 0
-39 -48 -50 -86 -88 0
-28 -33 -90 -97 -99 0
-35 -37 -44 -46 -104 0
-39 -49 -50 -86 -89 0
-28 -33 -90 -98 -99 0
-35 -38 -44 -46 -105 0
-39 -49 -50 -86 -89 0
-28 -33 -90 -98 -99 0
-35 -38 -44 -46 -105 0
-38 -48 -49 -87 -88 0
-28 -33 -89 -100 -101 0
-36 -37 -44 -47 -103 0
-38 -48 -49 -87 -88 0
-28 -33 -89 -100 -101 0
-36 -37 -44 -47 -103 0
-39 -48 -50 -87 -88 0
-28 -33 -90 -100 -102 0
-36 -37 -44 -47 -104 0
-39 -48 -50 -87 -88 0
-28 -33 -90 -100 -102 0
-36 -37 -44 -47 -104 0
-39 -49 -50 -87 -89 0
-28 -33 -90 -101 -102 0
-36 -38 -44 -47 -105 0
-39 -49 -50 -87 -89 0
-28 -33 -90 -101 -102 0
-36 -38 -44 -47 -105 0
-39 -49 -50 -88 -89 0
-28 -33 -90 -103 -104 0
-37 -38 -44 -48 -105 0
-39 -49 -50 -88 -89 0
-28 -33 -90 -103 -104 0
-37 -38 -44 -48 -105 0
-37 -47 -48 -91 -92 0
-28 -34 -93 -96 -97 0
-35 -36 -45 -46 -100 0
-37 -47 -48 -91 -92 0
-28 -34 -93 -96 -97 0
-35 -36 -45 -46 -100 0
-38 -47 -49 -91 -92 0
-28 -34 -94 -96 -98 0
-35 -36 -45 -46 -101 0
-38 -47 -49 -91 -92 0
-28 -34 -94 -96 -98 0
-35 -36 -45 -46 -101 0
-39 -47 -50 -91 -92 0
-28 -34 -95 -96 -99 0
-35 -36 -45 -46 -102 0
-39 -47 -50 -91 -92 0
-28 -34 -95 -96 -99 0
-35 -36 -45 -46 -102 0
-38 -48 -49 -91 -93 0
-28 -34 -94 -97 -98 0
-35 -37 -45 -46 -103 0
-38 -48 -49 -91 -93 0
-28 -34 -94 -97 -98 0
-35 -37 -45 -46 -103 0
-39 -48 -50 -91 -93 0
-28 -34 -95 -97 -99 0
-35 -37 -45 -46 -104 0
-39 -48 -50 -91 -93 0
-28 -34 -95 -97 -99 0
-35 -37 -45 -46 -104 0
-39 -49 -50 -91 -94 0
-28 -34 -95 -98 -99 0
-35 -38 -45 -46 -105 0
-39 -49 -50 -91 -94 0
-28 -34 -95 -98 -99 0
-35 -38 -45 -46 -105 0
-38 -48 -49 -92 -93 0
-28 -34 -94 -100 -101 0
-36 -37 -45 -47 -103 0
-38 -48 -49 -92 -93 0
-28 -34 -94 -100 -101 0
-36 -37 -45 -47 -103 0
-39 -48 -50 -92 -93 0
-28 -34 -95 -100 -102 0
-36 -37 -45 -47 -104 0
-39 -48 -50 -92 -93 0
-28 -34 -95 -100 -102 0
-36 -37 -45 -47 -104 0
-39 -49 -50 -92 -94 0
-28 -34 -95 -101 -102 0
-36 -38 -45 -47 -105 0
-39 -49 -50 -92 -94 0
-28 -34 -95 -101 -102 0
-36 -38 -45 -47 -105 0
-39 -49 -50 -93 -94 0
-28 -34 -95 -103 -104 0
-37 -38 -45 -48 -105 0
-39 -49 -50 -93 -94 0
-28 -34 -95 -103 -104 0
-37 -38 -45 -48 -105 0
-38 -48 -49 -96 -97 0
-28 -35 -98 -100 -101 0
-36 -37 -46 -47 -103 0
-38 -48 -49 -96 -97 0
-28 -35 -98 -100 -101 0
-36 -37 -46 -47 -103 0
-39 -48 -50 -96 -97 0
-28 -35 -99 -100 -102 0
-36 -37 -46 -47 -104 0
-39 -48 -50 -96 -97 0
-28 -35 -99 -100 -102 0
-36 -37 -46 -47 -104 0
-39 -49 -50 -96 -98 0
-28 -35 -99 -101 -102 0
-36 -38 -46 -47 -105 0
-39 -49 -50 -96 -98 0
-28 -35 -99 -101 -102 0
-36 -38 -46 -47 -105 0
-39 -49 -50 -97 -98 0
-28 -35 -99 -103 -104 0
-37 -38 -46 -48 -105 0
-39 -49 -50 -97 -98 0
-28 -35 -99 -103 -104 0
-37 -38 -46 -48 -105 0
-39 -49 -50 -100 -101 0
-28 -36 -102 -103 -104 0
-37 -38 -47 -48 -105 0
-39 -49 -50 -100 -101 0
-28 -36 -102 -103 -104 0
-37 -38 -47 -48 -105 0
-33 -53 -54 -61 -62 0
-29 -30 -63 -70 -71 0
-31 -32 -51 -52 -78 0
-33 -53 -54 -61 -62 0
-29 -30 -63 -70 -71 0
-31 -32 -51 -52 -78 0
-34 -53 -55 -61 -62 0
-29 -30 -64 -70 -72 0
-31 -32 -51 -52 -79 0
-34 -53 -55 -61 -62 0
-29 -30 -64 -70 -72 0
-31 -32 -51 -52 -79 0
-35 -53 -56 -61 -62 0
-29 -30 -65 -70 -73 0
-31 -32 -51 -52 -80 0
-35 -53 -56 -61 -62 0
-29 -30 -65 -70 -73 0
-31 -32 -51 -52 -80 0
-36 -53 -57 -61 -62 0
-29 -30 -66 -70 -74 0
-31 -32 -51 -52 -81 0
-36 -53 -57 -61 -62 0
-29 -30 -66 -70 -74 0
-31 -32 -51 -52 -81 0
-37 -53 -58 -61 -62 0
-29 -30 -67 -70 -75 0
-31 -32 -51 -52 -82 0
-37 -53 -58 -61 -62 0
-29 -30 -67 -70 -75 0
-31 -32 -51 -52 -82 0
-38 -53 -59 -61 -62 0
-29 -30 -68 -70 -76 0
-31 -32 -51 -52 -83 0
-38 -53 -59 -61 -62 0
-29 -30 -68 -70 -76 0
-31 -32 -51 -52 -83 0
-39 -53 -60 -61 -62 0
-29 -30 -69 -70 -77 0
-31 -32 -51 -52 -84 0
-39 -53 -60 -61 -62 0
-29 -30 -69 -70 -77 0
-31 -32 -51 -52 -84 0
-34 -54 -55 -61 -63 0
-29 -30 -64 -71 -72 0
-31 -33 -51 -52 -85 0
-34 -54 -55 -61 -63 0
-29 -30 -64 -71 -72 0
-31 -33 -51 -52 -85 0
-35 -54 -56 -61 -63 0
-29 -30 -65 -71 -73 0
-31 -33 -51 -52 -86 0
-35 -54 -56 -61 -63 0
-29 -30 -65 -71 -73 0
-31 -33 -51 -52 -86 0
-36 -54 -57 -61 -63 0
-29 -30 -66 -71 -74 0
-31 -33 -51 -52 -87 0
-36 -54 -57 -61 -63 0
-29 -30 -66 -71 -74 0
-31 -33 -51 -52 -87 0
-37 -54 -58 -61 -63 0
-29 -30 -67 -71 -75 0
-31 -33 -51 -52 -88 0
-37 -54 -58 -61 -63 0
-29 -30 -67 -71 -75 0
-31 -33 -51 -52 -88 0
-38 -54 -59 -61 -63 0
-29 -30 -68 -71 -76 0
-31 -33 -51 -52 -89 0
-38 -54 -59 -61 -63 0
-29 -30 -68 -71 -76 0
-31 -33 -51 -52 -89 0
-39 -54 -60 -61 -63 0
-29 -30 -69 -71 -77 0
-31 -33 -51 -52 -90 0
-39 -54 -60 -61 -63 0
-29 -30 -69 -71 -77 0
-31 -33 -51 -52 -90 0
-35 -55 -56 -61 -64 0
-29 -30 -65 -72 -73 0
-31 -34 -51 -52 -91 0
-35 -55 -56 -61 -64 0
-29 -30 -65 -72 -73 0
-31 -34 -51 -52 -91 0
-36 -55 -57 -61 -64 0
-29 -30 -66 -72 -74 0
-31 -34 -51 -52 -92 0
-36 -55 -57 -61 -64 0
-29 -30 -66 -72 -74 0
-31 -34 -51 -52 -92 0
-37 -55 -58 -61 -64 0
-29 -30 -67 -72 -75 0
-31 -34 -51 -52 -93 0
-37 -55 -58 -61 -64 0
-29 -30 -67 -72 -75 0
-31 -34 -51 -52 -93 0
-38 -55 -59 -61 -64 0
-29 -30 -68 -72 -76 0
-31 -34 -51 -52 -94 0
-38 -55 -59 -61 -64 0
-29 -30 -68 -72 -76 0
-31 -34 -51 -52 -94 0
-39 -55 -60 -61 -64 0
-29 -30 -69 -72 -77 0
-31 -34 -51 -52 -95 0
-39 -55 -60 -61 -64 0
-29 -30 -69 -72 -77 0
-31 -34 -51 -52 -95 0
-36 -56 -57 -61 -65 0
-29 -30 -66 -73 -74 0
-31 -35 -51 -52 -96 0
-36 -56 -57 -61 -65 0
-29 -30 -66 -73 -74 0
-31 -35 -51 -52 -96 0
-37 -56 -58 -61 -65 0
-29 -30 -67 -73 -75 0
-31 -35 -51 -52 -97 0
-37 -56 -58 -61 -65 0
-29 -30 -67 -73 -75 0
-31 -35 -51 -52 -97 0
-38 -56 -59 -61 -65 0
-29 -30 -68 -73 -76 0
-31 -35 -51 -52 -98 0
-38 -56 -59 -61 -65 0
-29 -30 -68 -73 -76 0
-31 -35 -51 -52 -98 0
-39 -56 -60 -61 -65 0
-29 -30 -69 -73 -77 0
-31 -35 -51 -52 -99 0
-39 -56 -60 -61 -65 0
-29 -30 -69 -73 -77 0
-31 -35 -51 -52 -99 0
-37 -57 -58 -61 -66 0
-29 -30 -67 -74 -75 0
-31 -36 -51 -52 -100 0
-37 -57 -58 -61 -66 0
-29 -30 -67 -74 -75 0
-31 -36 -51 -52 -100 0
-38 -57 -59 -61 -66 0
-29 -30 -68 -74 -76 0
-31 -36 -51 -52 -101 0
-38 -57 -59 -61 -66 0
-29 -30 -68 -74 -76 0
-31 -36 -51 -52 -101 0
-39 -57 -60 -61 -66 0
-29 -30 -69 -74 -77 0
-31 -36 -51 -52 -102 0
-39 -57 -60 -61 -66 0
-29 -30 -69 -74 -77 0
-31 -36 -51 -52 -102 0
-38 -58 -59 -61 -67 0
-29 -30 -68 -75 -76 0
-31 -37 -51 -52 -103 0
-38 -58 -59 -61 -67 0
-29 -30 -68 -75 -76 0
-31 -37 -51 -52 -103 0
-39 -58 -60 -61 -67 0
-29 -30 -69 -75 -77 0
-31 -37 -51 -52 -104 0
-39 -58 -60 -61 -67 0
-29 -30 -69 -75 -77 0
-31 -37 -51 -52 -104 0
-39 -59 -60 -61 -68 0
-29 -30 -69 -76 -77 0
-31 -38 -51 -52 -105 0
-39 -59 -60 -61 -68 0
-29 -30 -69 -76 -77 0
-31 -38 -51 -52 -105 0
-34 -54 -55 -62 -63 0
-29 -30 -64 -78 -79 0
-32 -33 -51 -53 -85 0
-34 -54 -55 -62 -63 0
-29 -30 -64 -78 -79 0
-32 -33 -51 -53 -85 0
-35 -54 -56 -62 -63 0
-29 -30 -65 -78 -80 0
-32 -33 -51 -53 -86 0
-35 -54 -56 -62 -63 0
-29 -30 -65 -78 -80 0
-32 -33 -51 -53 -86 0
-36 -54 -57 -62 -63 0
-29 -30 -66 -78 -81 0
-32 -33 -51 -53 -87 0
-36 -54 -57 -62 -63 0
-29 -30 -66 -78 -81 0
-32 -33 -51 -53 -87 0
-37 -54 -58 -62 -63 0
-29 -30 -67 -78 -82 0
-32 -33 -51 -53 -88 0
-37 -54 -58 -62 -63 0
-29 -30 -67 -78 -82 0
-32 -33 -51 -53 -88 0
-38 -54 -59 -62 -63 0
-29 -30 -68 -78 -83 0
-32 -33 -51 -53 -89 0
-38 -54 -59 -62 -63 0
-29 -30 -68 -78 -83 0
-32 -33 -51 -53 -89 0
-39 -54 -60 -62 -63 0
-29 -30 -69 -78 -84 0
-32 -33 -51 -53 -90 0
-39 -54 -60 -62 -63 0
-29 -30 -69 -78 -84 0
-32 -33 -51 -53 -90 0
-35 -55 -56 -62 -64 0
-29 -30 -65 -79 -80 0
-32 -34 -51 -53 -91 0
-35 -55 -56 -62 -64 0
-29 -30 -65 -79 -80 0
-32 -34 -51 -53 -91 0
-36 -55 -57 -62 -64 0
-29 -30 -66 -79 -81 0
-32 -34 -51 -53 -92 0
-36 -55 -57 -62 -64 0
-29 -30 -66 -79 -81 0
-32 -34 -51 -53 -92 0
-37 -55 -58 -62 -64 0
-29 -30 -67 -79 -82 0
-32 -34 -51 -53 -93 0
-37 -55 -58 -62 -64 0
-29 -30 -67 -79 -82 0
-32 -34 -51 -53 -93 0
-38 -55 -59 -62 -64 0
-29 -30 -68 -79 -83 0
-32 -34 -51 -53 -94 0
-38 -55 -59 -62 -64 0
-29 -30 -68 -79 -83 0
-32 -34 -51 -53 -94 0
-39 -55 -60 -62 -64 0
-29 -30 -69 -79 -84 0
-32 -34 -51 -53 -95 0
-39 -55 -60 -62 -64 0
-29 -30 -69 -79 -84 0
-32 -34 -51 -53 -95 0
-36 -56 -57 -62 -65 0
-29 -30 -66 -80 -81 0
-32 -35 -51 -53 -96 0
-36 -56 -57 -62 -65 0
-29 -30 -66 -80 -81 0
-32 -35 -51 -53 -96 0
-37 -56 -58 -62 -65 0
-29 -30 -67 -80 -82 0
-32 -35 -51 -53 -97 0
-37 -56 -58 -62 -65 0
-29 -30 -67 -80 -82 0
-32 -35 -51 -53 -97 0
-38 -56 -59 -62 -65 0
-29 -30 -68 -80 -83 0
-32 -35 -51 -53 -98 0
-38 -56 -59 -62 -65 0
-29 -30 -68 -80 -83 0
-32 -35 -51 -53 -98 0
-39 -56 -60 -62 -65 0
-29 -30 -69 -80 -84 0
-32 -35 -51 -53 -99 0
-39 -56 -60 -62 -65 0
-29 -30 -69 -80 -84 0
-32 -35 -51 -53 -99 0
-37 -57 -58 -62 -66 0
-29 -30 -67 -81 -82 0
-32 -36 -51 -53 -100 0
-37 -57 -58 -62 -66 0
-29 -30 -67 -81 -82 0
-32 -36 -51 -53 -100 0
-38 -57 -59 -62 -66 0
-29 -30 -68 -81 -83 0
-32 -36 -51 -53 -101 0
-38 -57 -59 -62 -66 0
-29 -30 -68 -81 -83 0
-32 -36 -51 -53 -101 0
-39 -57 -60 -62 -66 0
-29 -30 -69 -81 -84 0
-32 -36 -51 -53 -102 0
-39 -57 -60 -62 -66 0
-29 -30 -69 -81 -84 0
-32 -36 -51 -53 -102 0
-38 -58 -59 -62 -67 0
-29 -30 -68 -82 -83 0
-32 -37 -51 -53 -103 0
-38 -58 -59 -62 -67 0
-29 -30 -68 -82 -83 0
-32 -37 -51 -53 -103 0
-39 -58 -60 -62 -67 0
-29 -30 -69 -82 -84 0
-32 -37 -51 -53 -104 0
-39 -58 -60 -62 -67 0
-29 -30 -69 -82 -84 0
-32 -37 -51 -53 -104 0
-39 -59 -60 -62 -68 0
-29 -30 -69 -83 -84 0
-32 -38 -51 -53 -105 0
-39 -59 -60 -62 -68 0
-29 -30 -69 -83 -84 0
-32 -38 -51 -53 -105 0
-35 -55 -56 -63 -64 0
-29 -30 -65 -85 -86 0
-33 -34 -51 -54 -91 0
-35 -55 -56 -63 -64 0
-29 -30 -65 -85 -86 0
-33 -34 -51 -54 -91 0
-36 -55 -57 -63 -64 0
-29 -30 -66 -85 -87 0
-33 -34 -51 -54 -92 0
-36 -55 -57 -63 -64 0
-29 -30 -66 -85 -87 0
-33 -34 -51 -54 -92 0
-37 -55 -58 -63 -64 0
-29 -30 -67 -85 -88 0
-33 -34 -51 -54 -93 0
-37 -55 -58 -63 -64 0
-29 -30 -67 -85 -88 0
-33 -34 -51 -54 -93 0
-38 -55 -59 -63 -64 0
-29 -30 -68 -85 -89 0
-33 -34 -51 -54 -94 0
-38 -55 -59 -63 -64 0
-29 -30 -68 -85 -89 0
-33 -34 -51 -54 -94 0
-39 -55 -60 -63 -64 0
-29 -30 -69 -85 -90 0
-33 -34 -51 -54 -95 0
-39 -55 -60 -63 -64 0
-29 -30 -69 -85 -90 0
-33 -34 -51 -54 -95 0
-36 -56 -57 -63 -65 0
-29 -30 -66 -86 -87 0
-33 -35 -51 -54 -96 0
-36 -56 -57 -63 -65 0
-29 -30 -66 -86 -87 0
-33 -35 -51 -54 -96 0
-37 -56 -58 -63 -65 0
-29 -30 -67 -86 -88 0
-33 -35 -51 -54 -97 0
-37 -56 -58 -63 -65 0
-29 -30 -67 -86 -88 0
-33 -35 -51 -54 -97 0
-38 -56 -59 -63 -65 0
-29 -30 -68 -86 -89 0
-33 -35 -51 -54 -98 0
-38 -56 -59 -63 -65 0
-29 -30 -68 -86 -89 0
-33 -35 -51 -54 -98 0
-39 -56 -60 -63 -65 0
-29 -30 -69 -86 -90 0
-33 -35 -51 -54 -99 0
-39 -56 -60 -63 -65 0
-29 -30 -69 -86 -90 0
-33 -35 -51 -54 -99 0
-37 -57 -58 -63 -66 0
-29 -30 -67 -87 -88 0
-33 -36 -51 -54 -100 0
-37 -57 -58 -63 -66 0
-29 -30 -67 -87 -88 0
-33 -36 -51 -54 -100 0
-38 -57 -59 -63 -66 0
-29 -30 -68 -87 -89 0
-33 -36 -51 -54 -101 0
-38 -57 -59 -63 -66 0
-29 -30 -68 -87 -89 0
-33 -36 -51 -54 -101 0
-39 -57 -60 -63 -66 0
-29 -30 -69 -87 -90 0
-33 -36 -51 -54 -102 0
-39 -57 -60 -63 -66 0
-29 -30 -69 -87 -90 0
-33 -36 -51 -54 -102 0
-38 -58 -59 -63 -67 0
-29 -30 -68 -88 -89 0
-33 -37 -51 -54 -103 0
-38 -58 -59 -63 -67 0
-29 -30 -68 -88 -89 0
-33 -37 -51 -54 -103 0
-39 -58 -60 -63 -67 0
-29 -30 -69 -88 -90 0
-33 -37 -51 -54 -104 0
-39 -58 -60 -63 -67 0
-29 -30 -69 -88 -90 0
-33 -37 -51 -54 -104 0
-39 -59 -60 -63 -68 0
-29 -30 -69 -89 -90 0
-33 -38 -51 -54 -105 0
-39 -59 -60 -63 -68 0
-29 -30 -69 -89 -90 0
-33 -38 -51 -54 -105 0
-36 -56 -57 -64 -65 0
-29 -30 -66 -91 -92 0
-34 -35 -51 -55 -96 0
-36 -56 -57 -64 -65 0
-29 -30 -66 -91 -92 0
-34 -35 -51 -55 -96 0
-37 -56 -58 -64 -65 0
-29 -30 -67 -91 -93 0
-34 -35 -51 -55 -97 0
-37 -56 -58 -64 -65 0
-29 -30 -67 -91 -93 0
-34 -35 -51 -55 -97 0
-38 -56 -59 -64 -65 0
-29 -30 -68 -91 -94 0
-34 -35 -51 -55 -98 0
-38 -56 -59 -64 -65 0
-29 -30 -68 -91 -94 0
-34 -35 -51 -55 -98 0
-39 -56 -60 -64 -65 0
-29 -30 -69 -91 -95 0
-34 -35 -51 -55 -99 0
-39 -56 -60 -64 -65 0
-29 -30 -69 -91 -95 0
-34 -35 -51 -55 -99 0
-37 -57 -58 -64 -66 0
-29 -30 -67 -92 -93 0
-34 -36 -51 -55 -100 0
-37 -57 -58 -64 -66 0
-29 -30 -67 -92 -93 0
-34 -36 -51 -55 -100 0
-38 -57 -59 -64 -66 0
-29 -30 -68 -92 -94 0
-34 -36 -51 -55 -101 0
-38 -57 -59 -64 -66 0
-29 -30 -68 -92 -94 0
-34 -36 -51 -55 -101 0
-39 -57 -60 -64 -66 0
-29 -30 -69 -92 -95 0
-34 -36 -51 -55 -102 0
-39 -57 -60 -64 -66 0
-29 -30 -69 -92 -95 0
-34 -36 -51 -55 -102 0
-38 -58 -59 -64 -67 0
-29 -30 -68 -93 -94 0
-34 -37 -51 -55 -103 0
-38 -58 -59 -64 -67 0
-29 -30 -68 -93 -94 0
-34 -37 -51 -55 -103 0
-39 -58 -60 -64 -67 0
-29 -30 -69 -93 -95 0
-34 -37 -51 -55 -104 0
-39 -58 -60 -64 -67 0
-29 -30 -69 -93 -95 0
-34 -37 -51 -55 -104 0
-39 -59 -60 -64 -68 0
-29 -30 -69 -94 -95 0
-34 -38 -51 -55 -105 0
-39 -59 -60 -64 -68 0
-29 -30 -69 -94 -95 0
-34 -38 -51 -55 -105 0
-37 -57 -58 -65 -66 0
-29 -30 -67 -96 -97 0
-35 -36 -51 -56 -100 0
-37 -57 -58 -65 -66 0
-29 -30 -67 -96 -97 0
-35 -36 -51 -56 -100 0
-38 -57 -59 -65 -66 0
-29 -30 -68 -96 -98 0
-35 -36 -51 -56 -101 0
-38 -57 -59 -65 -66 0
-29 -30 -68 -96 -98 0
-35 -36 -51 -56 -101 0
-39 -57 -60 -65 -66 0
-29 -30 -69 -96 -99 0
-35 -36 -51 -56 -102 0
-39 -57 -60 -65 -66 0
-29 -30 -69 -96 -99 0
-35 -36 -51 -56 -102 0
-38 -58 -59 -65 -67 0
-29 -30 -68 -97 -98 0
-35 -37 -51 -56 -103 0
-38 -58 -59 -65 -67 0
-29 -30 -68 -97 -98 0
-35 -37 -51 -56 -103 0
-39 -58 -60 -65 -67 0
-29 -30 -69 -97 -99 0
-35 -37 -51 -56 -104 0
-39 -58 -60 -65 -67 0
-29 -30 -69 -97 -99 0
-35 -37 -51 -56 -104 0
-39 -59 -60 -65 -68 0
-29 -30 -69 -98 -99 0
-35 -38 -51 -56 -105 0
-39 -59 -60 -65 -68 0
-29 -30 -69 -98 -99 0
-35 -38 -51 -56 -105 0
-38 -58 -59 -66 -67 0
-29 -30 -68 -100 -101 0
-36 -37 -51 -57 -103 0
-38 -58 -59 -66 -67 0
-29 -30 -68 -100 -101 0
-36 -37 -51 -57 -103 0
-39 -58 -60 -66 -67 0
-29 -30 -69 -100 -102 0
-36 -37 -51 -57 -104 0
-39 -58 -60 -66 -67 0
-29 -30 -69 -100 -102 0
-36 -37 -51 -57 -104 0
-39 -59 -60 -66 -68 0
-29 -30 -69 -101 -102 0
-36 -38 -51 -57 -105 0
-39 -59 -60 -66 -68 0
-29 -30 -69 -101 -102 0
-36 -38 -51 -57 -105 0
-39 -59 -60 -67 -68 0
-29 -30 -69 -103 -104 0
-37 -38 -51 -58 -105 0
-39 -59 -60 -67 -68 0
-29 -30 -69 -103 -104 0
-37 -38 -51 -58 -105 0
-34 -54 -55 -70 -71 0
-29 -31 -72 -78 -79 0
-32 -33 -52 -53 -85 0
-34 -54 -55 -70 -71 0
-29 -31 -72 -78 -79 0
-32 -33 -52 -53 -85 0
-35 -54 -56 -70 -71 0
-29 -31 -73 -78 -80 0
-32 -33 -52 -53 -86 0
-35 -54 -56 -70 -71 0
-29 -31 -73 -78 -80 0
-32 -33 -52 -53 -86 0
-36 -54 -57 -70 -71 0
-29 -31 -74 -78 -81 0
-32 -33 -52 -53 -87 0
-36 -54 -57 -70 -71 0
-29 -31 -74 -78 -81 0
-32 -33 -52 -53 -87 0
-37 -54 -58 -70 -71 0
-29 -31 -75 -78 -82 0
-32 -33 -52 -53 -88 0
-37 -54 -58 -70 -71 0
-29 -31 -75 -78 -82 0
-32 -33 -52 -53 -88 0
-38 -54 -59 -70 -71 0
-29 -31 -76 -78 -83 0
-32 -33 -52 -53 -89 0
-38 -54 -59 -70 -71 0
-29 -31 -76 -78 -83 0
-32 -33 -52 -53 -89 0
-39 -54 -60 -70 -71 0
-29 -31 -77 -78 -84 0
-32 -33 -52 -53 -90 0
-39 -54 -60 -70 -71 0
-29 -31 -77 -78 -84 0
-32 -33 -52 -53 -90 0
-35 -55 -56 -70 -72 0
-29 -31 -73 -79 -80 0
-32 -34 -52 -53 -91 0
-35 -55 -56 -70 -72 0
-29 -31 -73 -79 -80 0
-32 -34 -52 -53 -91 0
-36 -55 -57 -70 -72 0
-29 -31 -74 -79 -81 0
-32 -34 -52 -53 -92 0
-36 -55 -57 -70 -72 0
-29 -31 -74 -79 -81 0
-32 -34 -52 -53 -92 0
-37 -55 -58 -70 -72 0
-29 -31 -75 -79 -82 0
-32 -34 -52 -53 -93 0
-37 -55 -58 -70 -72 0
-29 -31 -75 -79 -82 0
-32 -34 -52 -53 -93 0
-38 -55 -59 -70 -72 0
-29 -31 -76 -79 -83 0
-32 -34 -52 -53 -94 0
-38 -55 -59 -70 -72 0
-29 -31 -76 -79 -83 0
-32 -34 -52 -53 -94 0
-39 -55 -60 -70 -72 0
-29 -31 -77 -79 -84 0
-32 -34 -52 -53 -95 0
-39 -55 -60 -70 -72 0
-29 -31 -77 -79 -84 0
-32 -34 -52 -53 -95 0
-36 -56 -57 -70 -73 0
-29 -31 -74 -80 -81 0
-32 -35 -52 -53 -96 0
-36 -56 -57 -70 -73 0
-29 -31 -74 -80 -81 0
-32 -35 -52 -53 -96 0
-37 -56 -58 -70 -73 0
-29 -31 -75 -80 -82 0
-32 -35 -52 -53 -97 0
-37 -56 -58 -70 -73 0
-29 -31 -75 -80 -82 0
-32 -35 -52 -53 -97 0
-38 -56 -59 -70 -73 0
-29 -31 -76 -80 -83 0
-32 -35 -52 -53 -98 0
-38 -56 -59 -70 -73 0
-29 -31 -76 -80 -83 0
-32 -35 -52 -53 -98 0
-39 -56 -60 -70 -73 0
-29 -31 -77 -80 -84 0
-32 -35 -52 -53 -99 0
-39 -56 -60 -70 -73 0
-29 -31 -77 -80 -84 0
-32 -35 -52 -53 -99 0
-37 -57 -58 -70 -74 0
-29 -31 -75 -81 -82 0
-32 -36 -52 -53 -100 0
-37 -57 -58 -70 -74 0
-29 -31 -75 -81 -82 0
-32 -36 -52 -53 -100 0
-38 -57 -59 -70 -74 0
-29 -31 -76 -81 -83 0
-32 -36 -52 -53 -101 0
-38 -57 -59 -70 -74 0
-29 -31 -76 -81 -83 0
-32 -36 -52 -53 -101 0
-39 -57 -60 -70 -74 0
-29 -31 -77 -81 -84 0
-32 -36 -52 -53 -102 0
-39 -57 -60 -70 -74 0
-29 -31 -77 -81 -84 0
-32 -36 -52 -53 -102 0
-38 -58 -59 -70 -75 0
-29 -31 -76 -82 -83 0
-32 -37 -52 -53 -103 0
-38 -58 -59 -70 -75 0
-29 -31 -76 -82 -83 0
-32 -37 -52 -53 -103 0
-39 -58 -60 -70 -75 0
-29 -31 -77 -82 -84 0
-32 -37 -52 -53 -104 0
-39 -58 -60 -70 -75 0
-29 -31 -77 -82 -84 0
-32 -37 -52 -53 -104 0
-39 -59 -60 -70 -76 0
-29 -31 -77 -83 -84 0
-32 -38 -52 -53 -105 0
-39 -59 -60 -70 -76 0
-29 -31 -77 -83 -84 0
-32 -38 -52 -53 -105 0
-35 -55 -56 -71 -72 0
-29 -31 -73 -85 -86 0
-33 -34 -52 -54 -91 0
-35 -55 -56 -71 -72 0
-29 -31 -73 -85 -86 0
-33 -34 -52 -54 -91 0
-36 -55 -57 -71 -72 0
-29 -31 -74 -85 -87 0
-33 -34 -52 -54 -92 0
-36 -55 -57 -71 -72 0
-29 -31 -74 -85 -87 0
-33 -34 -52 -54 -92 0
-37 -55 -58 -71 -72 0
-29 -31 -75 -85 -88 0
-33 -34 -52 -54 -93 0
-37 -55 -58 -71 -72 0
-29 -31 -75 -85 -88 0
-33 -34 -52 -54 -93 0
-38 -55 -59 -71 -72 0
-29 -31 -76 -85 -89 0
-33 -34 -52 -54 -94 0
-38 -55 -59 -71 -72 0
-29 -31 -76 -85 -89 0
-33 -34 -52 -54 -94 0
-39 -55 -60 -71 -72 0
-29 -31 -77 -85 -90 0
-33 -34 -52 -54 -95 0
-39 -55 -60 -71 -72 0
-29 -31 -77 -85 -90 0
-33 -34 -52 -54 -95 0
-36 -56 -57 -71 -73 0
-29 -31 -74 -86 -87 0
-33 -35 -52 -54 -96 0
-36 -56 -57 -71 -73 0
-29 -31 -74 -86 -87 0
-33 -35 -52 -54 -96 0
-37 -56 -58 -71 -73 0
-29 -31 -75 -86 -88 0
-33 -35 -52 -54 -97 0
-37 -56 -58 -71 -73 0
-29 -31 -75 -86 -88 0
-33 -35 -52 -54 -97 0
-38 -56 -59 -71 -73 0
-29 -31 -76 -86 -89 0
-33 -35 -52 -54 -98 0
-38 -56 -59 -71 -73 0
-29 -31 -76 -86 -89 0
-33 -35 -52 -54 -98 0
-39 -56 -60 -71 -73 0
-29 -31 -77 -86 -90 0
-33 -35 -52 -54 -99 0
-39 -56 -60 -71 -73 0
-29 -31 -77 -86 -90 0
-33 -35 -52 -54 -99 0
-37 -57 -58 -71 -74 0
-29 -31 -75 -87 -88 0
-33 -36 -52 -54 -100 0
-37 -57 -58 -71 -74 0
-29 -31 -75 -87 -88 0
-33 -36 -52 -54 -100 0
-38 -57 -59 -71 -74 0
-29 -31 -76 -87 -89 0
-33 -36 -52 -54 -101 0
-38 -57 -59 -71 -74 0
-29 -31 -76 -87 -89 0
-33 -36 -52 -54 -101 0
-39 -57 -60 -71 -74 0
-29 -31 -77 -87 -90 0
-33 -36 -52 -54 -102 0
-39 -57 -60 -71 -74 0
-29 -31 -77 -87 -90 0
-33 -36 -52 -54 -102 0
-38 -58 -59 -71 -75 0
-29 -31 -76 -88 -89 0
-33 -37 -52 -54 -103 0
-38 -58 -59 -71 -75 0
-29 -31 -76 -88 -89 0
-33 -37 -52 -54 -103 0
-39 -58 -60 -71 -75 0
-29 -31 -77 -88 -90 0
-33 -37 -52 -54 -104 0
-39 -58 -60 -71 -75 0
-29 -31 -77 -88 -90 0
-33 -37 -52 -54 -104 0
-39 -59 -60 -71 -76 0
-29 -31 -77 -89 -90 0
-33 -38 -52 -54 -105 0
-39 -59 -60 -71 -76 0
-29 -31 -77 -89 -90 0
-33 -38 -52 -54 -105 0
-36 -56 -57 -72 -73 0
-29 -31 -74 -91 -92 0
-34 -35 -52 -55 -96 0
-36 -56 -57 -72 -73 0
-29 -31 -74 -91 -92 0
-34 -35 -52 -55 -96 0
-37 -56 -58 -72 -73 0
-29 -31 -75 -91 -93 0
-34 -35 -52 -55 -97 0
-37 -56 -58 -72 -73 0
-29 -31 -75 -91 -93 0
-34 -35 -52 -55 -97 0
-38 -56 -59 -72 -73 0
-29 -31 -76 -91 -94 0
-34 -35 -52 -55 -98 0
-38 -56 -59 -72 -73 0
-29 -31 -76 -91 -94 0
-34 -35 -52 -55 -98 0
-39 -56 -60 -72 -73 0
-29 -31 -77 -91 -95 0
-34 -35 -52 -55 -99 0
-39 -56 -60 -72 -73 0
-29 -31 -77 -91 -95 0
-34 -35 -52 -55 -99 0
-37 -57 -58 -72 -74 0
-29 -31 -75 -92 -93 0
-34 -36 -52 -55 -100 0
-37 -57 -58 -72 -74 0
-29 -31 -75 -92 -93 0
-34 -36 -52 -55 -100 0
-38 -57 -59 -72 -74 0
-29 -31 -76 -92 -94 0
-34 -36 -52 -55 -101 0
-38 -57 -59 -72 -74 0
-29 -31 -76 -92 -94 0
-34 -36 -52 -55 -101 0
-39 -57 -60 -72 -74 0
-29 -31 -77 -92 -95 0
-34 -36 -52 -55 -102 0
-39 -57 -60 -72 -74 0
-29 -31 -77 -92 -95 0
-34 -36 -52 -55 -102 0
-38 -58 -59 -72 -75 0
-29 -31 -76 -93 -94 0
-34 -37 -52 -55 -103 0
-38 -58 -59 -72 -75 0
-29 -31 -76 -93 -94 0
-34 -37 -52 -55 -103 0
-39 -58 -60 -72 -75 0
-29 -31 -77 -93 -95 0
-34 -37 -52 -55 -104 0
-39 -58 -60 -72 -75 0
-29 -31 -77 -93 -95 0
-34 -37 -52 -55 -104 0
-39 -59 -60 -72 -76 0
-29 -31 -77 -94 -95 0
-34 -38 -52 -55 -105 0
-39 -59 -60 -72 -76 0
-29 -31 -77 -94 -95 0
-34 -38 -52 -55 -105 0
-37 -57 -58 -73 -74 0
-29 -31 -75 -96 -97 0
-35 -36 -52 -56 -100 0
-37 -57 -58 -73 -74 0
-29 -31 -75 -96 -97 0
-35 -36 -52 -56 -100 0
-38 -57 -59 -73 -74 0
-29 -31 -76 -96 -98 0
-35 -36 -52 -56 -101 0
-38 -57 -59 -73 -74 0
-29 -31 -76 -96 -98 0
-35 -36 -52 -56 -101 0
-39 -57 -60 -73 -74 0
-29 -31 -77 -96 -99 0
-35 -36 -52 -56 -102 0
-39 -57 -60 -73 -74 0
-29 -31 -77 -96 -99 0
-35 -36 -52 -56 -102 0
-38 -58 -59 -73 -75 0
-29 -31 -76 -97 -98 0
-35 -37 -52 -56 -103 0
-38 -58 -59 -73 -75 0
-29 -31 -76 -97 -98 0
-35 -37 -52 -56 -103 0
-39 -58 -60 -73 -75 0
-29 -31 -77 -97 -99 0
-35 -37 -52 -56 -104 0
-39 -58 -60 -73 -75 0
-29 -31 -77 -97 -99 0
-35 -37 -52 -56 -104 0
-39 -59 -60 -73 -76 0
-29 -31 -77 -98 -99 0
-35 -38 -52 -56 -105 0
-39 -59 -60 -73 -76 0
-29 -31 -77 -98 -99 0
-35 -38 -52 -56 -105 0
-38 -58 -59 -74 -75 0
-29 -31 -76 -100 -101 0
-36 -37 -52 -57 -103 0
-38 -58 -59 -74 -75 0
-29 -31 -76 -100 -101 0
-36 -37 -52 -57 -103 0
-39 -58 -60 -74 -75 0
-29 -31 -77 -100 -102 0
-36 -37 -52 -57 -104 0
-39 -58 -60 -74 -75 0
-29 -31 -77 -100 -102 0
-36 -37 -52 -57 -104 0
-39 -59 -60 -74 -76 0
-29 -31 -77 -101 -102 0
-36 -38 -52 -57 -105 0
-39 -59 -60 -74 -76 0
-29 -31 -77 -101 -102 0
-36 -38 -52 -57 -105 0
-39 -59 -60 -75 -76 0
-29 -31 -77 -103 -104 0
-37 -38 -52 -58 -105 0
-39 -59 -60 -75 -76 0
-29 -31 -77 -103 -104 0
-37 -38 -52 -58 -105 0
-35 -55 -56 -78 -79 0
-29 -32 -80 -85 -86 0
-33 -34 -53 -54 -91 0
-35 -55 -56 -78 -79 0
-29 -32 -80 -85 -86 0
-33 -34 -53 -54 -91 0
-36 -55 -57 -78 -79 0
-29 -32 -81 -85 -87 0
-33 -34 -53 -54 -92 0
-36 -55 -57 -78 -79 0
-29 -32 -81 -85 -87 0
-33 -34 -53 -54 -92 0
-37 -55 -58 -78 -79 0
-29 -32 -82 -85 -88 0
-33 -34 -53 -54 -93 0
-37 -55 -58 -78 -79 0
-29 -32 -82 -85 -88 0
-33 -34 -53 -54 -93 0
-38 -55 -59 -78 -79 0
-29 -32 -83 -85 -89 0
-33 -34 -53 -54 -94 0
-38 -55 -59 -78 -79 0
-29 -32 -83 -85 -89 0
-33 -34 -53 -54 -94 0
-39 -55 -60 -78 -79 0
-29 -32 -84 -85 -90 0
-33 -34 -53 -54 -95 0
-39 -55 -60 -78 -79 0
-29 -32 -84 -85 -90 0
-33 -34 -53 -54 -95 0
-36 -56 -57 -78 -80 0
-29 -32 -81 -86 -87 0
-33 -35 -53 -54 -96 0
-36 -56 -57 -78 -80 0
-29 -32 -81 -86 -87 0
-33 -35 -53 -54 -96 0
-37 -56 -58 -78 -80 0
-29 -32 -82 -86 -88 0
-33 -35 -53 -54 -97 0
-37 -56 -58 -78 -80 0
-29 -32 -82 -86 -88 0
-33 -35 -53 -54 -97 0
-38 -56 -59 -78 -80 0
-29 -32 -83 -86 -89 0
-33 -35 -53 -54 -98 0
-38 -56 -59 -78 -80 0
-29 -32 -83 -86 -89 0
-33 -35 -53 -54 -98 0
-39 -56 -60 -78 -80 0
-29 -32 -84 -86 -90 0
-33 -35 -53 -54 -99 0
-39 -56 -60 -78 -80 0
-29 -32 -84 -86 -90 0
-33 -35 -53 -54 -99 0
-37 -57 -58 -78 -81 0
-29 -32 -82 -87 -88 0
-33 -36 -53 -54 -100 0
-37 -57 -58 -78 -81 0
-29 -32 -82 -87 -88 0
-33 -36 -53 -54 -100 0
-38 -57 -59 -78 -81 0
-29 -32 -83 -87 -89 0
-33 -36 -53 -54 -101 0
-38 -57 -59 -78 -81 0
-29 -32 -83 -87 -89 0
-33 -36 -53 -54 -101 0
-39 -57 -60 -78 -81 0
-29 -32 -84 -87 -90 0
-33 -36 -53 -54 -102 0
-39 -57 -60 -78 -81 0
-29 -32 -84 -87 -90 0
-33 -36 -53 -54 -102 0
-38 -58 -59 -78 -82 0
-29 -32 -83 -88 -89 0
-33 -37 -53 -54 -103 0
-38 -58 -59 -78 -82 0
-29 -32 -83 -88 -89 0
-33 -37 -53 -54 -103 0
-39 -58 -60 -78 -82 0
-29 -32 -84 -88 -90 0
-33 -37 -53 -54 -104 0
-39 -58 -60 -78 -82 0
-29 -32 -84 -88 -90 0
-33 -37 -53 -54 -104 0
-39 -59 -60 -78 -83 0
-29 -32 -84 -89 -90 0
-33 -38 -53 -54 -105 0
-39 -59 -60 -78 -83 0
-29 -32 -84 -89 -90 0
-33 -38 -53 -54 -105 0
-36 -56 -57 -79 -80 0
-29 -32 -81 -91 -92 0
-34 -35 -53 -55 -96 0
-36 -56 -57 -79 -80 0
-29 -32 -81 -91 -92 0
-34 -35 -53 -55 -96 0
-37 -56 -58 -79 -80 0
-29 -32 -82 -91 -93 0
-34 -35 -53 -55 -97 0
-37 -56 -58 -79 -80 0
-29 -32 -82 -91 -93 0
-34 -35 -53 -55 -97 0
-38 -56 -59 -79 -80 0
-29 -32 -83 -91 -94 0
-34 -35 -53 -55 -98 0
-38 -56 -59 -79 -80 0
-29 -32 -83 -91 -94 0
-34 -35 -53 -55 -98 0
-39 -56 -60 -79 -80 0
-29 -32 -84 -91 -95 0
-34 -35 -53 -55 -99 0
-39 -56 -60 -79 -80 0
-29 -32 -84 -91 -95 0
-34 -35 -53 -55 -99 0
-37 -57 -58 -79 -81 0
-29 -32 -82 -92 -93 0
-34 -36 -53 -55 -100 0
-37 -57 -58 -79 -81 0
-29 -32 -82 -92 -93 0
-34 -36 -53 -55 -100 0
-38 -57 -59 -79 -81 0
-29 -32 -83 -92 -94 0
-34 -36 -53 -55 -101 0
-38 -57 -59 -79 -81 0
-29 -32 -83 -92 -94 0
-34 -36 -53 -55 -101 0
-39 -57 -60 -79 -81 0
-29 -32 -84 -92 -95 0
-34 -36 -53 -55 -102 0
-39 -57 -60 -79 -81 0
-29 -32 -84 -92 -95 0
-34 -36 -53 -55 -102 0
-38 -58 -59 -79 -82 0
-29 -32 -83 -93 -94 0
-34 -37 -53 -55 -103 0
-38 -58 -59 -79 -82 0
-29 -32 -83 -93 -94 0
-34 -37 -53 -55 -103 0
-39 -58 -60 -79 -82 0
-29 -32 -84 -93 -95 0
-34 -37 -53 -55 -104 0
-39 -58 -60 -79 -82 0
-29 -32 -84 -93 -95 0
-34 -37 -53 -55 -104 0
-39 -59 -60 -79 -83 0
-29 -32 -84 -94 -95 0
-34 -38 -53 -55 -105 0
-39 -59 -60 -79 -83 0
-29 -32 -84 -94 -95 0
-34 -38 -53 -55 -105 0
-37 -57 -58 -80 -81 0
-29 -32 -82 -96 -97 0
-35 -36 -53 -56 -100 0
-37 -57 -58 -80 -81 0
-29 -32 -82 -96 -97 0
-35 -36 -53 -56 -100 0
-38 -57 -59 -80 -81 0
-29 -32 -83 -96 -98 0
-35 -36 -53 -56 -101 0
-38 -57 -59 -80 -81 0
-29 -32 -83 -96 -98 0
-35 -36 -53 -56 -101 0
-39 -57 -60 -80 -81 0
-29 -32 -84 -96 -99 0
-35 -36 -53 -56 -102 0
-39 -57 -60 -80 -81 0
-29 -32 -84 -96 -99 0
-35 -36 -53 -56 -102 0
-38 -58 -59 -80 -82 0
-29 -32 -83 -97 -98 0
-35 -37 -53 -56 -103 0
-38 -58 -59 -80 -82 0
-29 -32 -83 -97 -98 0
-35 -37 -53 -56 -103 0
-39 -58 -60 -80 -82 0
-29 -32 -84 -97 -99 0
-35 -37 -53 -56 -104 0
-39 -58 -60 -80 -82 0
-29 -32 -84 -97 -99 0
-35 -37 -53 -56 -104 0
-39 -59 -60 -80 -83 0
-29 -32 -84 -98 -99 0
-35 -38 -53 -56 -105 0
-39 -59 -60 -80 -83 0
-29 -32 -84 -98 -99 0
-35 -38 -53 -56 -105 0
-38 -58 -59 -81 -82 0
-29 -32 -83 -100 -101 0
-36 -37 -53 -57 -103 0
-38 -58 -59 -81 -82 0
-29 -32 -83 -100 -101 0
-36 -37 -53 -57 -103 0
-39 -58 -60 -81 -82 0
-29 -32 -84 -100 -102 0
-36 -37 -53 -57 -104 0
-39 -58 -60 -81 -82 0
-29 -32 -84 -100 -102 0
-36 -37 -53 -57 -104 0
-39 -59 -60 -81 -83 0
-29 -32 -84 -101 -102 0
-36 -38 -53 -57 -105 0
-39 -59 -60 -81 -83 0
-29 -32 -84 -101 -102 0
-36 -38 -53 -57 -105 0
-39 -59 -60 -82 -83 0
-29 -32 -84 -103 -104 0
-37 -38 -53 -58 -105 0
-39 -59 -60 -82 -83 0
-29 -32 -84 -103 -104 0
-37 -38 -53 -58 -105 0
-36 -56 -57 -85 -86 0
-29 -33 -87 -91 -92 0
-34 -35 -54 -55 -96 0
-36 -56 -57 -85 -86 0
-29 -33 -87 -91 -92 0
-34 -35 -54 -55 -96 0
-37 -56 -58 -85 -86 0
-29 -33 -88 -91 -93 0
-34 -35 -54 -55 -97 0
-37 -56 -58 -85 -86 0
-29 -33 -88 -91 -93 0
-34 -35 -54 -55 -97 0
-38 -56 -59 -85 -86 0
-29 -33 -89 -91 -94 0
-34 -35 -54 -55 -98 0
-38 -56 -59 -85 -86 0
-29 -33 -89 -91 -94 0
-34 -35 -54 -55 -98 0
-39 -56 -60 -85 -86 0
-29 -33 -90 -91 -95 0
-34 -35 -54 -55 -99 0
-39 -56 -60 -85 -86 0
-29 -33 -90 -91 -95 0
-34 -35 -54 -55 -99 0
-37 -57 -58 -85 -87 0
-29 -33 -88 -92 -93 0
-34 -36 -54 -55 -100 0
-37 -57 -58 -85 -87 0
-29 -33 -88 -92 -93 0
-34 -36 -54 -55 -100 0
-38 -57 -59 -85 -87 0
-29 -33 -89 -92 -94 0
-34 -36 -54 -55 -101 0
-38 -57 -59 -85 -87 0
-29 -33 -89 -92 -94 0
-34 -36 -54 -55 -101 0
-39 -57 -60 -85 -87 0
-29 -33 -90 -92 -95 0
-34 -36 -54 -55 -102 0
-39 -57 -60 -85 -87 0
-29 -33 -90 -92 -95 0
-34 -36 -54 -55 -102 0
-38 -58 -59 -85 -88 0
-29 -33 -89 -93 -94 0
-34 -37 -54 -55 -103 0
-38 -58 -59 -85 -88 0
-29 -33 -89 -93 -94 0
-34 -37 -54 -55 -103 0
-39 -58 -60 -85 -88 0
-29 -33 -90 -93 -95 0
-34 -37 -54 -55 -104 0
-39 -58 -60 -85 -88 0
-29 -33 -90 -93 -95 0
-34 -37 -54 -55 -104 0
-39 -59 -60 -85 -89 0
-29 -33 -90 -94 -95 0
-34 -38 -54 -55 -105 0
-39 -59 -60 -85 -89 0
-29 -33 -90 -94 -95 0
-34 -38 -54 -55 -105 0
-37 -57 -58 -86 -87 0
-29 -33 -88 -96 -97 0
-35 -36 -54 -56 -100 0
-37 -57 -58 -86 -87 0
-29 -33 -88 -96 -97 0
-35 -36 -54 -56 -100 0
-38 -57 -59 -86 -87 0
-29 -33 -89 -96 -98 0
-35 -36 -54 -56 -101 0
-38 -57 -59 -86 -87 0
-29 -33 -89 -96 -98 0
-35 -36 -54 -56 -101 0
-39 -57 -60 -86 -87 0
-29 -33 -90 -96 -99 0
-35 -36 -54 -56 -102 0
-39 -57 -60 -86 -87 0
-29 -33 -90 -96 -99 0
-35 -36 -54 -56 -102 0
-38 -58 -59 -86 -88 0
-29 -33 -89 -97 -98 0
-35 -37 -54 -56 -103 0
-38 -58 -59 -86 -88 0
-29 -33 -89 -97 -98 0
-35 -37 -54 -56 -103 0
-39 -58 -60 -86 -88 0
-29 -33 -90 -97 -99 0
-35 -37 -54 -56 -104 0
-39 -58 -60 -86 -88 0
-29 -33 -90 -97 -99 0
-35 -37 -54 -56 -104 0
-39 -59 -60 -86 -89 0
-29 -33 -90 -98 -99 0
-35 -38 -54 -56 -105 0
-39 -59 -60 -86 -89 0
-29 -33 -90 -98 -99 0
-35 -38 -54 -56 -105 0
-38 -58 -59 -87 -88 0
-29 -33 -89 -100 -101 0
-36 -37 -54 -57 -103 0
-38 -58 -59 -87 -88 0
-29 -33 -89 -100 -101 0
-36 -37 -54 -57 -103 0
-39 -58 -60 -87 -88 0
-29 -33 -90 -100 -102 0
-36 -37 -54 -57 -104 0
-39 -58 -60 -87 -88 0
-29 -33 -90 -100 -102 0
-36 -37 -54 -57 -104 0
-39 -59 -60 -87 -89 0
-29 -33 -90 -101 -102 0
-36 -38 -54 -57 -105 0
-39 -59 -60 -87 -89 0
-29 -33 -90 -101 -102 0
-36 -38 -54 -57 -105 0
-39 -59 -60 -88 -89 0
-29 -33 -90 -103 -104 0
-37 -38 -54 -58 -105 0
-39 -59 -60 -88 -89 0
-29 -33 -90 -103 -104 0
-37 -38 -54 -58 -105 0
-37 -57 -58 -91 -92 0
-29 -34 -93 -96 -97 0
-35 -36 -55 -56 -100 0
-37 -57 -58 -91 -92 0
-29 -34 -93 -96 -97 0
-35 -36 -55 -56 -100 0
-38 -57 -59 -91 -92 0
-29 -34 -94 -96 -98 0
-35 -36 -55 -56 -101 0
-38 -57 -59 -91 -92 0
-29 -34 -94 -96 -98 0
-35 -36 -55 -56 -101 0
-39 -57 -60 -91 -92 0
-29 -34 -95 -96 -99 0
-35 -36 -55 -56 -102 0
-39 -57 -60 -91 -92 0
-29 -34 -95 -96 -99 0
-35 -36 -55 -56 -102 0
-38 -58 -59 -91 -93 0
-29 -34 -94 -97 -98 0
-35 -37 -55 -56 -103 0
-38 -58 -59 -91 -93 0
-29 -34 -94 -97 -98 0
-35 -37 -55 -56 -103 0
-39 -58 -60 -91 -93 0
-29 -34 -95 -97 -99 0
-35 -37 -55 -56 -104 0
-39 -58 -60 -91 -93 0
-29 -34 -95 -97 -99 0
-35 -37 -55 -56 -104 0
-39 -59 -60 -91 -94 0
-29 -34 -95 -98 -99 0
-35 -38 -55 -56 -105 0
-39 -59 -60 -91 -94 0
-29 -34 -95 -98 -99 0
-35 -38 -55 -56 -105 0
-38 -58 -59 -92 -93 0
-29 -34 -94 -100 -101 0
-36 -37 -55 -57 -103 0
-38 -58 -59 -92 -93 0
-29 -34 -94 -100 -101 0
-36 -37 -55 -57 -103 0
-39 -58 -60 -92 -93 0
-29 -34 -95 -100 -102 0
-36 -37 -55 -57 -104 0
-39 -58 -60 -92 -93 0
-29 -34 -95 -100 -102 0
-36 -37 -55 -57 -104 0
-39 -59 -60 -92 -94 0
-29 -34 -95 -101 -102 0
-36 -38 -55 -57 -105 0
-39 -59 -60 -92 -94 0
-29 -34 -95 -101 -102 0
-36 -38 -55 -57 -105 0
-39 -59 -60 -93 -94 0
-29 -34 -95 -103 -104 0
-37 -38 -55 -58 -105 0
-39 -59 -60 -93 -94 0
-29 -34 -95 -103 -104 0
-37 -38 -55 -58 -105 0
-38 -58 -59 -96 -97 0
-29 -35 -98 -100 -101 0
-36 -37 -56 -57 -103 0
-38 -58 -59 -96 -97 0
-29 -35 -98 -100 -101 0
-36 -37 -56 -57 -103 0
-39 -58 -60 -96 -97 0
-29 -35 -99 -100 -102 0
-36 -37 -56 -57 -104 0
-39 -58 -60 -96 -97 0
-29 -35 -99 -100 -102 0
-36 -37 -56 -57 -104 0
-39 -59 -60 -96 -98 0
-29 -35 -99 -101 -102 0
-36 -38 -56 -57 -105 0
-39 -59 -60 -96 -98 0
-29 -35 -99 -101 -102 0
-36 -38 -56 -57 -105 0
-39 -59 -60 -97 -98 0
-29 -35 -99 -103 -104 0
-37 -38 -56 -58 -105 0
-39 -59 -60 -97 -98 0
-29 -35 -99 -103 -104 0
-37 -38 -56 -58 -105 0
-39 -59 -60 -100 -101 0
-29 -36 -102 -103 -104 0
-37 -38 -57 -58 -105 0
-39 -59 -60 -100 -101 0
-29 -36 -102 -103 -104 0
-37 -38 -57 -58 -105 0
-34 -63 -64 -70 -71 0
-30 -31 -72 -78 -79 0
-32 -33 -61 -62 -85 0
-34 -63 -64 -70 -71 0
-30 -31 -72 -78 -79 0
-32 -33 -61 -62 -85 0
-35 -63 -65 -70 -71 0
-30 -31 -73 -78 -80 0
-32 -33 -61 -62 -86 0
-35 -63 -65 -70 -71 0
-30 -31 -73 -78 -80 0
-32 -33 -61 -62 -86 0
-36 -63 -66 -70 -71 0
-30 -31 -74 -78 -81 0
-32 -33 -61 -62 -87 0
-36 -63 -66 -70 -71 0
-30 -31 -74 -78 -81 0
-32 -33 -61 -62 -87 0
-37 -63 -67 -70 -71 0
-30 -31 -75 -78 -82 0
-32 -33 -61 -62 -88 0
-37 -63 -67 -70 -71 0
-30 -31 -75 -78 -82 0
-32 -33 -61 -62 -88 0
-38 -63 -68 -70 -71 0
-30 -31 -76 -78 -83 0
-32 -33 -61 -62 -89 0
-38 -63 -68 -70 -71 0
-30 -31 -76 -78 -83 0
-32 -33 -61 -62 -89 0
-39 -63 -69 -70 -71 0
-30 -31 -77 -78 -84 0
-32 -33 -61 -62 -90 0
-39 -63 -69 -70 -71 0
-30 -31 -77 -78 -84 0
-32 -33 -61 -62 -90 0
-35 -64 -65 -70 -72 0
-30 -31 -73 -79 -80 0
-32 -34 -61 -62 -91 0
-35 -64 -65 -70 -72 0
-30 -31 -73 -79 -80 0
-32 -34 -61 -62 -91 0
-36 -64 -66 -70 -72 0
-30 -31 -74 -79 -81 0
-32 -34 -61 -62 -92 0
-36 -64 -66 -70 -72 0
-30 -31 -74 -79 -81 0
-32 -34 -61 -62 -92 0
-37 -64 -67 -70 -72 0
-30 -31 -75 -79 -82 0
-32 -34 -61 -62 -93 0
-37 -64 -67 -70 -72 0
-30 -31 -75 -79 -82 0
-32 -34 -61 -62 -93 0
-38 -64 -68 -70 -72 0
-30 -31 -76 -79 -83 0
-32 -34 -61 -62 -94 0
-38 -64 -68 -70 -72 0
-30 -31 -76 -79 -83 0
-32 -34 -61 -62 -94 0
-39 -64 -69 -70 -72 0
-30 -31 -77 -79 -84 0
-32 -34 -61 -62 -95 0
-39 -64 -69 -70 -72 0
-30 -31 -77 -79 -84 0
-32 -34 -61 -62 -95 0
-36 -65 -66 -70 -73 0
-30 -31 -74 -80 -81 0
-32 -35 -61 -62 -96 0
-36 -65 -66 -70 -73 0
-30 -31 -74 -80 -81 0
-32 -35 -61 -62 -96 0
-37 -65 -67 -70 -73 0
-30 -31 -75 -80 -82 0
-32 -35 -61 -62 -97 0
-37 -65 -67 -70 -73 0
-30 -31 -75 -80 -82 0
-32 -35 -61 -62 -97 0
-38 -65 -68 -70 -73 0
-30 -31 -76 -80 -83 0
-32 -35 -61 -62 -98 0
-38 -65 -68 -70 -73 0
-30 -31 -76 -80 -83 0
-32 -35 -61 -62 -98 0
-39 -65 -69 -70 -73 0
-30 -31 -77 -80 -84 0
-32 -35 -61 -62 -99 0
-39 -65 -69 -70 -73 0
-30 -31 -77 -80 -84 0
-32 -35 -61 -62 -99 0
-37 -66 -67 -70 -74 0
-30 -31 -75 -81 -82 0
-32 -36 -61 -62 -100 0
-37 -66 -67 -70 -74 0
-30 -31 -75 -81 -82 0
-32 -36 -61 -62 -100 0
-38 -66 -68 -70 -74 0
-30 -31 -76 -81 -83 0
-32 -36 -61 -62 -101 0
-38 -66 -68 -70 -74 0
-30 -31 -76 -81 -83 0
-32 -36 -61 -62 -101 0
-39 -66 -69 -70 -74 0
-30 -31 -77 -81 -84 0
-32 -36 -61 -62 -102 0
-39 -66 -69 -70 -74 0
-30 -31 -77 -81 -84 0
-32 -36 -61 -62 -102 0
-38 -67 -68 -70 -75 0
-30 -31 -76 -82 -83 0
-32 -37 -61 -62 -103 0
-38 -67 -68 -70 -75 0
-30 -31 -76 -82 -83 0
-32 -37 -61 -62 -103 0
-39 -67 -69 -70 -75 0
-30 -31 -77 -82 -84 0
-32 -37 -61 -62 -104 0
-39 -67 -69 -70 -75 0
-30 -31 -77 -82 -84 0
-32 -37 -61 -62 -104 0
-39 -68 -69 -70 -76 0
-30 -31 -77 -83 -84 0
-32 -38 -61 -62 -105 0
-39 -68 -69 -70 -76 0
-30 -31 -77 -83 -84 0
-32 -38 -61 -62 -105 0
-35 -64 -65 -71 -72 0
-30 -31 -73 -85 -86 0
-33 -34 -61 -63 -91 0
-35 -64 -65 -71 -72 0
-30 -31 -73 -85 -86 0
-33 -34 -61 -63 -91 0
-36 -64 -66 -71 -72 0
-30 -31 -74 -85 -87 0
-33 -34 -61 -63 -92 0
-36 -64 -66 -71 -72 0
-30 -31 -74 -85 -87 0
-33 -34 -61 -63 -92 0
-37 -64 -67 -71 -72 0
-30 -31 -75 -85 -88 0
-33 -34 -61 -63 -93 0
-37 -64 -67 -71 -72 0
-30 -31 -75 -85 -88 0
-33 -34 -61 -63 -93 0
-38 -64 -68 -71 -72 0
-30 -31 -76 -85 -89 0
-33 -34 -61 -63 -94 0
-38 -64 -68 -71 -72 0
-30 -31 -76 -85 -89 0
-33 -34 -61 -63 -94 0
-39 -64 -69 -71 -72 0
-30 -31 -77 -85 -90 0
-33 -34 -61 -63 -95 0
-39 -64 -69 -71 -72 0
-30 -31 -77 -85 -90 0
-33 -34 -61 -63 -95 0
-36 -65 -66 -71 -73 0
-30 -31 -74 -86 -87 0
-33 -35 -61 -63 -96 0
-36 -65 -66 -71 -73 0
-30 -31 -74 -86 -87 0
-33 -35 -61 -63 -96 0
-37 -65 -67 -71 -73 0
-30 -31 -75 -86 -88 0
-33 -35 -61 -63 -97 0
-37 -65 -67 -71 -73 0
-30 -31 -75 -86 -88 0
-33 -35 -61 -63 -97 0
-38 -65 -68 -71 -73 0
-30 -31 -76 -86 -89 0
-33 -35 -61 -63 -98 0
-38 -65 -68 -71 -73 0
-30 -31 -76 -86 -89 0
-33 -35 -61 -63 -98 0
-39 -65 -69 -71 -73 0
-30 -31 -77 -86 -90 0
-33 -35 -61 -63 -99 0
-39 -65 -69 -71 -73 0
-30 -31 -77 -86 -90 0
-33 -35 -61 -63 -99 0
-37 -66 -67 -71 -74 0
-30 -31 -75 -87 -88 0
-33 -36 -61 -63 -100 0
-37 -66 -67 -71 -74 0
-30 -31 -75 -87 -88 0
-33 -36 -61 -63 -100 0
-38 -66 -68 -71 -74 0
-30 -31 -76 -87 -89 0
-33 -36 -61 -63 -101 0
-38 -66 -68 -71 -74 0
-30 -31 -76 -87 -89 0
-33 -36 -61 -63 -101 0
-39 -66 -69 -71 -74 0
-30 -31 -77 -87 -90 0
-33 -36 -61 -63 -102 0
-39 -66 -69 -71 -74 0
-30 -31 -77 -87 -90 0
-33 -36 -61 -63 -102 0
-38 -67 -68 -71 -75 0
-30 -31 -76 -88 -89 0
-33 -37 -61 -63 -103 0
-38 -67 -68 -71 -75 0
-30 -31 -76 -88 -89 0
-33 -37 -61 -63 -103 0
-39 -67 -69 -71 -75 0
-30 -31 -77 -88 -90 0
-33 -37 -61 -63 -104 0
-39 -67 -69 -71 -75 0
-30 -31 -77 -88 -90 0
-33 -37 -61 -63 -104 0
-39 -68 -69 -71 -76 0
-30 -31 -77 -89 -90 0
-33 -38 -61 -63 -105 0
-39 -68 -69 -71 -76 0
-30 -31 -77 -89 -90 0
-33 -38 -61 -63 -105 0
-36 -65 -66 -72 -73 0
-30 -31 -74 -91 -92 0
-34 -35 -61 -64 -96 0
-36 -65 -66 -72 -73 0
-30 -31 -74 -91 -92 0
-34 -35 -61 -64 -96 0
-37 -65 -67 -72 -73 0
-30 -31 -75 -91 -93 0
-34 -35 -61 -64 -97 0
-37 -65 -67 -72 -73 0
-30 -31 -75 -91 -93 0
-34 -35 -61 -64 -97 0
-38 -65 -68 -72 -73 0
-30 -31 -76 -91 -94 0
-34 -35 -61 -64 -98 0
-38 -65 -68 -72 -73 0
-30 -31 -76 -91 -94 0
-34 -35 -61 -64 -98 0
-39 -65 -69 -72 -73 0
-30 -31 -77 -91 -95 0
-34 -35 -61 -64 -99 0
-39 -65 -69 -72 -73 0
-30 -31 -77 -91 -95 0
-34 -35 -61 -64 -99 0
-37 -66 -67 -72 -74 0
-30 -31 -75 -92 -93 0
-34 -36 -61 -64 -100 0
-37 -66 -67 -72 -74 0
-30 -31 -75 -92 -93 0
-34 -36 -61 -64 -100 0
-38 -66 -68 -72 -74 0
-30 -31 -76 -92 -94 0
-34 -36 -61 -64 -101 0
-38 -66 -68 -72 -74 0
-30 -31 -76 -92 -94 0
-34 -36 -61 -64 -101 0
-39 -66 -69 -72 -74 0
-30 -31 -77 -92 -95 0
-34 -36 -61 -64 -102 0
-39 -66 -69 -72 -74 0
-30 -31 -77 -92 -95 0
-34 -36 -61 -64 -102 0
-38 -67 -68 -72 -75 0
-30 -31 -76 -93 -94 0
-34 -37 -61 -64 -103 0
-38 -67 -68 -72 -75 0
-30 -31 -76 -93 -94 0
-34 -37 -61 -64 -103 0
-39 -67 -69 -72 -75 0
-30 -31 -77 -93 -95 0
-34 -37 -61 -64 -104 0
-39 -67 -69 -72 -75 0
-30 -31 -77 -93 -95 0
-34 -37 -61 -64 -104 0
-39 -68 -69 -72 -76 0
-30 -31 -77 -94 -95 0
-34 -38 -61 -64 -105 0
-39 -68 -69 -72 -76 0
-30 -31 -77 -94 -95 0
-34 -38 -61 -64 -105 0
-37 -66 -67 -73 -74 0
-30 -31 -75 -96 -97 0
-35 -36 -61 -65 -100 0
-37 -66 -67 -73 -74 0
-30 -31 -75 -96 -97 0
-35 -36 -61 -65 -100 0
-38 -66 -68 -73 -74 0
-30 -31 -76 -96 -98 0
-35 -36 -61 -65 -101 0
-38 -66 -68 -73 -74 0
-30 -31 -76 -96 -98 0
-35 -36 -61 -65 -101 0
-39 -66 -69 -73 -74 0
-30 -31 -77 -96 -99 0
-35 -36 -61 -65 -102 0
-39 -66 -69 -73 -74 0
-30 -31 -77 -96 -99 0
-35 -36 -61 -65 -102 0
-38 -67 -68 -73 -75 0
-30 -31 -76 -97 -98 0
-35 -37 -61 -65 -103 0
-38 -67 -68 -73 -75 0
-30 -31 -76 -97 -98 0
-35 -37 -61 -65 -103 0
-39 -67 -69 -73 -75 0
-30 -31 -77 -97 -99 0
-35 -37 -61 -65 -104 0
-39 -67 -69 -73 -75 0
-30 -31 -77 -97 -99 0
-35 -37 -61 -65 -104 0
-39 -68 -69 -73 -76 0
-30 -31 -77 -98 -99 0
-35 -38 -61 -65 -105 0
-39 -68 -69 -73 -76 0
-30 -31 -77 -98 -99 0
-35 -38 -61 -65 -105 0
-38 -67 -68 -74 -75 0
-30 -31 -76 -100 -101 0
-36 -37 -61 -66 -103 0
-38 -67 -68 -74 -75 0
-30 -31 -76 -100 -101 0
-36 -37 -61 -66 -103 0
-39 -67 -69 -74 -75 0
-30 -31 -77 -100 -102 0
-36 -37 -61 -66 -104 0
-39 -67 -69 -74 -75 0
-30 -31 -77 -100 -102 0
-36 -37 -61 -66 -104 0
-39 -68 -69 -74 -76 0
-30 -31 -77 -101 -102 0
-36 -38 -61 -66 -105 0
-39 -68 -69 -74 -76 0
-30 -31 -77 -101 -102 0
-36 -38 -61 -66 -105 0
-39 -68 -69 -75 -76 0
-30 -31 -77 -103 -104 0
-37 -38 -61 -67 -105 0
-39 -68 -69 -75 -76 0
-30 -31 -77 -103 -104 0
-37 -38 -61 -67 -105 0
-35 -64 -65 -78 -79 0
-30 -32 -80 -85 -86 0
-33 -34 -62 -63 -91 0
-35 -64 -65 -78 -79 0
-30 -32 -80 -85 -86 0
-33 -34 -62 -63 -91 0
-36 -64 -66 -78 -79 0
-30 -32 -81 -85 -87 0
-33 -34 -62 -63 -92 0
-36 -64 -66 -78 -79 0
-30 -32 -81 -85 -87 0
-33 -34 -62 -63 -92 0
-37 -64 -67 -78 -79 0
-30 -32 -82 -85 -88 0
-33 -34 -62 -63 -93 0
-37 -64 -67 -78 -79 0
-30 -32 -82 -85 -88 0
-33 -34 -62 -63 -93 0
-38 -64 -68 -78 -79 0
-30 -32 -83 -85 -89 0
-33 -34 -62 -63 -94 0
-38 -64 -68 -78 -79 0
-30 -32 -83 -85 -89 0
-33 -34 -62 -63 -94 0
-39 -64 -69 -78 -79 0
-30 -32 -84 -85 -90 0
-33 -34 -62 -63 -95 0
-39 -64 -69 -78 -79 0
-30 -32 -84 -85 -90 0
-33 -34 -62 -63 -95 0
-36 -65 -66 -78 -80 0
-30 -32 -81 -86 -87 0
-33 -35 -62 -63 -96 0
-36 -65 -66 -78 -80 0
-30 -32 -81 -86 -87 0
-33 -35 -62 -63 -96 0
-37 -65 -67 -78 -80 0
-30 -32 -82 -86 -88 0
-33 -35 -62 -63 -97 0
-37 -65 -67 -78 -80 0
-30 -32 -82 -86 -88 0
-33 -35 -62 -63 -97 0
-38 -65 -68 -78 -80 0
-30 -32 -83 -86 -89 0
-33 -35 -62 -63 -98 0
-38 -65 -68 -78 -80 0
-30 -32 -83 -86 -89 0
-33 -35 -62 -63 -98 0
-39 -65 -69 -78 -80 0
-30 -32 -84 -86 -90 0
-33 -35 -62 -63 -99 0
-39 -65 -69 -78 -80 0
-30 -32 -84 -86 -90 0
-33 -35 -62 -63 -99 0
-37 -66 -67 -78 -81 0
-30 -32 -82 -87 -88 0
-33 -36 -62 -63 -100 0
-37 -66 -67 -78 -81 0
-30 -32 -82 -87 -88 0
-33 -36 -62 -63 -100 0
-38 -66 -68 -78 -81 0
-30 -32 -83 -87 -89 0
-33 -36 -62 -63 -101 0
-38 -66 -68 -78 -81 0
-30 -32 -83 -87 -89 0
-33 -36 -62 -63 -101 0
-39 -66 -69 -78 -81 0
-30 -32 -84 -87 -90 0
-33 -36 -62 -63 -102 0
-39 -66 -69 -78 -81 0
-30 -32 -84 -87 -90 0
-33 -36 -62 -63 -102 0
-38 -67 -68 -78 -82 0
-30 -32 -83 -88 -89 0
-33 -37 -62 -63 -103 0
-38 -67 -68 -78 -82 0
-30 -32 -83 -88 -89 0
-33 -37 -62 -63 -103 0
-39 -67 -69 -78 -82 0
-30 -32 -84 -88 -90 0
-33 -37 -62 -63 -104 0
-39 -67 -69 -78 -82 0
-30 -32 -84 -88 -90 0
-33 -37 -62 -63 -104 0
-39 -68 -69 -78 -83 0
-30 -32 -84 -89 -90 0
-33 -38 -62 -63 -105 0
-39 -68 -69 -78 -83 0
-30 -32 -84 -89 -90 0
-33 -38 -62 -63 -105 0
-36 -65 -66 -79 -80 0
-30 -32 -81 -91 -92 0
-34 -35 -62 -64 -96 0
-36 -65 -66 -79 -80 0
-30 -32 -81 -91 -92 0
-34 -35 -62 -64 -96 0
-37 -65 -67 -79 -80 0
-30 -32 -82 -91 -93 0
-34 -35 -62 -64 -97 0
-37 -65 -67 -79 -80 0
-30 -32 -82 -91 -93 0
-34 -35 -62 -64 -97 0
-38 -65 -68 -79 -80 0
-30 -32 -83 -91 -94 0
-34 -35 -62 -64 -98 0
-38 -65 -68 -79 -80 0
-30 -32 -83 -91 -94 0
-34 -35 -62 -64 -98 0
-39 -65 -69 -79 -80 0
-30 -32 -84 -91 -95 0
-34 -35 -62 -64 -99 0
-39 -65 -69 -79 -80 0
-30 -32 -84 -91 -95 0
-34 -35 -62 -64 -99 0
-37 -66 -67 -79 -81 0
-30 -32 -82 -92 -93 0
-34 -36 -62 -64 -100 0
-37 -66 -67 -79 -81 0
-30 -32 -82 -92 -93 0
-34 -36 -62 -64 -100 0
-38 -66 -68 -79 -81 0
-30 -32 -83 -92 -94 0
-34 -36 -62 -64 -101 0
-38 -66 -68 -79 -81 0
-30 -32 -83 -92 -94 0
-34 -36 -62 -64 -101 0
-39 -66 -69 -79 -81 0
-30 -32 -84 -92 -95 0
-34 -36 -62 -64 -102 0
-39 -66 -69 -79 -81 0
-30 -32 -84 -92 -95 0
-34 -36 -62 -64 -102 0
-38 -67 -68 -79 -82 0
-30 -32 -83 -93 -94 0
-34 -37 -62 -64 -103 0
-38 -67 -68 -79 -82 0
-30 -32 -83 -93 -94 0
-34 -37 -62 -64 -103 0
-39 -67 -69 -79 -82 0
-30 -32 -84 -93 -95 0
-34 -37 -62 -64 -104 0
-39 -67 -69 -79 -82 0
-30 -32 -84 -93 -95 0
-34 -37 -62 -64 -104 0
-39 -68 -69 -79 -83 0
-30 -32 -84 -94 -95 0
-34 -38 -62 -64 -105 0
-39 -68 -69 -79 -83 0
-30 -32 -84 -94 -95 0
-34 -38 -62 -64 -105 0
-37 -66 -67 -80 -81 0
-30 -32 -82 -96 -97 0
-35 -36 -62 -65 -100 0
-37 -66 -67 -80 -81 0
-30 -32 -82 -96 -97 0
-35 -36 -62 -65 -100 0
-38 -66 -68 -80 -81 0
-30 -32 -83 -96 -98 0
-35 -36 -62 -65 -101 0
-38 -66 -68 -80 -81 0
-30 -32 -83 -96 -98 0
-35 -36 -62 -65 -101 0
-39 -66 -69 -80 -81 0
-30 -32 -84 -96 -99 0
-35 -36 -62 -65 -102 0
-39 -66 -69 -80 -81 0
-30 -32 -84 -96 -99 0
-35 -36 -62 -65 -102 0
-38 -67 -68 -80 -82 0
-30 -32 -83 -97 -98 0
-35 -37 -62 -65 -103 0
-38 -67 -68 -80 -82 0
-30 -32 -83 -97 -98 0
-35 -37 -62 -65 -103 0
-39 -67 -69 -80 -82 0
-30 -32 -84 -97 -99 0
-35 -37 -62 -65 -104 0
-39 -67 -69 -80 -82 0
-30 -32 -84 -97 -99 0
-35 -37 -62 -65 -104 0
-39 -68 -69 -80 -83 0
-30 -32 -84 -98 -99 0
-35 -38 -62 -65 -105 0
-39 -68 -69 -80 -83 0
-30 -32 -84 -98 -99 0
-35 -38 -62 -65 -105 0
-38 -67 -68 -81 -82 0
-30 -32 -83 -100 -101 0
-36 -37 -62 -66 -103 0
-38 -67 -68 -81 -82 0
-30 -32 -83 -100 -101 0
-36 -37 -62 -66 -103 0
-39 -67 -69 -81 -82 0
-30 -32 -84 -100 -102 0
-36 -37 -62 -66 -104 0
-39 -67 -69 -81 -82 0
-30 -32 -84 -100 -102 0
-36 -37 -62 -66 -104 0
-39 -68 -69 -81 -83 0
-30 -32 -84 -101 -102 0
-36 -38 -62 -66 -105 0
-39 -68 -69 -81 -83 0
-30 -32 -84 -101 -102 0
-36 -38 -62 -66 -105 0
-39 -68 -69 -82 -83 0
-30 -32 -84 -103 -104 0
-37 -38 -62 -67 -105 0
-39 -68 -69 -82 -83 0
-30 -32 -84 -103 -104 0
-37 -38 -62 -67 -105 0
-36 -65 -66 -85 -86 0
-30 -33 -87 -91 -92 0
-34 -35 -63 -64 -96 0
-36 -65 -66 -85 -86 0
-30 -33 -87 -91 -92 0
-34 -35 -63 -64 -96 0
-37 -65 -67 -85 -86 0
-30 -33 -88 -91 -93 0
-34 -35 -63 -64 -97 0
-37 -65 -67 -85 -86 0
-30 -33 -88 -91 -93 0
-34 -35 -63 -64 -97 0
-38 -65 -68 -85 -86 0
-30 -33 -89 -91 -94 0
-34 -35 -63 -64 -98 0
-38 -65 -68 -85 -86 0
-30 -33 -89 -91 -94 0
-34 -35 -63 -64 -98 0
-39 -65 -69 -85 -86 0
-30 -33 -90 -91 -95 0
-34 -35 -63 -64 -99 0
-39 -65 -69 -85 -86 0
-30 -33 -90 -91 -95 0
-34 -35 -63 -64 -99 0
-37 -66 -67 -85 -87 0
-30 -33 -88 -92 -93 0
-34 -36 -63 -64 -100 0
-37 -66 -67 -85 -87 0
-30 -33 -88 -92 -93 0
-34 -36 -63 -64 -100 0
-38 -66 -68 -85 -87 0
-30 -33 -89 -92 -94 0
-34 -36 -63 -64 -101 0
-38 -66 -68 -85 -87 0
-30 -33 -89 -92 -94 0
-34 -36 -63 -64 -101 0
-39 -66 -69 -85 -87 0
-30 -33 -90 -92 -95 0
-34 -36 -63 -64 -102 0
-39 -66 -69 -85 -87 0
-30 -33 -90 -92 -95 0
-34 -36 -63 -64 -102 0
-38 -67 -68 -85 -88 0
-30 -33 -89 -93 -94 0
-34 -37 -63 -64 -103 0
-38 -67 -68 -85 -88 0
-30 -33 -89 -93 -94 0
-34 -37 -63 -64 -103 0
-39 -67 -69 -85 -88 0
-30 -33 -90 -93 -95 0
-34 -37 -63 -64 -104 0
-39 -67 -69 -85 -88 0
-30 -33 -90 -93 -95 0
-34 -37 -63 -64 -104 0
-39 -68 -69 -85 -89 0
-30 -33 -90 -94 -95 0
-34 -38 -63 -64 -105 0
-39 -68 -69 -85 -89 0
-30 -33 -90 -94 -95 0
-34 -38 -63 -64 -105 0
-37 -66 -67 -86 -87 0
-30 -33 -88 -96 -97 0
-35 -36 -63 -65 -100 0
-37 -66 -67 -86 -87 0
-30 -33 -88 -96 -97 0
-35 -36 -63 -65 -100 0
-38 -66 -68 -86 -87 0
-30 -33 -89 -96 -98 0
-35 -36 -63 -65 -101 0
-38 -66 -68 -86 -87 0
-30 -33 -89 -96 -98 0
-35 -36 -63 -65 -101 0
-39 -66 -69 -86 -87 0
-30 -33 -90 -96 -99 0
-35 -36 -63 -65 -102 0
-39 -66 -69 -86 -87 0
-30 -33 -90 -96 -99 0
-35 -36 -63 -65 -102 0
-38 -67 -68 -86 -88 0
-30 -33 -89 -97 -98 0
-35 -37 -63 -65 -103 0
-38 -67 -68 -86 -88 0
-30 -33 -89 -97 -98 0
-35 -37 -63 -65 -103 0
-39 -67 -69 -86 -88 0
-30 -33 -90 -97 -99 0
-35 -37 -63 -65 -104 0
-39 -67 -69 -86 -88 0
-30 -33 -90 -97 -99 0
-35 -37 -63 -65 -104 0
-39 -68 -69 -86 -89 0
-30 -33 -90 -98 -99 0
-35 -38 -63 -65 -105 0
-39 -68 -69 -86 -89 0
-30 -33 -90 -98 -99 0
-35 -38 -63 -65 -105 0
-38 -67 -68 -87 -88 0
-30 -33 -89 -100 -101 0
-36 -37 -63 -66 -103 0
-38 -67 -68 -87 -88 0
-30 -33 -89 -100 -101 0
-36 -37 -63 -66 -103 0
-39 -67 -69 -87 -88 0
-30 -33 -90 -100 -102 0
-36 -37 -63 -66 -104 0
-39 -67 -69 -87 -88 0
-30 -33 -90 -100 -102 0
-36 -37 -63 -66 -104 0
-39 -68 -69 -87 -89 0
-30 -33 -90 -101 -102 0
-36 -38 -63 -66 -105 0
-39 -68 -69 -87 -89 0
-30 -33 -90 -101 -102 0
-36 -38 -63 -66 -105 0
-39 -68 -69 -88 -89 0
-30 -33 -90 -103 -104 0
-37 -38 -63 -67 -105 0
-39 -68 -69 -88 -89 0
-30 -33 -90 -103 -104 0
-37 -38 -63 -67 -105 0
-37 -66 -67 -91 -92 0
-30 -34 -93 -96 -97 0
-35 -36 -64 -65 -100 0
-37 -66 -67 -91 -92 0
-30 -34 -93 -96 -97 0
-35 -36 -64 -65 -100 0
-38 -66 -68 -91 -92 0
-30 -34 -94 -96 -98 0
-35 -36 -64 -65 -101 0
-38 -66 -68 -91 -92 0
-30 -34 -94 -96 -98 0
-35 -36 -64 -65 -101 0
-39 -66 -69 -91 -92 0
-30 -34 -95 -96 -99 0
-35 -36 -64 -65 -102 0
-39 -66 -69 -91 -92 0
-30 -34 -95 -96 -99 0
-35 -36 -64 -65 -102 0
-38 -67 -68 -91 -93 0
-30 -34 -94 -97 -98 0
-35 -37 -64 -65 -103 0
-38 -67 -68 -91 -93 0
-30 -34 -94 -97 -98 0
-35 -37 -64 -65 -103 0
-39 -67 -69 -91 -93 0
-30 -34 -95 -97 -99 0
-35 -37 -64 -65 -104 0
-39 -67 -69 -91 -93 0
-30 -34 -95 -97 -99 0
-35 -37 -64 -65 -104 0
-39 -68 -69 -91 -94 0
-30 -34 -95 -98 -99 0
-35 -38 -64 -65 -105 0
-39 -68 -69 -91 -94 0
-30 -34 -95 -98 -99 0
-35 -38 -64 -65 -105 0
-38 -67 -68 -92 -93 0
-30 -34 -94 -100 -101 0
-36 -37 -64 -66 -103 0
-38 -67 -68 -92 -93 0
-30 -34 -94 -100 -101 0
-36 -37 -64 -66 -103 0
-39 -67 -69 -92 -93 0
-30 -34 -95 -100 -102 0
-36 -37 -64 -66 -104 0
-39 -67 -69 -92 -93 0
-30 -34 -95 -100 -102 0
-36 -37 -64 -66 -104 0
-39 -68 -69 -92 -94 0
-30 -34 -95 -101 -102 0
-36 -38 -64 -66 -105 0
-39 -68 -69 -92 -94 0
-30 -34 -95 -101 -102 0
-36 -38 -64 -66 -105 0
-39 -68 -69 -93 -94 0
-30 -34 -95 -103 -104 0
-37 -38 -64 -67 -105 0
-39 -68 -69 -93 -94 0
-30 -34 -95 -103 -104 0
-37 -38 -64 -67 -105 0
-38 -67 -68 -96 -97 0
-30 -35 -98 -100 -101 0
-36 -37 -65 -66 -103 0
-38 -67 -68 -96 -97 0
-30 -35 -98 -100 -101 0
-36 -37 -65 -66 -103 0
-39 -67 -69 -96 -97 0
-30 -35 -99 -100 -102 0
-36 -37 -65 -66 -104 0
-39 -67 -69 -96 -97 0
-30 -35 -99 -100 -102 0
-36 -37 -65 -66 -104 0
-39 -68 -69 -96 -98 0
-30 -35 -99 -101 -102 0
-36 -38 -65 -66 -105 0
-39 -68 -69 -96 -98 0
-30 -35 -99 -101 -102 0
-36 -38 -65 -66 -105 0
-39 -68 -69 -97 -98 0
-30 -35 -99 -103 -104 0
-37 -38 -65 -67 -105 0
-39 -68 -69 -97 -98 0
-30 -35 -99 -103 -104 0
-37 -38 -65 -67 -105 0
-39 -68 -69 -100 -101 0
-30 -36 -102 -103 -104 0
-37 -38 -66 -67 -105 0
-39 -68 -69 -100 -101 0
-30 -36 -102 -103 -104 0
-37 -38 -66 -67 -105 0
-35 -72 -73 -78 -79 0
-31 -32 -80 -85 -86 0
-33 -34 -70 -71 -91 0
-35 -72 -73 -78 -79 0
-31 -32 -80 -85 -86 0
-33 -34 -70 -71 -91 0
-36 -72 -74 -78 -79 0
-31 -32 -81 -85 -87 0
-33 -34 -70 -71 -92 0
-36 -72 -74 -78 -79 0
-31 -32 -81 -85 -87 0
-33 -34 -70 -71 -92 0
-37 -72 -75 -78 -79 0
-31 -32 -82 -85 -88 0
-33 -34 -70 -71 -93 0
-37 -72 -75 -78 -79 0
-31 -32 -82 -85 -88 0
-33 -34 -70 -71 -93 0
-38 -72 -76 -78 -79 0
-31 -32 -83 -85 -89 0
-33 -34 -70 -71 -94 0
-38 -72 -76 -78 -79 0
-31 -32 -83 -85 -89 0
-33 -34 -70 -71 -94 0
-39 -72 -77 -78 -79 0
-31 -32 -84 -85 -90 0
-33 -34 -70 -71 -95 0
-39 -72 -77 -78 -79 0
-31 -32 -84 -85 -90 0
-33 -34 -70 -71 -95 0
-36 -73 -74 -78 -80 0
-31 -32 -81 -86 -87 0
-33 -35 -70 -71 -96 0
-36 -73 -74 -78 -80 0
-31 -32 -81 -86 -87 0
-33 -35 -70 -71 -96 0
-37 -73 -75 -78 -80 0
-31 -32 -82 -86 -88 0
-33 -35 -70 -71 -97 0
-37 -73 -75 -78 -80 0
-31 -32 -82 -86 -88 0
-33 -35 -70 -71 -97 0
-38 -73 -76 -78 -80 0
-31 -32 -83 -86 -89 0
-33 -35 -70 -71 -98 0
-38 -73 -76 -78 -80 0
-31 -32 -83 -86 -89 0
-33 -35 -70 -71 -98 0
-39 -73 -77 -78 -80 0
-31 -32 -84 -86 -90 0
-33 -35 -70 -71 -99 0
-39 -73 -77 -78 -80 0
-31 -32 -84 -86 -90 0
-33 -35 -70 -71 -99 0
-37 -74 -75 -78 -81 0
-31 -32 -82 -87 -88 0
-33 -36 -70 -71 -100 0
-37 -74 -75 -78 -81 0
-31 -32 -82 -87 -88 0
-33 -36 -70 -71 -100 0
-38 -74 -76 -78 -81 0
-31 -32 -83 -87 -89 0
-33 -36 -70 -71 -101 0
-38 -74 -76 -78 -81 0
-31 -32 -83 -87 -89 0
-33 -36 -70 -71 -101 0
-39 -74 -77 -78 -81 0
-31 -32 -84 -87 -90 0
-33 -36 -70 -71 -102 0
-39 -74 -77 -78 -81 0
-31 -32 -84 -87 -90 0
-33 -36 -70 -71 -102 0
-38 -75 -76 -78 -82 0
-31 -32 -83 -88 -89 0
-33 -37 -70 -71 -103 0
-38 -75 -76 -78 -82 0
-31 -32 -83 -88 -89 0
-33 -37 -70 -71 -103 0
-39 -75 -77 -78 -82 0
-31 -32 -84 -88 -90 0
-33 -37 -70 -71 -104 0
-39 -75 -77 -78 -82 0
-31 -32 -84 -88 -90 0
-33 -37 -70 -71 -104 0
-39 -76 -77 -78 -83 0
-31 -32 -84 -89 -90 0
-33 -38 -70 -71 -105 0
-39 -76 -77 -78 -83 0
-31 -32 -84 -89 -90 0
-33 -38 -70 -71 -105 0
-36 -73 -74 -79 -80 0
-31 -32 -81 -91 -92 0
-34 -35 -70 -72 -96 0
-36 -73 -74 -79 -80 0
-31 -32 -81 -91 -92 0
-34 -35 -70 -72 -96 0
-37 -73 -75 -79 -80 0
-31 -32 -82 -91 -93 0
-34 -35 -70 -72 -97 0
-37 -73 -75 -79 -80 0
-31 -32 -82 -91 -93 0
-34 -35 -70 -72 -97 0
-38 -73 -76 -79 -80 0
-31 -32 -83 -91 -94 0
-34 -35 -70 -72 -98 0
-38 -73 -76 -79 -80 0
-31 -32 -83 -91 -94 0
-34 -35 -70 -72 -98 0
-39 -73 -77 -79 -80 0
-31 -32 -84 -91 -95 0
-34 -35 -70 -72 -99 0
-39 -73 -77 -79 -80 0
-31 -32 -84 -91 -95 0
-34 -35 -70 -72 -99 0
-37 -74 -75 -79 -81 0
-31 -32 -82 -92 -93 0
-34 -36 -70 -72 -100 0
-37 -74 -75 -79 -81 0
-31 -32 -82 -92 -93 0
-34 -36 -70 -72 -100 0
-38 -74 -76 -79 -81 0
-31 -32 -83 -92 -94 0
-34 -36 -70 -72 -101 0
-38 -74 -76 -79 -81 0
-31 -32 -83 -92 -94 0
-34 -36 -70 -72 -101 0
-39 -74 -77 -79 -81 0
-31 -32 -84 -92 -95 0
-34 -36 -70 -72 -102 0
-39 -74 -77 -79 -81 0
-31 -32 -84 -92 -95 0
-34 -36 -70 -72 -102 0
-38 -75 -76 -79 -82 0
-31 -32 -83 -93 -94 0
-34 -37 -70 -72 -103 0
-38 -75 -76 -79 -82 0
-31 -32 -83 -93 -94 0
-34 -37 -70 -72 -103 0
-39 -75 -77 -79 -82 0
-31 -32 -84 -93 -95 0
-34 -37 -70 -72 -104 0
-39 -75 -77 -79 -82 0
-31 -32 -84 -93 -95 0
-34 -37 -70 -72 -104 0
-39 -76 -77 -79 -83 0
-31 -32 -84 -94 -95 0
-34 -38 -70 -72 -105 0
-39 -76 -77 -79 -83 0
-31 -32 -84 -94 -95 0
-34 -38 -70 -72 -105 0
-37 -74 -75 -80 -81 0
-31 -32 -82 -96 -97 0
-35 -36 -70 -73 -100 0
-37 -74 -75 -80 -81 0
-31 -32 -82 -96 -97 0
-35 -36 -70 -73 -100 0
-38 -74 -76 -80 -81 0
-31 -32 -83 -96 -98 0
-35 -36 -70 -73 -101 0
-38 -74 -76 -80 -81 0
-31 -32 -83 -96 -98 0
-35 -36 -70 -73 -101 0
-39 -74 -77 -80 -81 0
-31 -32 -84 -96 -99 0
-35 -36 -70 -73 -102 0
-39 -74 -77 -80 -81 0
-31 -32 -84 -96 -99 0
-35 -36 -70 -73 -102 0
-38 -75 -76 -80 -82 0
-31 -32 -83 -97 -98 0
-35 -37 -70 -73 -103 0
-38 -75 -76 -80 -82 0
-31 -32 -83 -97 -98 0
-35 -37 -70 -73 -103 0
-39 -75 -77 -80 -82 0
-31 -32 -84 -97 -99 0
-35 -37 -70 -73 -104 0
-39 -75 -77 -80 -82 0
-31 -32 -84 -97 -99 0
-35 -37 -70 -73 -104 0
-39 -76 -77 -80 -83 0
-31 -32 -84 -98 -99 0
-35 -38 -70 -73 -105 0
-39 -76 -77 -80 -83 0
-31 -32 -84 -98 -99 0
-35 -38 -70 -73 -105 0
-38 -75 -76 -81 -82 0
-31 -32 -83 -100 -101 0
-36 -37 -70 -74 -103 0
-38 -75 -76 -81 -82 0
-31 -32 -83 -100 -101 0
-36 -37 -70 -74 -103 0
-39 -75 -77 -81 -82 0
-31 -32 -84 -100 -102 0
-36 -37 -70 -74 -104 0
-39 -75 -77 -81 -82 0
-31 -32 -84 -100 -102 0
-36 -37 -70 -74 -104 0
-39 -76 -77 -81 -83 0
-31 -32 -84 -101 -102 0
-36 -38 -70 -74 -105 0
-39 -76 -77 -81 -83 0
-31 -32 -84 -101 -102 0
-36 -38 -70 -74 -105 0
-39 -76 -77 -82 -83 0
-31 -32 -84 -103 -104 0
-37 -38 -70 -75 -105 0
-39 -76 -77 -82 -83 0
-31 -32 -84 -103 -104 0
-37 -38 -70 -75 -105 0
-36 -73 -74 -85 -86 0
-31 -33 -87 -91 -92 0
-34 -35 -71 -72 -96 0
-36 -73 -74 -85 -86 0
-31 -33 -87 -91 -92 0
-34 -35 -71 -72 -96 0
-37 -73 -75 -85 -86 0
-31 -33 -88 -91 -93 0
-34 -35 -71 -72 -97 0
-37 -73 -75 -85 -86 0
-31 -33 -88 -91 -93 0
-34 -35 -71 -72 -97 0
-38 -73 -76 -85 -86 0
-31 -33 -89 -91 -94 0
-34 -35 -71 -72 -98 0
-38 -73 -76 -85 -86 0
-31 -33 -89 -91 -94 0
-34 -35 -71 -72 -98 0
-39 -73 -77 -85 -86 0
-31 -33 -90 -91 -95 0
-34 -35 -71 -72 -99 0
-39 -73 -77 -85 -86 0
-31 -33 -90 -91 -95 0
-34 -35 -71 -72 -99 0
-37 -74 -75 -85 -87 0
-31 -33 -88 -92 -93 0
-34 -36 -71 -72 -100 0
-37 -74 -75 -85 -87 0
-31 -33 -88 -92 -93 0
-34 -36 -71 -72 -100 0
-38 -74 -76 -85 -87 0
-31 -33 -89 -92 -94 0
-34 -36 -71 -72 -101 0
-38 -74 -76 -85 -87 0
-31 -33 -89 -92 -94 0
-34 -36 -71 -72 -101 0
-39 -74 -77 -85 -87 0
-31 -33 -90 -92 -95 0
-34 -36 -71 -72 -102 0
-39 -74 -77 -85 -87 0
-31 -33 -90 -92 -95 0
-34 -36 -71 -72 -102 0
-38 -75 -76 -85 -88 0
-31 -33 -89 -93 -94 0
-34 -37 -71 -72 -103 0
-38 -75 -76 -85 -88 0
-31 -33 -89 -93 -94 0
-34 -37 -71 -72 -103 0
-39 -75 -77 -85 -88 0
-31 -33 -90 -93 -95 0
-34 -37 -71 -72 -104 0
-39 -75 -77 -85 -88 0
-31 -33 -90 -93 -95 0
-34 -37 -71 -72 -104 0
-39 -76 -77 -85 -89 0
-31 -33 -90 -94 -95 0
-34 -38 -71 -72 -105 0
-39 -76 -77 -85 -89 0
-31 -33 -90 -94 -95 0
-34 -38 -71 -72 -105 0
-37 -74 -75 -86 -87 0
-31 -33 -88 -96 -97 0
-35 -36 -71 -73 -100 0
-37 -74 -75 -86 -87 0
-31 -33 -88 -96 -97 0
-35 -36 -71 -73 -100 0
-38 -74 -76 -86 -87 0
-31 -33 -89 -96 -98 0
-35 -36 -71 -73 -101 0
-38 -74 -76 -86 -87 0
-31 -33 -89 -96 -98 0
-35 -36 -71 -73 -101 0
-39 -74 -77 -86 -87 0
-31 -33 -90 -96 -99 0
-35 -36 -71 -73 -102 0
-39 -74 -77 -86 -87 0
-31 -33 -90 -96 -99 0
-35 -36 -71 -73 -102 0
-38 -75 -76 -86 -88 0
-31 -33 -89 -97 -98 0
-35 -37 -71 -73 -103 0
-38 -75 -76 -86 -88 0
-31 -33 -89 -97 -98 0
-35 -37 -71 -73 -103 0
-39 -75 -77 -86 -88 0
-31 -33 -90 -97 -99 0
-35 -37 -71 -73 -104 0
-39 -75 -77 -86 -88 0
-31 -33 -90 -97 -99 0
-35 -37 -71 -73 -104 0
-39 -76 -77 -86 -89 0
-31 -33 -90 -98 -99 0
-35 -38 -71 -73 -105 0
-39 -76 -77 -86 -89 0
-31 -33 -90 -98 -99 0
-35 -38 -71 -73 -105 0
-38 -75 -76 -87 -88 0
-31 -33 -89 -100 -101 0
-36 -37 -71 -74 -103 0
-38 -75 -76 -87 -88 0
-31 -33 -89 -100 -101 0
-36 -37 -71 -74 -103 0
-39 -75 -77 -87 -88 0
-31 -33 -90 -100 -102 0
-36 -37 -71 -74 -104 0
-39 -75 -77 -87 -88 0
-31 -33 -90 -100 -102 0
-36 -37 -71 -74 -104 0
-39 -76 -77 -87 -89 0
-31 -33 -90 -101 -102 0
-36 -38 -71 -74 -105 0
-39 -76 -77 -87 -89 0
-31 -33 -90 -101 -102 0
-36 -38 -71 -74 -105 0
-39 -76 -77 -88 -89 0
-31 -33 -90 -103 -104 0
-37 -38 -71 -75 -105 0
-39 -76 -77 -88 -89 0
-31 -33 -90 -103 -104 0
-37 -38 -71 -75 -105 0
-37 -74 -75 -91 -92 0
-31 -34 -93 -96 -97 0
-35 -36 -72 -73 -100 0
-37 -74 -75 -91 -92 0
-31 -34 -93 -96 -97 0
-35 -36 -72 -73 -100 0
-38 -74 -76 -91 -92 0
-31 -34 -94 -96 -98 0
-35 -36 -72 -73 -101 0
-38 -74 -76 -91 -92 0
-31 -34 -94 -96 -98 0
-35 -36 -72 -73 -101 0
-39 -74 -77 -91 -92 0
-31 -34 -95 -96 -99 0
-35 -36 -72 -73 -102 0
-39 -74 -77 -91 -92 0
-31 -34 -95 -96 -99 0
-35 -36 -72 -73 -102 0
-38 -75 -76 -91 -93 0
-31 -34 -94 -97 -98 0
-35 -37 -72 -73 -103 0
-38 -75 -76 -91 -93 0
-31 -34 -94 -97 -98 0
-35 -37 -72 -73 -103 0
-39 -75 -77 -91 -93 0
-31 -34 -95 -97 -99 0
-35 -37 -72 -73 -104 0
-39 -75 -77 -91 -93 0
-31 -34 -95 -97 -99 0
-35 -37 -72 -73 -104 0
-39 -76 -77 -91 -94 0
-31 -34 -95 -98 -99 0
-35 -38 -72 -73 -105 0
-39 -76 -77 -91 -94 0
-31 -34 -95 -98 -99 0
-35 -38 -72 -73 -105 0
-38 -75 -76 -92 -93 0
-31 -34 -94 -100 -101 0
-36 -37 -72 -74 -103 0
-38 -75 -76 -92 -93 0
-31 -34 -94 -100 -101 0
-36 -37 -72 -74 -103 0
-39 -75 -77 -92 -93 0
-31 -34 -95 -100 -102 0
-36 -37 -72 -74 -104 0
-39 -75 -77 -92 -93 0
-31 -34 -95 -100 -102 0
-36 -37 -72 -74 -104 0
-39 -76 -77 -92 -94 0
-31 -34 -95 -101 -102 0
-36 -38 -72 -74 -105 0
-39 -76 -77 -92 -94 0
-31 -34 -95 -101 -102 0
-36 -38 -72 -74 -105 0
-39 -76 -77 -93 -94 0
-31 -34 -95 -103 -104 0
-37 -38 -72 -75 -105 0
-39 -76 -77 -93 -94 0
-31 -34 -95 -103 -104 0
-37 -38 -72 -75 -105 0
-38 -75 -76 -96 -97 0
-31 -35 -98 -100 -101 0
-36 -37 -73 -74 -103 0
-38 -75 -76 -96 -97 0
-31 -35 -98 -100 -101 0
-36 -37 -73 -74 -103 0
-39 -75 -77 -96 -97 0
-31 -35 -99 -100 -102 0
-36 -37 -73 -74 -104 0
-39 -75 -77 -96 -97 0
-31 -35 -99 -100 -102 0
-36 -37 -73 -74 -104 0
-39 -76 -77 -96 -98 0
-31 -35 -99 -101 -102 0
-36 -38 -73 -74 -105 0
-39 -76 -77 -96 -98 0
-31 -35 -99 -101 -102 0
-36 -38 -73 -74 -105 0
-39 -76 -77 -97 -98 0
-31 -35 -99 -103 -104 0
-37 -38 -73 -75 -105 0
-39 -76 -77 -97 -98 0
-31 -35 -99 -103 -104 0
-37 -38 -73 -75 -105 0
-39 -76 -77 -100 -101 0
-31 -36 -102 -103 -104 0
-37 -38 -74 -75 -105 0
-39 -76 -77 -100 -101 0
-31 -36 -102 -103 -104 0
-37 -38 -74 -75 -105 0
-36 -80 -81 -85 -86 0
-32 -33 -87 -91 -92 0
-34 -35 -78 -79 -96 0
-36 -80 -81 -85 -86 0
-32 -33 -87 -91 -92 0
-34 -35 -78 -79 -96 0
-37 -80 -82 -85 -86 0
-32 -33 -88 -91 -93 0
-34 -35 -78 -79 -97 0
-37 -80 -82 -85 -86 0
-32 -33 -88 -91 -93 0
-34 -35 -78 -79 -97 0
-38 -80 -83 -85 -86 0
-32 -33 -89 -91 -94 0
-34 -35 -78 -79 -98 0
-38 -80 -83 -85 -86 0
-32 -33 -89 -91 -94 0
-34 -35 -78 -79 -98 0
-39 -80 -84 -85 -86 0
-32 -33 -90 -91 -95 0
-34 -35 -78 -79 -99 0
-39 -80 -84 -85 -86 0
-32 -33 -90 -91 -95 0
-34 -35 -78 -79 -99 0
-37 -81 -82 -85 -87 0
-32 -33 -88 -92 -93 0
-34 -36 -78 -79 -100 0
-37 -81 -82 -85 -87 0
-32 -33 -88 -92 -93 0
-34 -36 -78 -79 -100 0
-38 -81 -83 -85 -87 0
-32 -33 -89 -92 -94 0
-34 -36 -78 -79 -101 0
-38 -81 -83 -85 -87 0
-32 -33 -89 -92 -94 0
-34 -36 -78 -79 -101 0
-39 -81 -84 -85 -87 0
-32 -33 -90 -92 -95 0
-34 -36 -78 -79 -102 0
-39 -81 -84 -85 -87 0
-32 -33 -90 -92 -95 0
-34 -36 -78 -79 -102 0
-38 -82 -83 -85 -88 0
-32 -33 -89 -93 -94 0
-34 -37 -78 -79 -103 0
-38 -82 -83 -85 -88 0
-32 -33 -89 -93 -94 0
-34 -37 -78 -79 -103 0
-39 -82 -84 -85 -88 0
-32 -33 -90 -93 -95 0
-34 -37 -78 -79 -104 0
-39 -82 -84 -85 -88 0
-32 -33 -90 -93 -95 0
-34 -37 -78 -79 -104 0
-39 -83 -84 -85 -89 0
-32 -33 -90 -94 -95 0
-34 -38 -78 -79 -105 0
-39 -83 -84 -85 -89 0
-32 -33 -90 -94 -95 0
-34 -38 -78 -79 -105 0
-37 -81 -82 -86 -87 0
-32 -33 -88 -96 -97 0
-35 -36 -78 -80 -100 0
-37 -81 -82 -86 -87 0
-32 -33 -88 -96 -97 0
-35 -36 -78 -80 -100 0
-38 -81 -83 -86 -87 0
-32 -33 -89 -96 -98 0
-35 -36 -78 -80 -101 0
-38 -81 -83 -86 -87 0
-32 -33 -89 -96 -98 0
-35 -36 -78 -80 -101 0
-39 -81 -84 -86 -87 0
-32 -33 -90 -96 -99 0
-35 -36 -78 -80 -102 0
-39 -81 -84 -86 -87 0
-32 -33 -90 -96 -99 0
-35 -36 -78 -80 -102 0
-38 -82 -83 -86 -88 0
-32 -33 -89 -97 -98 0
-35 -37 -78 -80 -103 0
-38 -82 -83 -86 -88 0
-32 -33 -89 -97 -98 0
-35 -37 -78 -80 -103 0
-39 -82 -84 -86 -88 0
-32 -33 -90 -97 -99 0
-35 -37 -78 -80 -104 0
-39 -82 -84 -86 -88 0
-32 -33 -90 -97 -99 0
-35 -37 -78 -80 -104 0
-39 -83 -84 -86 -89 0
-32 -33 -90 -98 -99 0
-35 -38 -78 -80 -105 0
-39 -83 -84 -86 -89 0
-32 -33 -90 -98 -99 0
-35 -38 -78 -80 -105 0
-38 -82 -83 -87 -88 0
-32 -33 -89 -100 -101 0
-36 -37 -78 -81 -103 0
-38 -82 -83 -87 -88 0
-32 -33 -89 -100 -101 0
-36 -37 -78 -81 -103 0
-39 -82 -84 -87 -88 0
-32 -33 -90 -100 -102 0
-36 -37 -78 -81 -104 0
-39 -82 -84 -87 -88 0
-32 -33 -90 -100 -102 0
-36 -37 -78 -81 -104 0
-39 -83 -84 -87 -89 0
-32 -33 -90 -101 -102 0
-36 -38 -78 -81 -105 0
-39 -83 -84 -87 -89 0
-32 -33 -90 -101 -102 0
-36 -38 -78 -81 -105 0
-39 -83 -84 -88 -89 0
-32 -33 -90 -103 -104 0
-37 -38 -78 -82 -105 0
-39 -83 -84 -88 -89 0
-32 -33 -90 -103 -104 0
-37 -38 -78 -82 -105 0
-37 -81 -82 -91 -92 0
-32 -34 -93 -96 -97 0
-35 -36 -79 -80 -100 0
-37 -81 -82 -91 -92 0
-32 -34 -93 -96 -97 0
-35 -36 -79 -80 -100 0
-38 -81 -83 -91 -92 0
-32 -34 -94 -96 -98 0
-35 -36 -79 -80 -101 0
-38 -81 -83 -91 -92 0
-32 -34 -94 -96 -98 0
-35 -36 -79 -80 -101 0
-39 -81 -84 -91 -92 0
-32 -34 -95 -96 -99 0
-35 -36 -79 -80 -102 0
-39 -81 -84 -91 -92 0
-32 -34 -95 -96 -99 0
-35 -36 -79 -80 -102 0
-38 -82 -83 -91 -93 0
-32 -34 -94 -97 -98 0
-35 -37 -79 -80 -103 0
-38 -82 -83 -91 -93 0
-32 -34 -94 -97 -98 0
-35 -37 -79 -80 -103 0
-39 -82 -84 -91 -93 0
-32 -34 -95 -97 -99 0
-35 -37 -79 -80 -104 0
-39 -82 -84 -91 -93 0
-32 -34 -95 -97 -99 0
-35 -37 -79 -80 -104 0
-39 -83 -84 -91 -94 0
-32 -34 -95 -98 -99 0
-35 -38 -79 -80 -105 0
-39 -83 -84 -91 -94 0
-32 -34 -95 -98 -99 0
-35 -38 -79 -80 -105 0
-38 -82 -83 -92 -93 0
-32 -34 -94 -100 -101 0
-36 -37 -79 -81 -103 0
-38 -82 -83 -92 -93 0
-32 -34 -94 -100 -101 0
-36 -37 -79 -81 -103 0
-39 -82 -84 -92 -93 0
-32 -34 -95 -100 -102 0
-36 -37 -79 -81 -104 0
-39 -82 -84 -92 -93 0
-32 -34 -95 -100 -102 0
-36 -37 -79 -81 -104 0
-39 -83 -84 -92 -94 0
-32 -34 -95 -101 -102 0
-36 -38 -79 -81 -105 0
-39 -83 -84 -92 -94 0
-32 -34 -95 -101 -102 0
-36 -38 -79 -81 -105 0
-39 -83 -84 -93 -94 0
-32 -34 -95 -103 -104 0
-37 -38 -79 -82 -105 0
-39 -83 -84 -93 -94 0
-32 -34 -95 -103 -104 0
-37 -38 -79 -82 -105 0
-38 -82 -83 -96 -97 0
-32 -35 -98 -100 -101 0
-36 -37 -80 -81 -103 0
-38 -82 -83 -96 -97 0
-32 -35 -98 -100 -101 0
-36 -37 -80 -81 -103 0
-39 -82 -84 -96 -97 0
-32 -35 -99 -100 -102 0
-36 -37 -80 -81 -104 0
-39 -82 -84 -96 -97 0
-32 -35 -99 -100 -102 0
-36 -37 -80 -81 -104 0
-39 -83 -84 -96 -98 0
-32 -35 -99 -101 -102 0
-36 -38 -80 -81 -105 0
-39 -83 -84 -96 -98 0
-32 -35 -99 -101 -102 0
-36 -38 -80 -81 -105 0
-39 -83 -84 -97 -98 0
-32 -35 -99 -103 -104 0
-37 -38 -80 -82 -105 0
-39 -83 -84 -97 -98 0
-32 -35 -99 -103 -104 0
-37 -38 -80 -82 -105 0
-39 -83 -84 -100 -101 0
-32 -36 -102 -103 -104 0
-37 -38 -81 -82 -105 0
-39 -83 -84 -100 -101 0
-32 -36 -102 -103 -104 0
-37 -38 -81 -82 -105 0
-37 -87 -88 -91 -92 0
-33 -34 -93 -96 -97 0
-35 -36 -85 -86 -100 0
-37 -87 -88 -91 -92 0
-33 -34 -93 -96 -97 0
-35 -36 -85 -86 -100 0
-38 -87 -89 -91 -92 0
-33 -34 -94 -96 -98 0
-35 -36 -85 -86 -101 0
-38 -87 -89 -91 -92 0
-33 -34 -94 -96 -98 0
-35 -36 -85 -86 -101 0
-39 -87 -90 -91 -92 0
-33 -34 -95 -96 -99 0
-35 -36 -85 -86 -102 0
-39 -87 -90 -91 -92 0
-33 -34 -95 -96 -99 0
-35 -36 -85 -86 -102 0
-38 -88 -89 -91 -93 0
-33 -34 -94 -97 -98 0
-35 -37 -85 -86 -103 0
-38 -88 -89 -91 -93 0
-33 -34 -94 -97 -98 0
-35 -37 -85 -86 -103 0
-39 -88 -90 -91 -93 0
-33 -34 -95 -97 -99 0
-35 -37 -85 -86 -104 0
-39 -88 -90 -91 -93 0
-33 -34 -95 -97 -99 0
-35 -37 -85 -86 -104 0
-39 -89 -90 -91 -94 0
-33 -34 -95 -98 -99 0
-35 -38 -85 -86 -105 0
-39 -89 -90 -91 -94 0
-33 -34 -95 -98 -99 0
-35 -38 -85 -86 -105 0
-38 -88 -89 -92 -93 0
-33 -34 -94 -100 -101 0
-36 -37 -85 -87 -103 0
-38 -88 -89 -92 -93 0
-33 -34 -94 -100 -101 0
-36 -37 -85 -87 -103 0
-39 -88 -90 -92 -93 0
-33 -34 -95 -100 -102 0
-36 -37 -85 -87 -104 0
-39 -88 -90 -92 -93 0
-33 -34 -95 -100 -102 0
-36 -37 -85 -87 -104 0
-39 -89 -90 -92 -94 0
-33 -34 -95 -101 -102 0
-36 -38 -85 -87 -105 0
-39 -89 -90 -92 -94 0
-33 -34 -95 -101 -102 0
-36 -38 -85 -87 -105 0
-39 -89 -90 -93 -94 0
-33 -34 -95 -103 -104 0
-37 -38 -85 -88 -105 0
-39 -89 -90 -93 -94 0
-33 -34 -95 -103 -104 0
-37 -38 -85 -88 -105 0
-38 -88 -89 -96 -97 0
-33 -35 -98 -100 -101 0
-36 -37 -86 -87 -103 0
-38 -88 -89 -96 -97 0
-33 -35 -98 -100 -101 0
-36 -37 -86 -87 -103 0
-39 -88 -90 -96 -97 0
-33 -35 -99 -100 -102 0
-36 -37 -86 -87 -104 0
-39 -88 -90 -96 -97 0
-33 -35 -99 -100 -102 0
-36 -37 -86 -87 -104 0
-39 -89 -90 -96 -98 0
-33 -35 -99 -101 -102 0
-36 -38 -86 -87 -105 0
-39 -89 -90 -96 -98 0
-33 -35 -99 -101 -102 0
-36 -38 -86 -87 -105 0
-39 -89 -90 -97 -98 0
-33 -35 -99 -103 -104 0
-37 -38 -86 -88 -105 0
-39 -89 -90 -97 -98 0
-33 -35 -99 -103 -104 0
-37 -38 -86 -88 -105 0
-39 -89 -90 -100 -101 0
-33 -36 -102 -103 -104 0
-37 -38 -87 -88 -105 0
-39 -89 -90 -100 -101 0
-33 -36 -102 -103 -104 0
-37 -38 -87 -88 -105 0
-38 -93 -94 -96 -97 0
-34 -35 -98 -100 -101 0
-36 -37 -91 -92 -103 0
-38 -93 -94 -96 -97 0
-34 -35 -98 -100 -101 0
-36 -37 -91 -92 -103 0
-39 -93 -95 -96 -97 0
-34 -35 -99 -100 -102 0
-36 -37 -91 -92 -104 0
-39 -93 -95 -96 -97 0
-34 -35 -99 -100 -102 0
-36 -37 -91 -92 -104 0
-39 -94 -95 -96 -98 0
-34 -35 -99 -101 -102 0
-36 -38 -91 -92 -105 0
-39 -94 -95 -96 -98 0
-34 -35 -99 -101 -102 0
-36 -38 -91 -92 -105 0
-39 -94 -95 -97 -98 0
-34 -35 -99 -103 -104 0
-37 -38 -91 -93 -105 0
-39 -94 -95 -97 -98 0
-34 -35 -99 -103 -104 0
-37 -38 -91 -93 -105 0
-39 -94 -95 -100 -101 0
-34 -36 -102 -103 -104 0
-37 -38 -92 -93 -105 0
-39 -94 -95 -100 -101 0
-34 -36 -102 -103 -104 0
-37 -38 -92 -93 -105 0
-39 -98 -99 -100 -101 0
-35 -36 -102 -103 -104 0
-37 -38 -96 -97 -105 0
-39 -98 -99 -100 -101 0
-35 -36 -102 -103 -104 0
-37 -38 -96 -97 -105 0
-44 -53 -54 -61 -62 0
-40 -41 -63 -70 -71 0
-42 -43 -51 -52 -78 0
-44 -53 -54 -61 -62 0
-40 -41 -63 -70 -71 0
-42 -43 -51 -52 -78 0
-45 -53 -55 -61 -62 0
-40 -41 -64 -70 -72 0
-42 -43 -51 -52 -79 0
-45 -53 -55 -61 -62 0
-40 -41 -64 -70 -72 0
-42 -43 -51 -52 -79 0
-46 -53 -56 -61 -62 0
-40 -41 -65 -70 -73 0
-42 -43 -51 -52 -80 0
-46 -53 -56 -61 -62 0
-40 -41 -65 -70 -73 0
-42 -43 -51 -52 -80 0
-47 -53 -57 -61 -62 0
-40 -41 -66 -70 -74 0
-42 -43 -51 -52 -81 0
-47 -53 -57 -61 -62 0
-40 -41 -66 -70 -74 0
-42 -43 -51 -52 -81 0
-48 -53 -58 -61 -62 0
-40 -41 -67 -70 -75 0
-42 -43 -51 -52 -82 0
-48 -53 -58 -61 -62 0
-40 -41 -67 -70 -75 0
-42 -43 -51 -52 -82 0
-49 -53 -59 -61 -62 0
-40 -41 -68 -70 -76 0
-42 -43 -51 -52 -83 0
-49 -53 -59 -61 -62 0
-40 -41 -68 -70 -76 0
-42 -43 -51 -52 -83 0
-50 -53 -60 -61 -62 0
-40 -41 -69 -70 -77 0
-42 -43 -51 -52 -84 0
-50 -53 -60 -61 -62 0
-40 -41 -69 -70 -77 0
-42 -43 -51 -52 -84 0
-45 -54 -55 -61 -63 0
-40 -41 -64 -71 -72 0
-42 -44 -51 -52 -85 0
-45 -54 -55 -61 -63 0
-40 -41 -64 -71 -72 0
-42 -44 -51 -52 -85 0
-46 -54 -56 -61 -63 0
-40 -41 -65 -71 -73 0
-42 -44 -51 -52 -86 0
-46 -54 -56 -61 -63 0
-40 -41 -65 -71 -73 0
-42 -44 -51 -52 -86 0
-47 -54 -57 -61 -63 0
-40 -41 -66 -71 -74 0
-42 -44 -51 -52 -87 0
-47 -54 -57 -61 -63 0
-40 -41 -66 -71 -74 0
-42 -44 -51 -52 -87 0
-48 -54 -58 -61 -63 0
-40 -41 -67 -71 -75 0
-42 -44 -51 -52 -88 0
-48 -54 -58 -61 -63 0
-40 -41 -67 -71 -75 0
-42 -44 -51 -52 -88 0
-49 -54 -59 -61 -63 0
-40 -41 -68 -71 -76 0
-42 -44 -51 -52 -89 0
-49 -54 -59 -61 -63 0
-40 -41 -68 -71 -76 0
-42 -44 -51 -52 -89 0
-50 -54 -60 -61 -63 0
-40 -41 -69 -71 -77 0
-42 -44 -51 -52 -90 0
-50 -54 -60 -61 -63 0
-40 -41 -69 -71 -77 0
-42 -44 -51 -52 -90 0
-46 -55 -56 -61 -64 0
-40 -41 -65 -72 -73 0
-42 -45 -51 -52 -91 0
-46 -55 -56 -61 -64 0
-40 -41 -65 -72 -73 0
-42 -45 -51 -52 -91 0
-47 -55 -57 -61 -64 0
-40 -41 -66 -72 -74 0
-42 -45 -51 -52 -92 0
-47 -55 -57 -61 -64 0
-40 -41 -66 -72 -74 0
-42 -45 -51 -52 -92 0
-48 -55 -58 -61 -64 0
-40 -41 -67 -72 -75 0
-42 -45 -51 -52 -93 0
-48 -55 -58 -61 -64 0
-40 -41 -67 -72 -75 0
-42 -45 -51 -52 -93 0
-49 -55 -59 -61 -64 0
-40 -41 -68 -72 -76 0
-42 -45 -51 -52 -94 0
-49 -55 -59 -61 -64 0
-40 -41 -68 -72 -76 0
-42 -45 -51 -52 -94 0
-50 -55 -60 -61 -64 0
-40 -41 -69 -72 -77 0
-42 -45 -51 -52 -95 0
-50 -55 -60 -61 -64 0
-40 -41 -69 -72 -77 0
-42 -45 -51 -52 -95 0
-47 -56 -57 -61 -65 0
-40 -41 -66 -73 -74 0
-42 -46 -51 -52 -96 0
-47 -56 -57 -61 -65 0
-40 -41 -66 -73 -74 0
-42 -46 -51 -52 -96 0
-48 -56 -58 -61 -65 0
-40 -41 -67 -73 -75 0
-42 -46 -51 -52 -97 0
-48 -56 -58 -61 -65 0
-40 -41 -67 -73 -75 0
-42 -46 -51 -52 -97 0
-49 -56 -59 -61 -65 0
-40 -41 -68 -73 -76 0
-42 -46 -51 -52 -98 0
-49 -56 -59 -61 -65 0
-40 -41 -68 -73 -76 0
-42 -46 -51 -52 -98 0
-50 -56 -60 -61 -65 0
-40 -41 -69 -73 -77 0
-42 -46 -51 -52 -99 0
-50 -56 -60 -61 -65 0
-40 -41 -69 -73 -77 0
-42 -46 -51 -52 -99 0
-48 -57 -58 -61 -66 0
-40 -41 -67 -74 -75 0
-42 -47 -51 -52 -100 0
-48 -57 -58 -61 -66 0
-40 -41 -67 -74 -75 0
-42 -47 -51 -52 -100 0
-49 -57 -59 -61 -66 0
-40 -41 -68 -74 -76 0
-42 -47 -51 -52 -101 0
-49 -57 -59 -61 -66 0
-40 -41 -68 -74 -76 0
-42 -47 -51 -52 -101 0
-50 -57 -60 -61 -66 0
-40 -41 -69 -74 -77 0
-42 -47 -51 -52 -102 0
-50 -57 -60 -61 -66 0
-40 -41 -69 -74 -77 0
-42 -47 -51 -52 -102 0
-49 -58 -59 -61 -67 0
-40 -41 -68 -75 -76 0
-42 -48 -51 -52 -103 0
-49 -58 -59 -61 -67 0
-40 -41 -68 -75 -76 0
-42 -48 -51 -52 -103 0
-50 -58 -60 -61 -67 0
-40 -41 -69 -75 -77 0
-42 -48 -51 -52 -104 0
-50 -58 -60 -61 -67 0
-40 -41 -69 -75 -77 0
-42 -48 -51 -52 -104 0
-50 -59 -60 -61 -68 0
-40 -41 -69 -76 -77 0
-42 -49 -51 -52 -105 0
-50 -59 -60 -61 -68 0
-40 -41 -69 -76 -77 0
-42 -49 -51 -52 -105 0
-45 -54 -55 -62 -63 0
-40 -41 -64 -78 -79 0
-43 -44 -51 -53 -85 0
-45 -54 -55 -62 -63 0
-40 -41 -64 -78 -79 0
-43 -44 -51 -53 -85 0
-46 -54 -56 -62 -63 0
-40 -41 -65 -78 -80 0
-43 -44 -51 -53 -86 0
-46 -54 -56 -62 -63 0
-40 -41 -65 -78 -80 0
-43 -44 -51 -53 -86 0
-47 -54 -57 -62 -63 0
-40 -41 -66 -78 -81 0
-43 -44 -51 -53 -87 0
-47 -54 -57 -62 -63 0
-40 -41 -66 -78 -81 0
-43 -44 -51 -53 -87 0
-48 -54 -58 -62 -63 0
-40 -41 -67 -78 -82 0
-43 -44 -51 -53 -88 0
-48 -54 -58 -62 -63 0
-40 -41 -67 -78 -82 0
-43 -44 -51 -53 -88 0
-49 -54 -59 -62 -63 0
-40 -41 -68 -78 -83 0
-43 -44 -51 -53 -89 0
-49 -54 -59 -62 -63 0
-40 -41 -68 -78 -83 0
-43 -44 -51 -53 -89 0
-50 -54 -60 -62 -63 0
-40 -41 -69 -78 -84 0
-43 -44 -51 -53 -90 0
-50 -54 -60 -62 -63 0
-40 -41 -69 -78 -84 0
-43 -44 -51 -53 -90 0
-46 -55 -56 -62 -64 0
-40 -41 -65 -79 -80 0
-43 -45 -51 -53 -91 0
-46 -55 -56 -62 -64 0
-40 -41 -65 -79 -80 0
-43 -45 -51 -53 -91 0
-47 -55 -57 -62 -64 0
-40 -41 -66 -79 -81 0
-43 -45 -51 -53 -92 0
-47 -55 -57 -62 -64 0
-40 -41 -66 -79 -81 0
-43 -45 -51 -53 -92 0
-48 -55 -58 -62 -64 0
-40 -41 -67 -79 -82 0
-43 -45 -51 -53 -93 0
-48 -55 -58 -62 -64 0
-40 -41 -67 -79 -82 0
-43 -45 -51 -53 -93 0
-49 -55 -59 -62 -64 0
-40 -41 -68 -79 -83 0
-43 -45 -51 -53 -94 0
-49 -55 -59 -62 -64 0
-40 -41 -68 -79 -83 0
-43 -45 -51 -53 -94 0
-50 -55 -60 -62 -64 0
-40 -41 -69 -79 -84 0
-43 -45 -51 -53 -95 0
-50 -55 -60 -62 -64 0
-40 -41 -69 -79 -84 0
-43 -45 -51 -53 -95 0
-47 -56 -57 -62 -65 0
-40 -41 -66 -80 -81 0
-43 -46 -51 -53 -96 0
-47 -56 -57 -62 -65 0
-40 -41 -66 -80 -81 0
-43 -46 -51 -53 -96 0
-48 -56 -58 -62 -65 0
-40 -41 -67 -80 -82 0
-43 -46 -51 -53 -97 0
-48 -56 -58 -62 -65 0
-40 -41 -67 -80 -82 0
-43 -46 -51 -53 -97 0
-49 -56 -59 -62 -65 0
-40 -41 -68 -80 -83 0
-43 -46 -51 -53 -98 0
-49 -56 -59 -62 -65 0
-40 -41 -68 -80 -83 0
-43 -46 -51 -53 -98 0
-50 -56 -60 -62 -65 0
-40 -41 -69 -80 -84 0
-43 -46 -51 -53 -99 0
-50 -56 -60 -62 -65 0
-40 -41 -69 -80 -84 0
-43 -46 -51 -53 -99 0
-48 -57 -58 -62 -66 0
-40 -41 -67 -81 -82 0
-43 -47 -51 -53 -100 0
-48 -57 -58 -62 -66 0
-40 -41 -67 -81 -82 0
-43 -47 -51 -53 -100 0
-49 -57 -59 -62 -66 0
-40 -41 -68 -81 -83 0
-43 -47 -51 -53 -101 0
-49 -57 -59 -62 -66 0
-40 -41 -68 -81 -83 0
-43 -47 -51 -53 -101 0
-50 -57 -60 -62 -66 0
-40 -41 -69 -81 -84 0
-43 -47 -51 -53 -102 0
-50 -57 -60 -62 -66 0
-40 -41 -69 -81 -84 0
-43 -47 -51 -53 -102 0
-49 -58 -59 -62 -67 0
-40 -41 -68 -82 -83 0
-43 -48 -51 -53 -103 0
-49 -58 -59 -62 -67 0
-40 -41 -68 -82 -83 0
-43 -48 -51 -53 -103 0
-50 -58 -60 -62 -67 0
-40 -41 -69 -82 -84 0
-43 -48 -51 -53 -104 0
-50 -58 -60 -62 -67 0
-40 -41 -69 -82 -84 0
-43 -48 -51 -53 -104 0
-50 -59 -60 -62 -68 0
-40 -41 -69 -83 -84 0
-43 -49 -51 -53 -105 0
-50 -59 -60 -62 -68 0
-40 -41 -69 -83 -84 0
-43 -49 -51 -53 -105 0
-46 -55 -56 -63 -64 0
-40 -41 -65 -85 -86 0
-44 -45 -51 -54 -91 0
-46 -55 -56 -63 -64 0
-40 -41 -65 -85 -86 0
-44 -45 -51 -54 -91 0
-47 -55 -57 -63 -64 0
-40 -41 -66 -85 -87 0
-44 -45 -51 -54 -92 0
-47 -55 -57 -63 -64 0
-40 -41 -66 -85 -87 0
-44 -45 -51 -54 -92 0
-48 -55 -58 -63 -64 0
-40 -41 -67 -85 -88 0
-44 -45 -51 -54 -93 0
-48 -55 -58 -63 -64 0
-40 -41 -67 -85 -88 0
-44 -45 -51 -54 -93 0
-49 -55 -59 -63 -64 0
-40 -41 -68 -85 -89 0
-44 -45 -51 -54 -94 0
-49 -55 -59 -63 -64 0
-40 -41 -68 -85 -89 0
-44 -45 -51 -54 -94 0
-50 -55 -60 -63 -64 0
-40 -41 -69 -85 -90 0
-44 -45 -51 -54 -95 0
-50 -55 -60 -63 -64 0
-40 -41 -69 -85 -90 0
-44 -45 -51 -54 -95 0
-47 -56 -57 -63 -65 0
-40 -41 -66 -86 -87 0
-44 -46 -51 -54 -96 0
-47 -56 -57 -63 -65 0
-40 -41 -66 -86 -87 0
-44 -46 -51 -54 -96 0
-48 -56 -58 -63 -65 0
-40 -41 -67 -86 -88 0
-44 -46 -51 -54 -97 0
-48 -56 -58 -63 -65 0
-40 -41 -67 -86 -88 0
-44 -46 -51 -54 -97 0
-49 -56 -59 -63 -65 0
-40 -41 -68 -86 -89 0
-44 -46 -51 -54 -98 0
-49 -56 -59 -63 -65 0
-40 -41 -68 -86 -89 0
-44 -46 -51 -54 -98 0
-50 -56 -60 -63 -65 0
-40 -41 -69 -86 -90 0
-44 -46 -51 -54 -99 0
-50 -56 -60 -63 -65 0
-40 -41 -69 -86 -90 0
-44 -46 -51 -54 -99 0
-48 -57 -58 -63 -66 0
-40 -41 -67 -87 -88 0
-44 -47 -51 -54 -100 0
-48 -57 -58 -63 -66 0
-40 -41 -67 -87 -88 0
-44 -47 -51 -54 -100 0
-49 -57 -59 -63 -66 0
-40 -41 -68 -87 -89 0
-44 -47 -51 -54 -101 0
-49 -57 -59 -63 -66 0
-40 -41 -68 -87 -89 0
-44 -47 -51 -54 -101 0
-50 -57 -60 -63 -66 0
-40 -41 -69 -87 -90 0
-44 -47 -51 -54 -102 0
-50 -57 -60 -63 -66 0
-40 -41 -69 -87 -90 0
-44 -47 -51 -54 -102 0
-49 -58 -59 -63 -67 0
-40 -41 -68 -88 -89 0
-44 -48 -51 -54 -103 0
-49 -58 -59 -63 -67 0
-40 -41 -68 -88 -89 0
-44 -48 -51 -54 -103 0
-50 -58 -60 -63 -67 0
-40 -41 -69 -88 -90 0
-44 -48 -51 -54 -104 0
-50 -58 -60 -63 -67 0
-40 -41 -69 -88 -90 0
-44 -48 -51 -54 -104 0
-50 -59 -60 -63 -68 0
-40 -41 -69 -89 -90 0
-44 -49 -51 -54 -105 0
-50 -59 -60 -63 -68 0
-40 -41 -69 -89 -90 0
-44 -49 -51 -54 -105 0
-47 -56 -57 -64 -65 0
-40 -41 -66 -91 -92 0
-45 -46 -51 -55 -96 0
-47 -56 -57 -64 -65 0
-40 -41 -66 -91 -92 0
-45 -46 -51 -55 -96 0
-48 -56 -58 -64 -65 0
-40 -41 -67 -91 -93 0
-45 -46 -51 -55 -97 0
-48 -56 -58 -64 -65 0
-40 -41 -67 -91 -93 0
-45 -46 -51 -55 -97 0
-49 -56 -59 -64 -65 0
-40 -41 -68 -91 -94 0
-45 -46 -51 -55 -98 0
-49 -56 -59 -64 -65 0
-40 -41 -68 -91 -94 0
-45 -46 -51 -55 -98 0
-50 -56 -60 -64 -65 0
-40 -41 -69 -91 -95 0
-45 -46 -51 -55 -99 0
-50 -56 -60 -64 -65 0
-40 -41 -69 -91 -95 0
-45 -46 -51 -55 -99 0
-48 -57 -58 -64 -66 0
-40 -41 -67 -92 -93 0
-45 -47 -51 -55 -100 0
-48 -57 -58 -64 -66 0
-40 -41 -67 -92 -93 0
-45 -47 -51 -55 -100 0
-49 -57 -59 -64 -66 0
-40 -41 -68 -92 -94 0
-45 -47 -51 -55 -101 0
-49 -57 -59 -64 -66 0
-40 -41 -68 -92 -94 0
-45 -47 -51 -55 -101 0
-50 -57 -60 -64 -66 0
-40 -41 -69 -92 -95 0
-45 -47 -51 -55 -102 0
-50 -57 -60 -64 -66 0
-40 -41 -69 -92 -95 0
-45 -47 -51 -55 -102 0
-49 -58 -59 -64 -67 0
-40 -41 -68 -93 -94 0
-45 -48 -51 -55 -103 0
-49 -58 -59 -64 -67 0
-40 -41 -68 -93 -94 0
-45 -48 -51 -55 -103 0
-50 -58 -60 -64 -67 0
-40 -41 -69 -93 -95 0
-45 -48 -51 -55 -104 0
-50 -58 -60 -64 -67 0
-40 -41 -69 -93 -95 0
-45 -48 -51 -55 -104 0
-50 -59 -60 -64 -68 0
-40 -41 -69 -94 -95 0
-45 -49 -51 -55 -105 0
-50 -59 -60 -64 -68 0
-40 -41 -69 -94 -95 0
-45 -49 -51 -55 -105 0
-48 -57 -58 -65 -66 0
-40 -41 -67 -96 -97 0
-46 -47 -51 -56 -100 0
-48 -57 -58 -65 -66 0
-40 -41 -67 -96 -97 0
-46 -47 -51 -56 -100 0
-49 -57 -59 -65 -66 0
-40 -41 -68 -96 -98 0
-46 -47 -51 -56 -101 0
-49 -57 -59 -65 -66 0
-40 -41 -68 -96 -98 0
-46 -47 -51 -56 -101 0
-50 -57 -60 -65 -66 0
-40 -41 -69 -96 -99 0
-46 -47 -51 -56 -102 0
-50 -57 -60 -65 -66 0
-40 -41 -69 -96 -99 0
-46 -47 -51 -56 -102 0
-49 -58 -59 -65 -67 0
-40 -41 -68 -97 -98 0
-46 -48 -51 -56 -103 0
-49 -58 -59 -65 -67 0
-40 -41 -68 -97 -98 0
-46 -48 -51 -56 -103 0
-50 -58 -60 -65 -67 0
-40 -41 -69 -97 -99 0
-46 -48 -51 -56 -104 0
-50 -58 -60 -65 -67 0
-40 -41 -69 -97 -99 0
-46 -48 -51 -56 -104 0
-50 -59 -60 -65 -68 0
-40 -41 -69 -98 -99 0
-46 -49 -51 -56 -105 0
-50 -59 -60 -65 -68 0
-40 -41 -69 -98 -99 0
-46 -49 -51 -56 -105 0
-49 -58 -59 -66 -67 0
-40 -41 -68 -100 -101 0
-47 -48 -51 -57 -103 0
-49 -58 -59 -66 -67 0
-40 -41 -68 -100 -101 0
-47 -48 -51 -57 -103 0
-50 -58 -60 -66 -67 0
-40 -41 -69 -100 -102 0
-47 -48 -51 -57 -104 0
-50 -58 -60 -66 -67 0
-40 -41 -69 -100 -102 0
-47 -48 -51 -57 -104 0
-50 -59 -60 -66 -68 0
-40 -41 -69 -101 -102 0
-47 -49 -51 -57 -105 0
-50 -59 -60 -66 -68 0
-40 -41 -69 -101 -102 0
-47 -49 -51 -57 -105 0
-50 -59 -60 -67 -68 0
-40 -41 -69 -103 -104 0
-48 -49 -51 -58 -105 0
-50 -59 -60 -67 -68 0
-40 -41 -69 -103 -104 0
-48 -49 -51 -58 -105 0
-45 -54 -55 -70 -71 0
-40 -42 -72 -78 -79 0
-43 -44 -52 -53 -85 0
-45 -54 -55 -70 -71 0
-40 -42 -72 -78 -79 0
-43 -44 -52 -53 -85 0
-46 -54 -56 -70 -71 0
-40 -42 -73 -78 -80 0
-43 -44 -52 -53 -86 0
-46 -54 -56 -70 -71 0
-40 -42 -73 -78 -80 0
-43 -44 -52 -53 -86 0
-47 -54 -57 -70 -71 0
-40 -42 -74 -78 -81 0
-43 -44 -52 -53 -87 0
-47 -54 -57 -70 -71 0
-40 -42 -74 -78 -81 0
-43 -44 -52 -53 -87 0
-48 -54 -58 -70 -71 0
-40 -42 -75 -78 -82 0
-43 -44 -52 -53 -88 0
-48 -54 -58 -70 -71 0
-40 -42 -75 -78 -82 0
-43 -44 -52 -53 -88 0
-49 -54 -59 -70 -71 0
-40 -42 -76 -78 -83 0
-43 -44 -52 -53 -89 0
-49 -54 -59 -70 -71 0
-40 -42 -76 -78 -83 0
-43 -44 -52 -53 -89 0
-50 -54 -60 -70 -71 0
-40 -42 -77 -78 -84 0
-43 -44 -52 -53 -90 0
-50 -54 -60 -70 -71 0
-40 -42 -77 -78 -84 0
-43 -44 -52 -53 -90 0
-46 -55 -56 -70 -72 0
-40 -42 -73 -79 -80 0
-43 -45 -52 -53 -91 0
-46 -55 -56 -70 -72 0
-40 -42 -73 -79 -80 0
-43 -45 -52 -53 -91 0
-47 -55 -57 -70 -72 0
-40 -42 -74 -79 -81 0
-43 -45 -52 -53 -92 0
-47 -55 -57 -70 -72 0
-40 -42 -74 -79 -81 0
-43 -45 -52 -53 -92 0
-48 -55 -58 -70 -72 0
-40 -42 -75 -79 -82 0
-43 -45 -52 -53 -93 0
-48 -55 -58 -70 -72 0
-40 -42 -75 -79 -82 0
-43 -45 -52 -53 -93 0
-49 -55 -59 -70 -72 0
-40 -42 -76 -79 -83 0
-43 -45 -52 -53 -94 0
-49 -55 -59 -70 -72 0
-40 -42 -76 -79 -83 0
-43 -45 -52 -53 -94 0
-50 -55 -60 -70 -72 0
-40 -42 -77 -79 -84 0
-43 -45 -52 -53 -95 0
-50 -55 -60 -70 -72 0
-40 -42 -77 -79 -84 0
-43 -45 -52 -53 -95 0
-47 -56 -57 -70 -73 0
-40 -42 -74 -80 -81 0
-43 -46 -52 -53 -96 0
-47 -56 -57 -70 -73 0
-40 -42 -74 -80 -81 0
-43 -46 -52 -53 -96 0
-48 -56 -58 -70 -73 0
-40 -42 -75 -80 -82 0
-43 -46 -52 -53 -97 0
-48 -56 -58 -70 -73 0
-40 -42 -75 -80 -82 0
-43 -46 -52 -53 -97 0
-49 -56 -59 -70 -73 0
-40 -42 -76 -80 -83 0
-43 -46 -52 -53 -98 0
-49 -56 -59 -70 -73 0
-40 -42 -76 -80 -83 0
-43 -46 -52 -53 -98 0
-50 -56 -60 -70 -73 0
-40 -42 -77 -80 -84 0
-43 -46 -52 -53 -99 0
-50 -56 -60 -70 -73 0
-40 -42 -77 -80 -84 0
-43 -46 -52 -53 -99 0
-48 -57 -58 -70 -74 0
-40 -42 -75 -81 -82 0
-43 -47 -52 -53 -100 0
-48 -57 -58 -70 -74 0
-40 -42 -75 -81 -82 0
-43 -47 -52 -53 -100 0
-49 -57 -59 -70 -74 0
-40 -42 -76 -81 -83 0
-43 -47 -52 -53 -101 0
-49 -57 -59 -70 -74 0
-40 -42 -76 -81 -83 0
-43 -47 -52 -53 -101 0
-50 -57 -60 -70 -74 0
-40 -42 -77 -81 -84 0
-43 -47 -52 -53 -102 0
-50 -57 -60 -70 -74 0
-40 -42 -77 -81 -84 0
-43 -47 -52 -53 -102 0
-49 -58 -59 -70 -75 0
-40 -42 -76 -82 -83 0
-43 -48 -52 -53 -103 0
-49 -58 -59 -70 -75 0
-40 -42 -76 -82 -83 0
-43 -48 -52 -53 -103 0
-50 -58 -60 -70 -75 0
-40 -42 -77 -82 -84 0
-43 -48 -52 -53 -104 0
-50 -58 -60 -70 -75 0
-40 -42 -77 -82 -84 0
-43 -48 -52 -53 -104 0
-50 -59 -60 -70 -76 0
-40 -42 -77 -83 -84 0
-43 -49 -52 -53 -105 0
-50 -59 -60 -70 -76 0
-40 -42 -77 -83 -84 0
-43 -49 -52 -53 -105 0
-46 -55 -56 -71 -72 0
-40 -42 -73 -85 -86 0
-44 -45 -52 -54 -91 0
-46 -55 -56 -71 -72 0
-40 -42 -73 -85 -86 0
-44 -45 -52 -54 -91 0
-47 -55 -57 -71 -72 0
-40 -42 -74 -85 -87 0
-44 -45 -52 -54 -92 0
-47 -55 -57 -71 -72 0
-40 -42 -74 -85 -87 0
-44 -45 -52 -54 -92 0
-48 -55 -58 -71 -72 0
-40 -42 -75 -85 -88 0
-44 -45 -52 -54 -93 0
-48 -55 -58 -71 -72 0
-40 -42 -75 -85 -88 0
-44 -45 -52 -54 -93 0
-49 -55 -59 -71 -72 0
-40 -42 -76 -85 -89 0
-44 -45 -52 -54 -94 0
-49 -55 -59 -71 -72 0
-40 -42 -76 -85 -89 0
-44 -45 -52 -54 -94 0
-50 -55 -60 -71 -72 0
-40 -42 -77 -85 -90 0
-44 -45 -52 -54 -95 0
-50 -55 -60 -71 -72 0
-40 -42 -77 -85 -90 0
-44 -45 -52 -54 -95 0
-47 -56 -57 -71 -73 0
-40 -42 -74 -86 -87 0
-44 -46 -52 -54 -96 0
-47 -56 -57 -71 -73 0
-40 -42 -74 -86 -87 0
-44 -46 -52 -54 -96 0
-48 -56 -58 -71 -73 0
-40 -42 -75 -86 -88 0
-44 -46 -52 -54 -97 0
-48 -56 -58 -71 -73 0
-40 -42 -75 -86 -88 0
-44 -46 -52 -54 -97 0
-49 -56 -59 -71 -73 0
-40 -42 -76 -86 -89 0
-44 -46 -52 -54 -98 0
-49 -56 -59 -71 -73 0
-40 -42 -76 -86 -89 0
-44 -46 -52 -54 -98 0
-50 -56 -60 -71 -73 0
-40 -42 -77 -86 -90 0
-44 -46 -52 -54 -99 0
-50 -56 -60 -71 -73 0
-40 -42 -77 -86 -90 0
-44 -46 -52 -54 -99 0
-48 -57 -58 -71 -74 0
-40 -42 -75 -87 -88 0
-44 -47 -52 -54 -100 0
-48 -57 -58 -71 -74 0
-40 -42 -75 -87 -88 0
-44 -47 -52 -54 -100 0
-49 -57 -59 -71 -74 0
-40 -42 -76 -87 -89 0
-44 -47 -52 -54 -101 0
-49 -57 -59 -71 -74 0
-40 -42 -76 -87 -89 0
-44 -47 -52 -54 -101 0
-50 -57 -60 -71 -74 0
-40 -42 -77 -87 -90 0
-44 -47 -52 -54 -102 0
-50 -57 -60 -71 -74 0
-40 -42 -77 -87 -90 0
-44 -47 -52 -54 -102 0
-49 -58 -59 -71 -75 0
-40 -42 -76 -88 -89 0
-44 -48 -52 -54 -103 0
-49 -58 -59 -71 -75 0
-40 -42 -76 -88 -89 0
-44 -48 -52 -54 -103 0
-50 -58 -60 -71 -75 0
-40 -42 -77 -88 -90 0
-44 -48 -52 -54 -104 0
-50 -58 -60 -71 -75 0
-40 -42 -77 -88 -90 0
-44 -48 -52 -54 -104 0
-50 -59 -60 -71 -76 0
-40 -42 -77 -89 -90 0
-44 -49 -52 -54 -105 0
-50 -59 -60 -71 -76 0
-40 -42 -77 -89 -90 0
-44 -49 -52 -54 -105 0
-47 -56 -57 -72 -73 0
-40 -42 -74 -91 -92 0
-45 -46 -52 -55 -96 0
-47 -56 -57 -72 -73 0
-40 -42 -74 -91 -92 0
-45 -46 -52 -55 -96 0
-48 -56 -58 -72 -73 0
-40 -42 -75 -91 -93 0
-45 -46 -52 -55 -97 0
-48 -56 -58 -72 -73 0
-40 -42 -75 -91 -93 0
-45 -46 -52 -55 -97 0
-49 -56 -59 -72 -73 0
-40 -42 -76 -91 -94 0
-45 -46 -52 -55 -98 0
-49 -56 -59 -72 -73 0
-40 -42 -76 -91 -94 0
-45 -46 -52 -55 -98 0
-50 -56 -60 -72 -73 0
-40 -42 -77 -91 -95 0
-45 -46 -52 -55 -99 0
-50 -56 -60 -72 -73 0
-40 -42 -77 -91 -95 0
-45 -46 -52 -55 -99 0
-48 -57 -58 -72 -74 0
-40 -42 -75 -92 -93 0
-45 -47 -52 -55 -100 0
-48 -57 -58 -72 -74 0
-40 -42 -75 -92 -93 0
-45 -47 -52 -55 -100 0
-49 -57 -59 -72 -74 0
-40 -42 -76 -92 -94 0
-45 -47 -52 -55 -101 0
-49 -57 -59 -72 -74 0
-40 -42 -76 -92 -94 0
-45 -47 -52 -55 -101 0
-50 -57 -60 -72 -74 0
-40 -42 -77 -92 -95 0
-45 -47 -52 -55 -102 0
-50 -57 -60 -72 -74 0
-40 -42 -77 -92 -95 0
-45 -47 -52 -55 -102 0
-49 -58 -59 -72 -75 0
-40 -42 -76 -93 -94 0
-45 -48 -52 -55 -103 0
-49 -58 -59 -72 -75 0
-40 -42 -76 -93 -94 0
-45 -48 -52 -55 -103 0
-50 -58 -60 -72 -75 0
-40 -42 -77 -93 -95 0
-45 -48 -52 -55 -104 0
-50 -58 -60 -72 -75 0
-40 -42 -77 -93 -95 0
-45 -48 -52 -55 -104 0
-50 -59 -60 -72 -76 0
-40 -42 -77 -94 -95 0
-45 -49 -52 -55 -105 0
-50 -59 -60 -72 -76 0
-40 -42 -77 -94 -95 0
-45 -49 -52 -55 -105 0
-48 -57 -58 -73 -74 0
-40 -42 -75 -96 -97 0
-46 -47 -52 -56 -100 0
-48 -57 -58 -73 -74 0
-40 -42 -75 -96 -97 0
-46 -47 -52 -56 -100 0
-49 -57 -59 -73 -74 0
-40 -42 -76 -96 -98 0
-46 -47 -52 -56 -101 0
-49 -57 -59 -73 -74 0
-40 -42 -76 -96 -98 0
-46 -47 -52 -56 -101 0
-50 -57 -60 -73 -74 0
-40 -42 -77 -96 -99 0
-46 -47 -52 -56 -102 0
-50 -57 -60 -73 -74 0
-40 -42 -77 -96 -99 0
-46 -47 -52 -56 -102 0
-49 -58 -59 -73 -75 0
-40 -42 -76 -97 -98 0
-46 -48 -52 -56 -103 0
-49 -58 -59 -73 -75 0
-40 -42 -76 -97 -98 0
-46 -48 -52 -56 -103 0
-50 -58 -60 -73 -75 0
-40 -42 -77 -97 -99 0
-46 -48 -52 -56 -104 0
-50 -58 -60 -73 -75 0
-40 -42 -77 -97 -99 0
-46 -48 -52 -56 -104 0
-50 -59 -60 -73 -76 0
-40 -42 -77 -98 -99 0
-46 -49 -52 -56 -105 0
-50 -59 -60 -73 -76 0
-40 -42 -77 -98 -99 0
-46 -49 -52 -56 -105 0
-49 -58 -59 -74 -75 0
-40 -42 -76 -100 -101 0
-47 -48 -52 -57 -103 0
-49 -58 -59 -74 -75 0
-40 -42 -76 -100 -101 0
-47 -48 -52 -57 -103 0
-50 -58 -60 -74 -75 0
-40 -42 -77 -100 -102 0
-47 -48 -52 -57 -104 0
-50 -58 -60 -74 -75 0
-40 -42 -77 -100 -102 0
-47 -48 -52 -57 -104 0
-50 -59 -60 -74 -76 0
-40 -42 -77 -101 -102 0
-47 -49 -52 -57 -105 0
-50 -59 -60 -74 -76 0
-40 -42 -77 -101 -102 0
-47 -49 -52 -57 -105 0
-50 -59 -60 -75 -76 0
-40 -42 -77 -103 -104 0
-48 -49 -52 -58 -105 0
-50 -59 -60 -75 -76 0
-40 -42 -77 -103 -104 0
-48 -49 -52 -58 -105 0
-46 -55 -56 -78 -79 0
-40 -43 -80 -85 -86 0
-44 -45 -53 -54 -91 0
-46 -55 -56 -78 -79 0
-40 -43 -80 -85 -86 0
-44 -45 -53 -54 -91 0
-47 -55 -57 -78 -79 0
-40 -43 -81 -85 -87 0
-44 -45 -53 -54 -92 0
-47 -55 -57 -78 -79 0
-40 -43 -81 -85 -87 0
-44 -45 -53 -54 -92 0
-48 -55 -58 -78 -79 0
-40 -43 -82 -85 -88 0
-44 -45 -53 -54 -93 0
-48 -55 -58 -78 -79 0
-40 -43 -82 -85 -88 0
-44 -45 -53 -54 -93 0
-49 -55 -59 -78 -79 0
-40 -43 -83 -85 -89 0
-44 -45 -53 -54 -94 0
-49 -55 -59 -78 -79 0
-40 -43 -83 -85 -89 0
-44 -45 -53 -54 -94 0
-50 -55 -60 -78 -79 0
-40 -43 -84 -85 -90 0
-44 -45 -53 -54 -95 0
-50 -55 -60 -78 -79 0
-40 -43 -84 -85 -90 0
-44 -45 -53 -54 -95 0
-47 -56 -57 -78 -80 0
-40 -43 -81 -86 -87 0
-44 -46 -53 -54 -96 0
-47 -56 -57 -78 -80 0
-40 -43 -81 -86 -87 0
-44 -46 -53 -54 -96 0
-48 -56 -58 -78 -80 0
-40 -43 -82 -86 -88 0
-44 -46 -53 -54 -97 0
-48 -56 -58 -78 -80 0
-40 -43 -82 -86 -88 0
-44 -46 -53 -54 -97 0
-49 -56 -59 -78 -80 0
-40 -43 -83 -86 -89 0
-44 -46 -53 -54 -98 0
-49 -56 -59 -78 -80 0
-40 -43 -83 -86 -89 0
-44 -46 -53 -54 -98 0
-50 -56 -60 -78 -80 0
-40 -43 -84 -86 -90 0
-44 -46 -53 -54 -99 0
-50 -56 -60 -78 -80 0
-40 -43 -84 -86 -90 0
-44 -46 -53 -54 -99 0
-48 -57 -58 -78 -81 0
-40 -43 -82 -87 -88 0
-44 -47 -53 -54 -100 0
-48 -57 -58 -78 -81 0
-40 -43 -82 -87 -88 0
-44 -47 -53 -54 -100 0
-49 -57 -59 -78 -81 0
-40 -43 -83 -87 -89 0
-44 -47 -53 -54 -101 0
-49 -57 -59 -78 -81 0
-40 -43 -83 -87 -89 0
-44 -47 -53 -54 -101 0
-50 -57 -60 -78 -81 0
-40 -43 -84 -87 -90 0
-44 -47 -53 -54 -102 0
-50 -57 -60 -78 -81 0
-40 -43 -84 -87 -90 0
-44 -47 -53 -54 -102 0
-49 -58 -59 -78 -82 0
-40 -43 -83 -88 -89 0
-44 -48 -53 -54 -103 0
-49 -58 -59 -78 -82 0
-40 -43 -83 -88 -89 0
-44 -48 -53 -54 -103 0
-50 -58 -60 -78 -82 0
-40 -43 -84 -88 -90 0
-44 -48 -53 -54 -104 0
-50 -58 -60 -78 -82 0
-40 -43 -84 -88 -90 0
-44 -48 -53 -54 -104 0
-50 -59 -60 -78 -83 0
-40 -43 -84 -89 -90 0
-44 -49 -53 -54 -105 0
-50 -59 -60 -78 -83 0
-40 -43 -84 -89 -90 0
-44 -49 -53 -54 -105 0
-47 -56 -57 -79 -80 0
-40 -43 -81 -91 -92 0
-45 -46 -53 -55 -96 0
-47 -56 -57 -79 -80 0
-40 -43 -81 -91 -92 0
-45 -46 -53 -55 -96 0
-48 -56 -58 -79 -80 0
-40 -43 -82 -91 -93 0
-45 -46 -53 -55 -97 0
-48 -56 -58 -79 -80 0
-40 -43 -82 -91 -93 0
-45 -46 -53 -55 -97 0
-49 -56 -59 -79 -80 0
-40 -43 -83 -91 -94 0
-45 -46 -53 -55 -98 0
-49 -56 -59 -79 -80 0
-40 -43 -83 -91 -94 0
-45 -46 -53 -55 -98 0
-50 -56 -60 -79 -80 0
-40 -43 -84 -91 -95 0
-45 -46 -53 -55 -99 0
-50 -56 -60 -79 -80 0
-40 -43 -84 -91 -95 0
-45 -46 -53 -55 -99 0
-48 -57 -58 -79 -81 0
-40 -43 -82 -92 -93 0
-45 -47 -53 -55 -100 0
-48 -57 -58 -79 -81 0
-40 -43 -82 -92 -93 0
-45 -47 -53 -55 -100 0
-49 -57 -59 -79 -81 0
-40 -43 -83 -92 -94 0
-45 -47 -53 -55 -101 0
-49 -57 -59 -79 -81 0
-40 -43 -83 -92 -94 0
-45 -47 -53 -55 -101 0
-50 -57 -60 -79 -81 0
-40 -43 -84 -92 -95 0
-45 -47 -53 -55 -102 0
-50 -57 -60 -79 -81 0
-40 -43 -84 -92 -95 0
-45 -47 -53 -55 -102 0
-49 -58 -59 -79 -82 0
-40 -43 -83 -93 -94 0
-45 -48 -53 -55 -103 0
-49 -58 -59 -79 -82 0
-40 -43 -83 -93 -94 0
-45 -48 -53 -55 -103 0
-50 -58 -60 -79 -82 0
-40 -43 -84 -93 -95 0
-45 -48 -53 -55 -104 0
-50 -58 -60 -79 -82 0
-40 -43 -84 -93 -95 0
-45 -48 -53 -55 -104 0
-50 -59 -60 -79 -83 0
-40 -43 -84 -94 -95 0
-45 -49 -53 -55 -105 0
-50 -59 -60 -79 -83 0
-40 -43 -84 -94 -95 0
-45 -49 -53 -55 -105 0
-48 -57 -58 -80 -81 0
-40 -43 -82 -96 -97 0
-46 -47 -53 -56 -100 0
-48 -57 -58 -80 -81 0
-40 -43 -82 -96 -97 0
-46 -47 -53 -56 -100 0
-49 -57 -59 -80 -81 0
-40 -43 -83 -96 -98 0
-46 -47 -53 -56 -101 0
-49 -57 -59 -80 -81 0
-40 -43 -83 -96 -98 0
-46 -47 -53 -56 -101 0
-50 -57 -60 -80 -81 0
-40 -43 -84 -96 -99 0
-46 -47 -53 -56 -102 0
-50 -57 -60 -80 -81 0
-40 -43 -84 -96 -99 0
-46 -47 -53 -56 -102 0
-49 -58 -59 -80 -82 0
-40 -43 -83 -97 -98 0
-46 -48 -53 -56 -103 0
-49 -58 -59 -80 -82 0
-40 -43 -83 -97 -98 0
-46 -48 -53 -56 -103 0
-50 -58 -60 -80 -82 0
-40 -43 -84 -97 -99 0
-46 -48 -53 -56 -104 0
-50 -58 -60 -80 -82 0
-40 -43 -84 -97 -99 0
-46 -48 -53 -56 -104 0
-50 -59 -60 -80 -83 0
-40 -43 -84 -98 -99 0
-46 -49 -53 -56 -105 0
-50 -59 -60 -80 -83 0
-40 -43 -84 -98 -99 0
-46 -49 -53 -56 -105 0
-49 -58 -59 -81 -82 0
-40 -43 -83 -100 -101 0
-47 -48 -53 -57 -103 0
-49 -58 -59 -81 -82 0
-40 -43 -83 -100 -101 0
-47 -48 -53 -57 -103 0
-50 -58 -60 -81 -82 0
-40 -43 -84 -100 -102 0
-47 -48 -53 -57 -104 0
-50 -58 -60 -81 -82 0
-40 -43 -84 -100 -102 0
-47 -48 -53 -57 -104 0
-50 -59 -60 -81 -83 0
-40 -43 -84 -101 -102 0
-47 -49 -53 -57 -105 0
-50 -59 -60 -81 -83 0
-40 -43 -84 -101 -102 0
-47 -49 -53 -57 -105 0
-50 -59 -60 -82 -83 0
-40 -43 -84 -103 -104 0
-48 -49 -53 -58 -105 0
-50 -59 -60 -82 -83 0
-40 -43 -84 -103 -104 0
-48 -49 -53 -58 -105 0
-47 -56 -57 -85 -86 0
-40 -44 -87 -91 -92 0
-45 -46 -54 -55 -96 0
-47 -56 -57 -85 -86 0
-40 -44 -87 -91 -92 0
-45 -46 -54 -55 -96 0
-48 -56 -58 -85 -86 0
-40 -44 -88 -91 -93 0
-45 -46 -54 -55 -97 0
-48 -56 -58 -85 -86 0
-40 -44 -88 -91 -93 0
-45 -46 -54 -55 -97 0
-49 -56 -59 -85 -86 0
-40 -44 -89 -91 -94 0
-45 -46 -54 -55 -98 0
-49 -56 -59 -85 -86 0
-40 -44 -89 -91 -94 0
-45 -46 -54 -55 -98 0
-50 -56 -60 -85 -86 0
-40 -44 -90 -91 -95 0
-45 -46 -54 -55 -99 0
-50 -56 -60 -85 -86 0
-40 -44 -90 -91 -95 0
-45 -46 -54 -55 -99 0
-48 -57 -58 -85 -87 0
-40 -44 -88 -92 -93 0
-45 -47 -54 -55 -100 0
-48 -57 -58 -85 -87 0
-40 -44 -88 -92 -93 0
-45 -47 -54 -55 -100 0
-49 -57 -59 -85 -87 0
-40 -44 -89 -92 -94 0
-45 -47 -54 -55 -101 0
-49 -57 -59 -85 -87 0
-40 -44 -89 -92 -94 0
-45 -47 -54 -55 -101 0
-50 -57 -60 -85 -87 0
-40 -44 -90 -92 -95 0
-45 -47 -54 -55 -102 0
-50 -57 -60 -85 -87 0
-40 -44 -90 -92 -95 0
-45 -47 -54 -55 -102 0
-49 -58 -59 -85 -88 0
-40 -44 -89 -93 -94 0
-45 -48 -54 -55 -103 0
-49 -58 -59 -85 -88 0
-40 -44 -89 -93 -94 0
-45 -48 -54 -55 -103 0
-50 -58 -60 -85 -88 0
-40 -44 -90 -93 -95 0
-45 -48 -54 -55 -104 0
-50 -58 -60 -85 -88 0
-40 -44 -90 -93 -95 0
-45 -48 -54 -55 -104 0
-50 -59 -60 -85 -89 0
-40 -44 -90 -94 -95 0
-45 -49 -54 -55 -105 0
-50 -59 -60 -85 -89 0
-40 -44 -90 -94 -95 0
-45 -49 -54 -55 -105 0
-48 -57 -58 -86 -87 0
-40 -44 -88 -96 -97 0
-46 -47 -54 -56 -100 0
-48 -57 -58 -86 -87 0
-40 -44 -88 -96 -97 0
-46 -47 -54 -56 -100 0
-49 -57 -59 -86 -87 0
-40 -44 -89 -96 -98 0
-46 -47 -54 -56 -101 0
-49 -57 -59 -86 -87 0
-40 -44 -89 -96 -98 0
-46 -47 -54 -56 -101 0
-50 -57 -60 -86 -87 0
-40 -44 -90 -96 -99 0
-46 -47 -54 -56 -102 0
-50 -57 -60 -86 -87 0
-40 -44 -90 -96 -99 0
-46 -47 -54 -56 -102 0
-49 -58 -59 -86 -88 0
-40 -44 -89 -97 -98 0
-46 -48 -54 -56 -103 0
-49 -58 -59 -86 -88 0
-40 -44 -89 -97 -98 0
-46 -48 -54 -56 -103 0
-50 -58 -60 -86 -88 0
-40 -44 -90 -97 -99 0
-46 -48 -54 -56 -104 0
-50 -58 -60 -86 -88 0
-40 -44 -90 -97 -99 0
-46 -48 -54 -56 -104 0
-50 -59 -60 -86 -89 0
-40 -44 -90 -98 -99 0
-46 -49 -54 -56 -105 0
-50 -59 -60 -86 -89 0
-40 -44 -90 -98 -99 0
-46 -49 -54 -56 -105 0
-49 -58 -59 -87 -88 0
-40 -44 -89 -100 -101 0
-47 -48 -54 -57 -103 0
-49 -58 -59 -87 -88 0
-40 -44 -89 -100 -101 0
-47 -48 -54 -57 -103 0
-50 -58 -60 -87 -88 0
-40 -44 -90 -100 -102 0
-47 -48 -54 -57 -104 0
-50 -58 -60 -87 -88 0
-40 -44 -90 -100 -102 0
-47 -48 -54 -57 -104 0
-50 -59 -60 -87 -89 0
-40 -44 -90 -101 -102 0
-47 -49 -54 -57 -105 0
-50 -59 -60 -87 -89 0
-40 -44 -90 -101 -102 0
-47 -49 -54 -57 -105 0
-50 -59 -60 -88 -89 0
-40 -44 -90 -103 -104 0
-48 -49 -54 -58 -105 0
-50 -59 -60 -88 -89 0
-40 -44 -90 -103 -104 0
-48 -49 -54 -58 -105 0
-48 -57 -58 -91 -92 0
-40 -45 -93 -96 -97 0
-46 -47 -55 -56 -100 0
-48 -57 -58 -91 -92 0
-40 -45 -93 -96 -97 0
-46 -47 -55 -56 -100 0
-49 -57 -59 -91 -92 0
-40 -45 -94 -96 -98 0
-46 -47 -55 -56 -101 0
-49 -57 -59 -91 -92 0
-40 -45 -94 -96 -98 0
-46 -47 -55 -56 -101 0
-50 -57 -60 -91 -92 0
-40 -45 -95 -96 -99 0
-46 -47 -55 -56 -102 0
-50 -57 -60 -91 -92 0
-40 -45 -95 -96 -99 0
-46 -47 -55 -56 -102 0
-49 -58 -59 -91 -93 0
-40 -45 -94 -97 -98 0
-46 -48 -55 -56 -103 0
-49 -58 -59 -91 -93 0
-40 -45 -94 -97 -98 0
-46 -48 -55 -56 -103 0
-50 -58 -60 -91 -93 0
-40 -45 -95 -97 -99 0
-46 -48 -55 -56 -104 0
-50 -58 -60 -91 -93 0
-40 -45 -95 -97 -99 0
-46 -48 -55 -56 -104 0
-50 -59 -60 -91 -94 0
-40 -45 -95 -98 -99 0
-46 -49 -55 -56 -105 0
-50 -59 -60 -91 -94 0
-40 -45 -95 -98 -99 0
-46 -49 -55 -56 -105 0
-49 -58 -59 -92 -93 0
-40 -45 -94 -100 -101 0
-47 -48 -55 -57 -103 0
-49 -58 -59 -92 -93 0
-40 -45 -94 -100 -101 0
-47 -48 -55 -57 -103 0
-50 -58 -60 -92 -93 0
-40 -45 -95 -100 -102 0
-47 -48 -55 -57 -104 0
-50 -58 -60 -92 -93 0
-40 -45 -95 -100 -102 0
-47 -48 -55 -57 -104 0
-50 -59 -60 -92 -94 0
-40 -45 -95 -101 -102 0
-47 -49 -55 -57 -105 0
-50 -59 -60 -92 -94 0
-40 -45 -95 -101 -102 0
-47 -49 -55 -57 -105 0
-50 -59 -60 -93 -94 0
-40 -45 -95 -103 -104 0
-48 -49 -55 -58 -105 0
-50 -59 -60 -93 -94 0
-40 -45 -95 -103 -104 0
-48 -49 -55 -58 -105 0
-49 -58 -59 -96 -97 0
-40 -46 -98 -100 -101 0
-47 -48 -56 -57 -103 0
-49 -58 -59 -96 -97 0
-40 -46 -98 -100 -101 0
-47 -48 -56 -57 -103 0
-50 -58 -60 -96 -97 0
-40 -46 -99 -100 -102 0
-47 -48 -56 -57 -104 0
-50 -58 -60 -96 -97 0
-40 -46 -99 -100 -102 0
-47 -48 -56 -57 -104 0
-50 -59 -60 -96 -98 0
-40 -46 -99 -101 -102 0
-47 -49 -56 -57 -105 0
-50 -59 -60 -96 -98 0
-40 -46 -99 -101 -102 0
-47 -49 -56 -57 -105 0
-50 -59 -60 -97 -98 0
-40 -46 -99 -103 -104 0
-48 -49 -56 -58 -105 0
-50 -59 -60 -97 -98 0
-40 -46 -99 -103 -104 0
-48 -49 -56 -58 -105 0
-50 -59 -60 -100 -101 0
-40 -47 -102 -103 -104 0
-48 -49 -57 -58 -105 0
-50 -59 -60 -100 -101 0
-40 -47 -102 -103 -104 0
-48 -49 -57 -58 -105 0
-45 -63 -64 -70 -71 0
-41 -42 -72 -78 -79 0
-43 -44 -61 -62 -85 0
-45 -63 -64 -70 -71 0
-41 -42 -72 -78 -79 0
-43 -44 -61 -62 -85 0
-46 -63 -65 -70 -71 0
-41 -42 -73 -78 -80 0
-43 -44 -61 -62 -86 0
-46 -63 -65 -70 -71 0
-41 -42 -73 -78 -80 0
-43 -44 -61 -62 -86 0
-47 -63 -66 -70 -71 0
-41 -42 -74 -78 -81 0
-43 -44 -61 -62 -87 0
-47 -63 -66 -70 -71 0
-41 -42 -74 -78 -81 0
-43 -44 -61 -62 -87 0
-48 -63 -67 -70 -71 0
-41 -42 -75 -78 -82 0
-43 -44 -61 -62 -88 0
-48 -63 -67 -70 -71 0
-41 -42 -75 -78 -82 0
-43 -44 -61 -62 -88 0
-49 -63 -68 -70 -71 0
-41 -42 -76 -78 -83 0
-43 -44 -61 -62 -89 0
-49 -63 -68 -70 -71 0
-41 -42 -76 -78 -83 0
-43 -44 -61 -62 -89 0
-50 -63 -69 -70 -71 0
-41 -42 -77 -78 -84 0
-43 -44 -61 -62 -90 0
-50 -63 -69 -70 -71 0
-41 -42 -77 -78 -84 0
-43 -44 -61 -62 -90 0
-46 -64 -65 -70 -72 0
-41 -42 -73 -79 -80 0
-43 -45 -61 -62 -91 0
-46 -64 -65 -70 -72 0
-41 -42 -73 -79 -80 0
-43 -45 -61 -62 -91 0
-47 -64 -66 -70 -72 0
-41 -42 -74 -79 -81 0
-43 -45 -61 -62 -92 0
-47 -64 -66 -70 -72 0
-41 -42 -74 -79 -81 0
-43 -45 -61 -62 -92 0
-48 -64 -67 -70 -72 0
-41 -42 -75 -79 -82 0
-43 -45 -61 -62 -93 0
-48 -64 -67 -70 -72 0
-41 -42 -75 -79 -82 0
-43 -45 -61 -62 -93 0
-49 -64 -68 -70 -72 0
-41 -42 -76 -79 -83 0
-43 -45 -61 -62 -94 0
-49 -64 -68 -70 -72 0
-41 -42 -76 -79 -83 0
-43 -45 -61 -62 -94 0
-50 -64 -69 -70 -72 0
-41 -42 -77 -79 -84 0
-43 -45 -61 -62 -95 0
-50 -64 -69 -70 -72 0
-41 -42 -77 -79 -84 0
-43 -45 -61 -62 -95 0
-47 -65 -66 -70 -73 0
-41 -42 -74 -80 -81 0
-43 -46 -61 -62 -96 0
-47 -65 -66 -70 -73 0
-41 -42 -74 -80 -81 0
-43 -46 -61 -62 -96 0
-48 -65 -67 -70 -73 0
-41 -42 -75 -80 -82 0
-43 -46 -61 -62 -97 0
-48 -65 -67 -70 -73 0
-41 -42 -75 -80 -82 0
-43 -46 -61 -62 -97 0
-49 -65 -68 -70 -73 0
-41 -42 -76 -80 -83 0
-43 -46 -61 -62 -98 0
-49 -65 -68 -70 -73 0
-41 -42 -76 -80 -83 0
-43 -46 -61 -62 -98 0
-50 -65 -69 -70 -73 0
-41 -42 -77 -80 -84 0
-43 -46 -61 -62 -99 0
-50 -65 -69 -70 -73 0
-41 -42 -77 -80 -84 0
-43 -46 -61 -62 -99 0
-48 -66 -67 -70 -74 0
-41 -42 -75 -81 -82 0
-43 -47 -61 -62 -100 0
-48 -66 -67 -70 -74 0
-41 -42 -75 -81 -82 0
-43 -47 -61 -62 -100 0
-49 -66 -68 -70 -74 0
-41 -42 -76 -81 -83 0
-43 -47 -61 -62 -101 0
-49 -66 -68 -70 -74 0
-41 -42 -76 -81 -83 0
-43 -47 -61 -62 -101 0
-50 -66 -69 -70 -74 0
-41 -42 -77 -81 -84 0
-43 -47 -61 -62 -102 0
-50 -66 -69 -70 -74 0
-41 -42 -77 -81 -84 0
-43 -47 -61 -62 -102 0
-49 -67 -68 -70 -75 0
-41 -42 -76 -82 -83 0
-43 -48 -61 -62 -103 0
-49 -67 -68 -70 -75 0
-41 -42 -76 -82 -83 0
-43 -48 -61 -62 -103 0
-50 -67 -69 -70 -75 0
-41 -42 -77 -82 -84 0
-43 -48 -61 -62 -104 0
-50 -67 -69 -70 -75 0
-41 -42 -77 -82 -84 0
-43 -48 -61 -62 -104 0
-50 -68 -69 -70 -76 0
-41 -42 -77 -83 -84 0
-43 -49 -61 -62 -105 0
-50 -68 -69 -70 -76 0
-41 -42 -77 -83 -84 0
-43 -49 -61 -62 -105 0
-46 -64 -65 -71 -72 0
-41 -42 -73 -85 -86 0
-44 -45 -61 -63 -91 0
-46 -64 -65 -71 -72 0
-41 -42 -73 -85 -86 0
-44 -45 -61 -63 -91 0
-47 -64 -66 -71 -72 0
-41 -42 -74 -85 -87 0
-44 -45 -61 -63 -92 0
-47 -64 -66 -71 -72 0
-41 -42 -74 -85 -87 0
-44 -45 -61 -63 -92 0
-48 -64 -67 -71 -72 0
-41 -42 -75 -85 -88 0
-44 -45 -61 -63 -93 0
-48 -64 -67 -71 -72 0
-41 -42 -75 -85 -88 0
-44 -45 -61 -63 -93 0
-49 -64 -68 -71 -72 0
-41 -42 -76 -85 -89 0
-44 -45 -61 -63 -94 0
-49 -64 -68 -71 -72 0
-41 -42 -76 -85 -89 0
-44 -45 -61 -63 -94 0
-50 -64 -69 -71 -72 0
-41 -42 -77 -85 -90 0
-44 -45 -61 -63 -95 0
-50 -64 -69 -71 -72 0
-41 -42 -77 -85 -90 0
-44 -45 -61 -63 -95 0
-47 -65 -66 -71 -73 0
-41 -42 -74 -86 -87 0
-44 -46 -61 -63 -96 0
-47 -65 -66 -71 -73 0
-41 -42 -74 -86 -87 0
-44 -46 -61 -63 -96 0
-48 -65 -67 -71 -73 0
-41 -42 -75 -86 -88 0
-44 -46 -61 -63 -97 0
-48 -65 -67 -71 -73 0
-41 -42 -75 -86 -88 0
-44 -46 -61 -63 -97 0
-49 -65 -68 -71 -73 0
-41 -42 -76 -86 -89 0
-44 -46 -61 -63 -98 0
-49 -65 -68 -71 -73 0
-41 -42 -76 -86 -89 0
-44 -46 -61 -63 -98 0
-50 -65 -69 -71 -73 0
-41 -42 -77 -86 -90 0
-44 -46 -61 -63 -99 0
-50 -65 -69 -71 -73 0
-41 -42 -77 -86 -90 0
-44 -46 -61 -63 -99 0
-48 -66 -67 -71 -74 0
-41 -42 -75 -87 -88 0
-44 -47 -61 -63 -100 0
-48 -66 -67 -71 -74 0
-41 -42 -75 -87 -88 0
-44 -47 -61 -63 -100 0
-49 -66 -68 -71 -74 0
-41 -42 -76 -87 -89 0
-44 -47 -61 -63 -101 0
-49 -66 -68 -71 -74 0
-41 -42 -76 -87 -89 0
-44 -47 -61 -63 -101 0
-50 -66 -69 -71 -74 0
-41 -42 -77 -87 -90 0
-44 -47 -61 -63 -102 0
-50 -66 -69 -71 -74 0
-41 -42 -77 -87 -90 0
-44 -47 -61 -63 -102 0
-49 -67 -68 -71 -75 0
-41 -42 -76 -88 -89 0
-44 -48 -61 -63 -103 0
-49 -67 -68 -71 -75 0
-41 -42 -76 -88 -89 0
-44 -48 -61 -63 -103 0
-50 -67 -69 -71 -75 0
-41 -42 -77 -88 -90 0
-44 -48 -61 -63 -104 0
-50 -67 -69 -71 -75 0
-41 -42 -77 -88 -90 0
-44 -48 -61 -63 -104 0
-50 -68 -69 -71 -76 0
-41 -42 -77 -89 -90 0
-44 -49 -61 -63 -105 0
-50 -68 -69 -71 -76 0
-41 -42 -77 -89 -90 0
-44 -49 -61 -63 -105 0
-47 -65 -66 -72 -73 0
-41 -42 -74 -91 -92 0
-45 -46 -61 -64 -96 0
-47 -65 -66 -72 -73 0
-41 -42 -74 -91 -92 0
-45 -46 -61 -64 -96 0
-48 -65 -67 -72 -73 0
-41 -42 -75 -91 -93 0
-45 -46 -61 -64 -97 0
-48 -65 -67 -72 -73 0
-41 -42 -75 -91 -93 0
-45 -46 -61 -64 -97 0
-49 -65 -68 -72 -73 0
-41 -42 -76 -91 -94 0
-45 -46 -61 -64 -98 0
-49 -65 -68 -72 -73 0
-41 -42 -76 -91 -94 0
-45 -46 -61 -64 -98 0
-50 -65 -69 -72 -73 0
-41 -42 -77 -91 -95 0
-45 -46 -61 -64 -99 0
-50 -65 -69 -72 -73 0
-41 -42 -77 -91 -95 0
-45 -46 -61 -64 -99 0
-48 -66 -67 -72 -74 0
-41 -42 -75 -92 -93 0
-45 -47 -61 -64 -100 0
-48 -66 -67 -72 -74 0
-41 -42 -75 -92 -93 0
-45 -47 -61 -64 -100 0
-49 -66 -68 -72 -74 0
-41 -42 -76 -92 -94 0
-45 -47 -61 -64 -101 0
-49 -66 -68 -72 -74 0
-41 -42 -76 -92 -94 0
-45 -47 -61 -64 -101 0
-50 -66 -69 -72 -74 0
-41 -42 -77 -92 -95 0
-45 -47 -61 -64 -102 0
-50 -66 -69 -72 -74 0
-41 -42 -77 -92 -95 0
-45 -47 -61 -64 -102 0
-49 -67 -68 -72 -75 0
-41 -42 -76 -93 -94 0
-45 -48 -61 -64 -103 0
-49 -67 -68 -72 -75 0
-41 -42 -76 -93 -94 0
-45 -48 -61 -64 -103 0
-50 -67 -69 -72 -75 0
-41 -42 -77 -93 -95 0
-45 -48 -61 -64 -104 0
-50 -67 -69 -72 -75 0
-41 -42 -77 -93 -95 0
-45 -48 -61 -64 -104 0
-50 -68 -69 -72 -76 0
-41 -42 -77 -94 -95 0
-45 -49 -61 -64 -105 0
-50 -68 -69 -72 -76 0
-41 -42 -77 -94 -95 0
-45 -49 -61 -64 -105 0
-48 -66 -67 -73 -74 0
-41 -42 -75 -96 -97 0
-46 -47 -61 -65 -100 0
-48 -66 -67 -73 -74 0
-41 -42 -75 -96 -97 0
-46 -47 -61 -65 -100 0
-49 -66 -68 -73 -74 0
-41 -42 -76 -96 -98 0
-46 -47 -61 -65 -101 0
-49 -66 -68 -73 -74 0
-41 -42 -76 -96 -98 0
-46 -47 -61 -65 -101 0
-50 -66 -69 -73 -74 0
-41 -42 -77 -96 -99 0
-46 -47 -61 -65 -102 0
-50 -66 -69 -73 -74 0
-41 -42 -77 -96 -99 0
-46 -47 -61 -65 -102 0
-49 -67 -68 -73 -75 0
-41 -42 -76 -97 -98 0
-46 -48 -61 -65 -103 0
-49 -67 -68 -73 -75 0
-41 -42 -76 -97 -98 0
-46 -48 -61 -65 -103 0
-50 -67 -69 -73 -75 0
-41 -42 -77 -97 -99 0
-46 -48 -61 -65 -104 0
-50 -67 -69 -73 -75 0
-41 -42 -77 -97 -99 0
-46 -48 -61 -65 -104 0
-50 -68 -69 -73 -76 0
-41 -42 -77 -98 -99 0
-46 -49 -61 -65 -105 0
-50 -68 -69 -73 -76 0
-41 -42 -77 -98 -99 0
-46 -49 -61 -65 -105 0
-49 -67 -68 -74 -75 0
-41 -42 -76 -100 -101 0
-47 -48 -61 -66 -103 0
-49 -67 -68 -74 -75 0
-41 -42 -76 -100 -101 0
-47 -48 -61 -66 -103 0
-50 -67 -69 -74 -75 0
-41 -42 -77 -100 -102 0
-47 -48 -61 -66 -104 0
-50 -67 -69 -74 -75 0
-41 -42 -77 -100 -102 0
-47 -48 -61 -66 -104 0
-50 -68 -69 -74 -76 0
-41 -42 -77 -101 -102 0
-47 -49 -61 -66 -105 0
-50 -68 -69 -74 -76 0
-41 -42 -77 -101 -102 0
-47 -49 -61 -66 -105 0
-50 -68 -69 -75 -76 0
-41 -42 -77 -103 -104 0
-48 -49 -61 -67 -105 0
-50 -68 -69 -75 -76 0
-41 -42 -77 -103 -104 0
-48 -49 -61 -67 -105 0
-46 -64 -65 -78 -79 0
-41 -43 -80 -85 -86 0
-44 -45 -62 -63 -91 0
-46 -64 -65 -78 -79 0
-41 -43 -80 -85 -86 0
-44 -45 -62 -63 -91 0
-47 -64 -66 -78 -79 0
-41 -43 -81 -85 -87 0
-44 -45 -62 -63 -92 0
-47 -64 -66 -78 -79 0
-41 -43 -81 -85 -87 0
-44 -45 -62 -63 -92 0
-48 -64 -67 -78 -79 0
-41 -43 -82 -85 -88 0
-44 -45 -62 -63 -93 0
-48 -64 -67 -78 -79 0
-41 -43 -82 -85 -88 0
-44 -45 -62 -63 -93 0
-49 -64 -68 -78 -79 0
-41 -43 -83 -85 -89 0
-44 -45 -62 -63 -94 0
-49 -64 -68 -78 -79 0
-41 -43 -83 -85 -89 0
-44 -45 -62 -63 -94 0
-50 -64 -69 -78 -79 0
-41 -43 -84 -85 -90 0
-44 -45 -62 -63 -95 0
-50 -64 -69 -78 -79 0
-41 -43 -84 -85 -90 0
-44 -45 -62 -63 -95 0
-47 -65 -66 -78 -80 0
-41 -43 -81 -86 -87 0
-44 -46 -62 -63 -96 0
-47 -65 -66 -78 -80 0
-41 -43 -81 -86 -87 0
-44 -46 -62 -63 -96 0
-48 -65 -67 -78 -80 0
-41 -43 -82 -86 -88 0
-44 -46 -62 -63 -97 0
-48 -65 -67 -78 -80 0
-41 -43 -82 -86 -88 0
-44 -46 -62 -63 -97 0
-49 -65 -68 -78 -80 0
-41 -43 -83 -86 -89 0
-44 -46 -62 -63 -98 0
-49 -65 -68 -78 -80 0
-41 -43 -83 -86 -89 0
-44 -46 -62 -63 -98 0
-50 -65 -69 -78 -80 0
-41 -43 -84 -86 -90 0
-44 -46 -62 -63 -99 0
-50 -65 -69 -78 -80 0
-41 -43 -84 -86 -90 0
-44 -46 -62 -63 -99 0
-48 -66 -67 -78 -81 0
-41 -43 -82 -87 -88 0
-44 -47 -62 -63 -100 0
-48 -66 -67 -78 -81 0
-41 -43 -82 -87 -88 0
-44 -47 -62 -63 -100 0
-49 -66 -68 -78 -81 0
-41 -43 -83 -87 -89 0
-44 -47 -62 -63 -101 0
-49 -66 -68 -78 -81 0
-41 -43 -83 -87 -89 0
-44 -47 -62 -63 -101 0
-50 -66 -69 -78 -81 0
-41 -43 -84 -87 -90 0
-44 -47 -62 -63 -102 0
-50 -66 -69 -78 -81 0
-41 -43 -84 -87 -90 0
-44 -47 -62 -63 -102 0
-49 -67 -68 -78 -82 0
-41 -43 -83 -88 -89 0
-44 -48 -62 -63 -103 0
-49 -67 -68 -78 -82 0
-41 -43 -83 -88 -89 0
-44 -48 -62 -63 -103 0
-50 -67 -69 -78 -82 0
-41 -43 -84 -88 -90 0
-44 -48 -62 -63 -104 0
-50 -67 -69 -78 -82 0
-41 -43 -84 -88 -90 0
-44 -48 -62 -63 -104 0
-50 -68 -69 -78 -83 0
-41 -43 -84 -89 -90 0
-44 -49 -62 -63 -105 0
-50 -68 -69 -78 -83 0
-41 -43 -84 -89 -90 0
-44 -49 -62 -63 -105 0
-47 -65 -66 -79 -80 0
-41 -43 -81 -91 -92 0
-45 -46 -62 -64 -96 0
-47 -65 -66 -79 -80 0
-41 -43 -81 -91 -92 0
-45 -46 -62 -64 -96 0
-48 -65 -67 -79 -80 0
-41 -43 -82 -91 -93 0
-45 -46 -62 -64 -97 0
-48 -65 -67 -79 -80 0
-41 -43 -82 -91 -93 0
-45 -46 -62 -64 -97 0
-49 -65 -68 -79 -80 0
-41 -43 -83 -91 -94 0
-45 -46 -62 -64 -98 0
-49 -65 -68 -79 -80 0
-41 -43 -83 -91 -94 0
-45 -46 -62 -64 -98 0
-50 -65 -69 -79 -80 0
-41 -43 -84 -91 -95 0
-45 -46 -62 -64 -99 0
-50 -65 -69 -79 -80 0
-41 -43 -84 -91 -95 0
-45 -46 -62 -64 -99 0
-48 -66 -67 -79 -81 0
-41 -43 -82 -92 -93 0
-45 -47 -62 -64 -100 0
-48 -66 -67 -79 -81 0
-41 -43 -82 -92 -93 0
-45 -47 -62 -64 -100 0
-49 -66 -68 -79 -81 0
-41 -43 -83 -92 -94 0
-45 -47 -62 -64 -101 0
-49 -66 -68 -79 -81 0
-41 -43 -83 -92 -94 0
-45 -47 -62 -64 -101 0
-50 -66 -69 -79 -81 0
-41 -43 -84 -92 -95 0
-45 -47 -62 -64 -102 0
-50 -66 -69 -79 -81 0
-41 -43 -84 -92 -95 0
-45 -47 -62 -64 -102 0
-49 -67 -68 -79 -82 0
-41 -43 -83 -93 -94 0
-45 -48 -62 -64 -103 0
-49 -67 -68 -79 -82 0
-41 -43 -83 -93 -94 0
-45 -48 -62 -64 -103 0
-50 -67 -69 -79 -82 0
-41 -43 -84 -93 -95 0
-45 -48 -62 -64 -104 0
-50 -67 -69 -79 -82 0
-41 -43 -84 -93 -95 0
-45 -48 -62 -64 -104 0
-50 -68 -69 -79 -83 0
-41 -43 -84 -94 -95 0
-45 -49 -62 -64 -105 0
-50 -68 -69 -79 -83 0
-41 -43 -84 -94 -95 0
-45 -49 -62 -64 -105 0
-48 -66 -67 -80 -81 0
-41 -43 -82 -96 -97 0
-46 -47 -62 -65 -100 0
-48 -66 -67 -80 -81 0
-41 -43 -82 -96 -97 0
-46 -47 -62 -65 -100 0
-49 -66 -68 -80 -81 0
-41 -43 -83 -96 -98 0
-46 -47 -62 -65 -101 0
-49 -66 -68 -80 -81 0
-41 -43 -83 -96 -98 0
-46 -47 -62 -65 -101 0
-50 -66 -69 -80 -81 0
-41 -43 -84 -96 -99 0
-46 -47 -62 -65 -102 0
-50 -66 -69 -80 -81 0
-41 -43 -84 -96 -99 0
-46 -47 -62 -65 -102 0
-49 -67 -68 -80 -82 0
-41 -43 -83 -97 -98 0
-46 -48 -62 -65 -103 0
-49 -67 -68 -80 -82 0
-41 -43 -83 -97 -98 0
-46 -48 -62 -65 -103 0
-50 -67 -69 -80 -82 0
-41 -43 -84 -97 -99 0
-46 -48 -62 -65 -104 0
-50 -67 -69 -80 -82 0
-41 -43 -84 -97 -99 0
-46 -48 -62 -65 -104 0
-50 -68 -69 -80 -83 0
-41 -43 -84 -98 -99 0
-46 -49 -62 -65 -105 0
-50 -68 -69 -80 -83 0
-41 -43 -84 -98 -99 0
-46 -49 -62 -65 -105 0
-49 -67 -68 -81 -82 0
-41 -43 -83 -100 -101 0
-47 -48 -62 -66 -103 0
-49 -67 -68 -81 -82 0
-41 -43 -83 -100 -101 0
-47 -48 -62 -66 -103 0
-50 -67 -69 -81 -82 0
-41 -43 -84 -100 -102 0
-47 -48 -62 -66 -104 0
-50 -67 -69 -81 -82 0
-41 -43 -84 -100 -102 0
-47 -48 -62 -66 -104 0
-50 -68 -69 -81 -83 0
-41 -43 -84 -101 -102 0
-47 -49 -62 -66 -105 0
-50 -68 -69 -81 -83 0
-41 -43 -84 -101 -102 0
-47 -49 -62 -66 -105 0
-50 -68 -69 -82 -83 0
-41 -43 -84 -103 -104 0
-48 -49 -62 -67 -105 0
-50 -68 -69 -82 -83 0
-41 -43 -84 -103 -104 0
-48 -49 -62 -67 -105 0
-47 -65 -66 -85 -86 0
-41 -44 -87 -91 -92 0
-45 -46 -63 -64 -96 0
-47 -65 -66 -85 -86 0
-41 -44 -87 -91 -92 0
-45 -46 -63 -64 -96 0
-48 -65 -67 -85 -86 0
-41 -44 -88 -91 -93 0
-45 -46 -63 -64 -97 0
-48 -65 -67 -85 -86 0
-41 -44 -88 -91 -93 0
-45 -46 -63 -64 -97 0
-49 -65 -68 -85 -86 0
-41 -44 -89 -91 -94 0
-45 -46 -63 -64 -98 0
-49 -65 -68 -85 -86 0
-41 -44 -89 -91 -94 0
-45 -46 -63 -64 -98 0
-50 -65 -69 -85 -86 0
-41 -44 -90 -91 -95 0
-45 -46 -63 -64 -99 0
-50 -65 -69 -85 -86 0
-41 -44 -90 -91 -95 0
-45 -46 -63 -64 -99 0
-48 -66 -67 -85 -87 0
-41 -44 -88 -92 -93 0
-45 -47 -63 -64 -100 0
-48 -66 -67 -85 -87 0
-41 -44 -88 -92 -93 0
-45 -47 -63 -64 -100 0
-49 -66 -68 -85 -87 0
-41 -44 -89 -92 -94 0
-45 -47 -63 -64 -101 0
-49 -66 -68 -85 -87 0
-41 -44 -89 -92 -94 0
-45 -47 -63 -64 -101 0
-50 -66 -69 -85 -87 0
-41 -44 -90 -92 -95 0
-45 -47 -63 -64 -102 0
-50 -66 -69 -85 -87 0
-41 -44 -90 -92 -95 0
-45 -47 -63 -64 -102 0
-49 -67 -68 -85 -88 0
-41 -44 -89 -93 -94 0
-45 -48 -63 -64 -103 0
-49 -67 -68 -85 -88 0
-41 -44 -89 -93 -94 0
-45 -48 -63 -64 -103 0
-50 -67 -69 -85 -88 0
-41 -44 -90 -93 -95 0
-45 -48 -63 -64 -104 0
-50 -67 -69 -85 -88 0
-41 -44 -90 -93 -95 0
-45 -48 -63 -64 -104 0
-50 -68 -69 -85 -89 0
-41 -44 -90 -94 -95 0
-45 -49 -63 -64 -105 0
-50 -68 -69 -85 -89 0
-41 -44 -90 -94 -95 0
-45 -49 -63 -64 -105 0
-48 -66 -67 -86 -87 0
-41 -44 -88 -96 -97 0
-46 -47 -63 -65 -100 0
-48 -66 -67 -86 -87 0
-41 -44 -88 -96 -97 0
-46 -47 -63 -65 -100 0
-49 -66 -68 -86 -87 0
-41 -44 -89 -96 -98 0
-46 -47 -63 -65 -101 0
-49 -66 -68 -86 -87 0
-41 -44 -89 -96 -98 0
-46 -47 -63 -65 -101 0
-50 -66 -69 -86 -87 0
-41 -44 -90 -96 -99 0
-46 -47 -63 -65 -102 0
-50 -66 -69 -86 -87 0
-41 -44 -90 -96 -99 0
-46 -47 -63 -65 -102 0
-49 -67 -68 -86 -88 0
-41 -44 -89 -97 -98 0
-46 -48 -63 -65 -103 0
-49 -67 -68 -86 -88 0
-41 -44 -89 -97 -98 0
-46 -48 -63 -65 -103 0
-50 -67 -69 -86 -88 0
-41 -44 -90 -97 -99 0
-46 -48 -63 -65 -104 0
-50 -67 -69 -86 -88 0
-41 -44 -90 -97 -99 0
-46 -48 -63 -65 -104 0
-50 -68 -69 -86 -89 0
-41 -44 -90 -98 -99 0
-46 -49 -63 -65 -105 0
-50 -68 -69 -86 -89 0
-41 -44 -90 -98 -99 0
-46 -49 -63 -65 -105 0
-49 -67 -68 -87 -88 0
-41 -44 -89 -100 -101 0
-47 -48 -63 -66 -103 0
-49 -67 -68 -87 -88 0
-41 -44 -89 -100 -101 0
-47 -48 -63 -66 -103 0
-50 -67 -69 -87 -88 0
-41 -44 -90 -100 -102 0
-47 -48 -63 -66 -104 0
-50 -67 -69 -87 -88 0
-41 -44 -90 -100 -102 0
-47 -48 -63 -66 -104 0
-50 -68 -69 -87 -89 0
-41 -44 -90 -101 -102 0
-47 -49 -63 -66 -105 0
-50 -68 -69 -87 -89 0
-41 -44 -90 -101 -102 0
-47 -49 -63 -66 -105 0
-50 -68 -69 -88 -89 0
-41 -44 -90 -103 -104 0
-48 -49 -63 -67 -105 0
-50 -68 -69 -88 -89 0
-41 -44 -90 -103 -104 0
-48 -49 -63 -67 -105 0
-48 -66 -67 -91 -92 0
-41 -45 -93 -96 -97 0
-46 -47 -64 -65 -100 0
-48 -66 -67 -91 -92 0
-41 -45 -93 -96 -97 0
-46 -47 -64 -65 -100 0
-49 -66 -68 -91 -92 0
-41 -45 -94 -96 -98 0
-46 -47 -64 -65 -101 0
-49 -66 -68 -91 -92 0
-41 -45 -94 -96 -98 0
-46 -47 -64 -65 -101 0
-50 -66 -69 -91 -92 0
-41 -45 -95 -96 -99 0
-46 -47 -64 -65 -102 0
-50 -66 -69 -91 -92 0
-41 -45 -95 -96 -99 0
-46 -47 -64 -65 -102 0
-49 -67 -68 -91 -93 0
-41 -45 -94 -97 -98 0
-46 -48 -64 -65 -103 0
-49 -67 -68 -91 -93 0
-41 -45 -94 -97 -98 0
-46 -48 -64 -65 -103 0
-50 -67 -69 -91 -93 0
-41 -45 -95 -97 -99 0
-46 -48 -64 -65 -104 0
-50 -67 -69 -91 -93 0
-41 -45 -95 -97 -99 0
-46 -48 -64 -65 -104 0
-50 -68 -69 -91 -94 0
-41 -45 -95 -98 -99 0
-46 -49 -64 -65 -105 0
-50 -68 -69 -91 -94 0
-41 -45 -95 -98 -99 0
-46 -49 -64 -65 -105 0
-49 -67 -68 -92 -93 0
-41 -45 -94 -100 -101 0
-47 -48 -64 -66 -103 0
-49 -67 -68 -92 -93 0
-41 -45 -94 -100 -101 0
-47 -48 -64 -66 -103 0
-50 -67 -69 -92 -93 0
-41 -45 -95 -100 -102 0
-47 -48 -64 -66 -104 0
-50 -67 -69 -92 -93 0
-41 -45 -95 -100 -102 0
-47 -48 -64 -66 -104 0
-50 -68 -69 -92 -94 0
-41 -45 -95 -101 -102 0
-47 -49 -64 -66 -105 0
-50 -68 -69 -92 -94 0
-41 -45 -95 -101 -102 0
-47 -49 -64 -66 -105 0
-50 -68 -69 -93 -94 0
-41 -45 -95 -103 -104 0
-48 -49 -64 -67 -105 0
-50 -68 -69 -93 -94 0
-41 -45 -95 -103 -104 0
-48 -49 -64 -67 -105 0
-49 -67 -68 -96 -97 0
-41 -46 -98 -100 -101 0
-47 -48 -65 -66 -103 0
-49 -67 -68 -96 -97 0
-41 -46 -98 -100 -101 0
-47 -48 -65 -66 -103 0
-50 -67 -69 -96 -97 0
-41 -46 -99 -100 -102 0
-47 -48 -65 -66 -104 0
-50 -67 -69 -96 -97 0
-41 -46 -99 -100 -102 0
-47 -48 -65 -66 -104 0
-50 -68 -69 -96 -98 0
-41 -46 -99 -101 -102 0
-47 -49 -65 -66 -105 0
-50 -68 -69 -96 -98 0
-41 -46 -99 -101 -102 0
-47 -49 -65 -66 -105 0
-50 -68 -69 -97 -98 0
-41 -46 -99 -103 -104 0
-48 -49 -65 -67 -105 0
-50 -68 -69 -97 -98 0
-41 -46 -99 -103 -104 0
-48 -49 -65 -67 -105 0
-50 -68 -69 -100 -101 0
-41 -47 -102 -103 -104 0
-48 -49 -66 -67 -105 0
-50 -68 -69 -100 -101 0
-41 -47 -102 -103 -104 0
-48 -49 -66 -67 -105 0
-46 -72 -73 -78 -79 0
-42 -43 -80 -85 -86 0
-44 -45 -70 -71 -91 0
-46 -72 -73 -78 -79 0
-42 -43 -80 -85 -86 0
-44 -45 -70 -71 -91 0
-47 -72 -74 -78 -79 0
-42 -43 -81 -85 -87 0
-44 -45 -70 -71 -92 0
-47 -72 -74 -78 -79 0
-42 -43 -81 -85 -87 0
-44 -45 -70 -71 -92 0
-48 -72 -75 -78 -79 0
-42 -43 -82 -85 -88 0
-44 -45 -70 -71 -93 0
-48 -72 -75 -78 -79 0
-42 -43 -82 -85 -88 0
-44 -45 -70 -71 -93 0
-49 -72 -76 -78 -79 0
-42 -43 -83 -85 -89 0
-44 -45 -70 -71 -94 0
-49 -72 -76 -78 -79 0
-42 -43 -83 -85 -89 0
-44 -45 -70 -71 -94 0
-50 -72 -77 -78 -79 0
-42 -43 -84 -85 -90 0
-44 -45 -70 -71 -95 0
-50 -72 -77 -78 -79 0
-42 -43 -84 -85 -90 0
-44 -45 -70 -71 -95 0
-47 -73 -74 -78 -80 0
-42 -43 -81 -86 -87 0
-44 -46 -70 -71 -96 0
-47 -73 -74 -78 -80 0
-42 -43 -81 -86 -87 0
-44 -46 -70 -71 -96 0
-48 -73 -75 -78 -80 0
-42 -43 -82 -86 -88 0
-44 -46 -70 -71 -97 0
-48 -73 -75 -78 -80 0
-42 -43 -82 -86 -88 0
-44 -46 -70 -71 -97 0
-49 -73 -76 -78 -80 0
-42 -43 -83 -86 -89 0
-44 -46 -70 -71 -98 0
-49 -73 -76 -78 -80 0
-42 -43 -83 -86 -89 0
-44 -46 -70 -71 -98 0
-50 -73 -77 -78 -80 0
-42 -43 -84 -86 -90 0
-44 -46 -70 -71 -99 0
-50 -73 -77 -78 -80 0
-42 -43 -84 -86 -90 0
-44 -46 -70 -71 -99 0
-48 -74 -75 -78 -81 0
-42 -43 -82 -87 -88 0
-44 -47 -70 -71 -100 0
-48 -74 -75 -78 -81 0
-42 -43 -82 -87 -88 0
-44 -47 -70 -71 -100 0
-49 -74 -76 -78 -81 0
-42 -43 -83 -87 -89 0
-44 -47 -70 -71 -101 0
-49 -74 -76 -78 -81 0
-42 -43 -83 -87 -89 0
-44 -47 -70 -71 -101 0
-50 -74 -77 -78 -81 0
-42 -43 -84 -87 -90 0
-44 -47 -70 -71 -102 0
-50 -74 -77 -78 -81 0
-42 -43 -84 -87 -90 0
-44 -47 -70 -71 -102 0
-49 -75 -76 -78 -82 0
-42 -43 -83 -88 -89 0
-44 -48 -70 -71 -103 0
-49 -75 -76 -78 -82 0
-42 -43 -83 -88 -89 0
-44 -48 -70 -71 -103 0
-50 -75 -77 -78 -82 0
-42 -43 -84 -88 -90 0
-44 -48 -70 -71 -104 0
-50 -75 -77 -78 -82 0
-42 -43 -84 -88 -90 0
-44 -48 -70 -71 -104 0
-50 -76 -77 -78 -83 0
-42 -43 -84 -89 -90 0
-44 -49 -70 -71 -105 0
-50 -76 -77 -78 -83 0
-42 -43 -84 -89 -90 0
-44 -49 -70 -71 -105 0
-47 -73 -74 -79 -80 0
-42 -43 -81 -91 -92 0
-45 -46 -70 -72 -96 0
-47 -73 -74 -79 -80 0
-42 -43 -81 -91 -92 0
-45 -46 -70 -72 -96 0
-48 -73 -75 -79 -80 0
-42 -43 -82 -91 -93 0
-45 -46 -70 -72 -97 0
-48 -73 -75 -79 -80 0
-42 -43 -82 -91 -93 0
-45 -46 -70 -72 -97 0
-49 -73 -76 -79 -80 0
-42 -43 -83 -91 -94 0
-45 -46 -70 -72 -98 0
-49 -73 -76 -79 -80 0
-42 -43 -83 -91 -94 0
-45 -46 -70 -72 -98 0
-50 -73 -77 -79 -80 0
-42 -43 -84 -91 -95 0
-45 -46 -70 -72 -99 0
-50 -73 -77 -79 -80 0
-42 -43 -84 -91 -95 0
-45 -46 -70 -72 -99 0
-48 -74 -75 -79 -81 0
-42 -43 -82 -92 -93 0
-45 -47 -70 -72 -100 0
-48 -74 -75 -79 -81 0
-42 -43 -82 -92 -93 0
-45 -47 -70 -72 -100 0
-49 -74 -76 -79 -81 0
-42 -43 -83 -92 -94 0
-45 -47 -70 -72 -101 0
-49 -74 -76 -79 -81 0
-42 -43 -83 -92 -94 0
-45 -47 -70 -72 -101 0
-50 -74 -77 -79 -81 0
-42 -43 -84 -92 -95 0
-45 -47 -70 -72 -102 0
-50 -74 -77 -79 -81 0
-42 -43 -84 -92 -95 0
-45 -47 -70 -72 -102 0
-49 -75 -76 -79 -82 0
-42 -43 -83 -93 -94 0
-45 -48 -70 -72 -103 0
-49 -75 -76 -79 -82 0
-42 -43 -83 -93 -94 0
-45 -48 -70 -72 -103 0
-50 -75 -77 -79 -82 0
-42 -43 -84 -93 -95 0
-45 -48 -70 -72 -104 0
-50 -75 -77 -79 -82 0
-42 -43 -84 -93 -95 0
-45 -48 -70 -72 -104 0
-50 -76 -77 -79 -83 0
-42 -43 -84 -94 -95 0
-45 -49 -70 -72 -105 0
-50 -76 -77 -79 -83 0
-42 -43 -84 -94 -95 0
-45 -49 -70 -72 -105 0
-48 -74 -75 -80 -81 0
-42 -43 -82 -96 -97 0
-46 -47 -70 -73 -100 0
-48 -74 -75 -80 -81 0
-42 -43 -82 -96 -97 0
-46 -47 -70 -73 -100 0
-49 -74 -76 -80 -81 0
-42 -43 -83 -96 -98 0
-46 -47 -70 -73 -101 0
-49 -74 -76 -80 -81 0
-42 -43 -83 -96 -98 0
-46 -47 -70 -73 -101 0
-50 -74 -77 -80 -81 0
-42 -43 -84 -96 -99 0
-46 -47 -70 -73 -102 0
-50 -74 -77 -80 -81 0
-42 -43 -84 -96 -99 0
-46 -47 -70 -73 -102 0
-49 -75 -76 -80 -82 0
-42 -43 -83 -97 -98 0
-46 -48 -70 -73 -103 0
-49 -75 -76 -80 -82 0
-42 -43 -83 -97 -98 0
-46 -48 -70 -73 -103 0
-50 -75 -77 -80 -82 0
-42 -43 -84 -97 -99 0
-46 -48 -70 -73 -104 0
-50 -75 -77 -80 -82 0
-42 -43 -84 -97 -99 0
-46 -48 -70 -73 -104 0
-50 -76 -77 -80 -83 0
-42 -43 -84 -98 -99 0
-46 -49 -70 -73 -105 0
-50 -76 -77 -80 -83 0
-42 -43 -84 -98 -99 0
-46 -49 -70 -73 -105 0
-49 -75 -76 -81 -82 0
-42 -43 -83 -100 -101 0
-47 -48 -70 -74 -103 0
-49 -75 -76 -81 -82 0
-42 -43 -83 -100 -101 0
-47 -48 -70 -74 -103 0
-50 -75 -77 -81 -82 0
-42 -43 -84 -100 -102 0
-47 -48 -70 -74 -104 0
-50 -75 -77 -81 -82 0
-42 -43 -84 -100 -102 0
-47 -48 -70 -74 -104 0
-50 -76 -77 -81 -83 0
-42 -43 -84 -101 -102 0
-47 -49 -70 -74 -105 0
-50 -76 -77 -81 -83 0
-42 -43 -84 -101 -102 0
-47 -49 -70 -74 -105 0
-50 -76 -77 -82 -83 0
-42 -43 -84 -103 -104 0
-48 -49 -70 -75 -105 0
-50 -76 -77 -82 -83 0
-42 -43 -84 -103 -104 0
-48 -49 -70 -75 -105 0
-47 -73 -74 -85 -86 0
-42 -44 -87 -91 -92 0
-45 -46 -71 -72 -96 0
-47 -73 -74 -85 -86 0
-42 -44 -87 -91 -92 0
-45 -46 -71 -72 -96 0
-48 -73 -75 -85 -86 0
-42 -44 -88 -91 -93 0
-45 -46 -71 -72 -97 0
-48 -73 -75 -85 -86 0
-42 -44 -88 -91 -93 0
-45 -46 -71 -72 -97 0
-49 -73 -76 -85 -86 0
-42 -44 -89 -91 -94 0
-45 -46 -71 -72 -98 0
-49 -73 -76 -85 -86 0
-42 -44 -89 -91 -94 0
-45 -46 -71 -72 -98 0
-50 -73 -77 -85 -86 0
-42 -44 -90 -91 -95 0
-45 -46 -71 -72 -99 0
-50 -73 -77 -85 -86 0
-42 -44 -90 -91 -95 0
-45 -46 -71 -72 -99 0
-48 -74 -75 -85 -87 0
-42 -44 -88 -92 -93 0
-45 -47 -71 -72 -100 0
-48 -74 -75 -85 -87 0
-42 -44 -88 -92 -93 0
-45 -47 -71 -72 -100 0
-49 -74 -76 -85 -87 0
-42 -44 -89 -92 -94 0
-45 -47 -71 -72 -101 0
-49 -74 -76 -85 -87 0
-42 -44 -89 -92 -94 0
-45 -47 -71 -72 -101 0
-50 -74 -77 -85 -87 0
-42 -44 -90 -92 -95 0
-45 -47 -71 -72 -102 0
-50 -74 -77 -85 -87 0
-42 -44 -90 -92 -95 0
-45 -47 -71 -72 -102 0
-49 -75 -76 -85 -88 0
-42 -44 -89 -93 -94 0
-45 -48 -71 -72 -103 0
-49 -75 -76 -85 -88 0
-42 -44 -89 -93 -94 0
-45 -48 -71 -72 -103 0
-50 -75 -77 -85 -88 0
-42 -44 -90 -93 -95 0
-45 -48 -71 -72 -104 0
-50 -75 -77 -85 -88 0
-42 -44 -90 -93 -95 0
-45 -48 -71 -72 -104 0
-50 -76 -77 -85 -89 0
-42 -44 -90 -94 -95 0
-45 -49 -71 -72 -105 0
-50 -76 -77 -85 -89 0
-42 -44 -90 -94 -95 0
-45 -49 -71 -72 -105 0
-48 -74 -75 -86 -87 0
-42 -44 -88 -96 -97 0
-46 -47 -71 -73 -100 0
-48 -74 -75 -86 -87 0
-42 -44 -88 -96 -97 0
-46 -47 -71 -73 -100 0
-49 -74 -76 -86 -87 0
-42 -44 -89 -96 -98 0
-46 -47 -71 -73 -101 0
-49 -74 -76 -86 -87 0
-42 -44 -89 -96 -98 0
-46 -47 -71 -73 -101 0
-50 -74 -77 -86 -87 0
-42 -44 -90 -96 -99 0
-46 -47 -71 -73 -102 0
-50 -74 -77 -86 -87 0
-42 -44 -90 -96 -99 0
-46 -47 -71 -73 -102 0
-49 -75 -76 -86 -88 0
-42 -44 -89 -97 -98 0
-46 -48 -71 -73 -103 0
-49 -75 -76 -86 -88 0
-42 -44 -89 -97 -98 0
-46 -48 -71 -73 -103 0
-50 -75 -77 -86 -88 0
-42 -44 -90 -97 -99 0
-46 -48 -71 -73 -104 0
-50 -75 -77 -86 -88 0
-42 -44 -90 -97 -99 0
-46 -48 -71 -73 -104 0
-50 -76 -77 -86 -89 0
-42 -44 -90 -98 -99 0
-46 -49 -71 -73 -105 0
-50 -76 -77 -86 -89 0
-42 -44 -90 -98 -99 0
-46 -49 -71 -73 -105 0
-49 -75 -76 -87 -88 0
-42 -44 -89 -100 -101 0
-47 -48 -71 -74 -103 0
-49 -75 -76 -87 -88 0
-42 -44 -89 -100 -101 0
-47 -48 -71 -74 -103 0
-50 -75 -77 -87 -88 0
-42 -44 -90 -100 -102 0
-47 -48 -71 -74 -104 0
-50 -75 -77 -87 -88 0
-42 -44 -90 -100 -102 0
-47 -48 -71 -74 -104 0
-50 -76 -77 -87 -89 0
-42 -44 -90 -101 -102 0
-47 -49 -71 -74 -105 0
-50 -76 -77 -87 -89 0
-42 -44 -90 -101 -102 0
-47 -49 -71 -74 -105 0
-50 -76 -77 -88 -89 0
-42 -44 -90 -103 -104 0
-48 -49 -71 -75 -105 0
-50 -76 -77 -88 -89 0
-42 -44 -90 -103 -104 0
-48 -49 -71 -75 -105 0
-48 -74 -75 -91 -92 0
-42 -45 -93 -96 -97 0
-46 -47 -72 -73 -100 0
-48 -74 -75 -91 -92 0
-42 -45 -93 -96 -97 0
-46 -47 -72 -73 -100 0
-49 -74 -76 -91 -92 0
-42 -45 -94 -96 -98 0
-46 -47 -72 -73 -101 0
-49 -74 -76 -91 -92 0
-42 -45 -94 -96 -98 0
-46 -47 -72 -73 -101 0
-50 -74 -77 -91 -92 0
-42 -45 -95 -96 -99 0
-46 -47 -72 -73 -102 0
-50 -74 -77 -91 -92 0
-42 -45 -95 -96 -99 0
-46 -47 -72 -73 -102 0
-49 -75 -76 -91 -93 0
-42 -45 -94 -97 -98 0
-46 -48 -72 -73 -103 0
-49 -75 -76 -91 -93 0
-42 -45 -94 -97 -98 0
-46 -48 -72 -73 -103 0
-50 -75 -77 -91 -93 0
-42 -45 -95 -97 -99 0
-46 -48 -72 -73 -104 0
-50 -75 -77 -91 -93 0
-42 -45 -95 -97 -99 0
-46 -48 -72 -73 -104 0
-50 -76 -77 -91 -94 0
-42 -45 -95 -98 -99 0
-46 -49 -72 -73 -105 0
-50 -76 -77 -91 -94 0
-42 -45 -95 -98 -99 0
-46 -49 -72 -73 -105 0
-49 -75 -76 -92 -93 0
-42 -45 -94 -100 -101 0
-47 -48 -72 -74 -103 0
-49 -75 -76 -92 -93 0
-42 -45 -94 -100 -101 0
-47 -48 -72 -74 -103 0
-50 -75 -77 -92 -93 0
-42 -45 -95 -100 -102 0
-47 -48 -72 -74 -104 0
-50 -75 -77 -92 -93 0
-42 -45 -95 -100 -102 0
-47 -48 -72 -74 -104 0
-50 -76 -77 -92 -94 0
-42 -45 -95 -101 -102 0
-47 -49 -72 -74 -105 0
-50 -76 -77 -92 -94 0
-42 -45 -95 -101 -102 0
-47 -49 -72 -74 -105 0
-50 -76 -77 -93 -94 0
-42 -45 -95 -103 -104 0
-48 -49 -72 -75 -105 0
-50 -76 -77 -93 -94 0
-42 -45 -95 -103 -104 0
-48 -49 -72 -75 -105 0
-49 -75 -76 -96 -97 0
-42 -46 -98 -100 -101 0
-47 -48 -73 -74 -103 0
-49 -75 -76 -96 -97 0
-42 -46 -98 -100 -101 0
-47 -48 -73 -74 -103 0
-50 -75 -77 -96 -97 0
-42 -46 -99 -100 -102 0
-47 -48 -73 -74 -104 0
-50 -75 -77 -96 -97 0
-42 -46 -99 -100 -102 0
-47 -48 -73 -74 -104 0
-50 -76 -77 -96 -98 0
-42 -46 -99 -101 -102 0
-47 -49 -73 -74 -105 0
-50 -76 -77 -96 -98 0
-42 -46 -99 -101 -102 0
-47 -49 -73 -74 -105 0
-50 -76 -77 -97 -98 0
-42 -46 -99 -103 -104 0
-48 -49 -73 -75 -105 0
-50 -76 -77 -97 -98 0
-42 -46 -99 -103 -104 0
-48 -49 -73 -75 -105 0
-50 -76 -77 -100 -101 0
-42 -47 -102 -103 -104 0
-48 -49 -74 -75 -105 0
-50 -76 -77 -100 -101 0
-42 -47 -102 -103 -104 0
-48 -49 -74 -75 -105 0
-47 -80 -81 -85 -86 0
-43 -44 -87 -91 -92 0
-45 -46 -78 -79 -96 0
-47 -80 -81 -85 -86 0
-43 -44 -87 -91 -92 0
-45 -46 -78 -79 -96 0
-48 -80 -82 -85 -86 0
-43 -44 -88 -91 -93 0
-45 -46 -78 -79 -97 0
-48 -80 -82 -85 -86 0
-43 -44 -88 -91 -93 0
-45 -46 -78 -79 -97 0
-49 -80 -83 -85 -86 0
-43 -44 -89 -91 -94 0
-45 -46 -78 -79 -98 0
-49 -80 -83 -85 -86 0
-43 -44 -89 -91 -94 0
-45 -46 -78 -79 -98 0
-50 -80 -84 -85 -86 0
-43 -44 -90 -91 -95 0
-45 -46 -78 -79 -99 0
-50 -80 -84 -85 -86 0
-43 -44 -90 -91 -95 0
-45 -46 -78 -79 -99 0
-48 -81 -82 -85 -87 0
-43 -44 -88 -92 -93 0
-45 -47 -78 -79 -100 0
-48 -81 -82 -85 -87 0
-43 -44 -88 -92 -93 0
-45 -47 -78 -79 -100 0
-49 -81 -83 -85 -87 0
-43 -44 -89 -92 -94 0
-45 -47 -78 -79 -101 0
-49 -81 -83 -85 -87 0
-43 -44 -89 -92 -94 0
-45 -47 -78 -79 -101 0
-50 -81 -84 -85 -87 0
-43 -44 -90 -92 -95 0
-45 -47 -78 -79 -102 0
-50 -81 -84 -85 -87 0
-43 -44 -90 -92 -95 0
-45 -47 -78 -79 -102 0
-49 -82 -83 -85 -88 0
-43 -44 -89 -93 -94 0
-45 -48 -78 -79 -103 0
-49 -82 -83 -85 -88 0
-43 -44 -89 -93 -94 0
-45 -48 -78 -79 -103 0
-50 -82 -84 -85 -88 0
-43 -44 -90 -93 -95 0
-45 -48 -78 -79 -104 0
-50 -82 -84 -85 -88 0
-43 -44 -90 -93 -95 0
-45 -48 -78 -79 -104 0
-50 -83 -84 -85 -89 0
-43 -44 -90 -94 -95 0
-45 -49 -78 -79 -105 0
-50 -83 -84 -85 -89 0
-43 -44 -90 -94 -95 0
-45 -49 -78 -79 -105 0
-48 -81 -82 -86 -87 0
-43 -44 -88 -96 -97 0
-46 -47 -78 -80 -100 0
-48 -81 -82 -86 -87 0
-43 -44 -88 -96 -97 0
-46 -47 -78 -80 -100 0
-49 -81 -83 -86 -87 0
-43 -44 -89 -96 -98 0
-46 -47 -78 -80 -101 0
-49 -81 -83 -86 -87 0
-43 -44 -89 -96 -98 0
-46 -47 -78 -80 -101 0
-50 -81 -84 -86 -87 0
-43 -44 -90 -96 -99 0
-46 -47 -78 -80 -102 0
-50 -81 -84 -86 -87 0
-43 -44 -90 -96 -99 0
-46 -47 -78 -80 -102 0
-49 -82 -83 -86 -88 0
-43 -44 -89 -97 -98 0
-46 -48 -78 -80 -103 0
-49 -82 -83 -86 -88 0
-43 -44 -89 -97 -98 0
-46 -48 -78 -80 -103 0
-50 -82 -84 -86 -88 0
-43 -44 -90 -97 -99 0
-46 -48 -78 -80 -104 0
-50 -82 -84 -86 -88 0
-43 -44 -90 -97 -99 0
-46 -48 -78 -80 -104 0
-50 -83 -84 -86 -89 0
-43 -44 -90 -98 -99 0
-46 -49 -78 -80 -105 0
-50 -83 -84 -86 -89 0
-43 -44 -90 -98 -99 0
-46 -49 -78 -80 -105 0
-49 -82 -83 -87 -88 0
-43 -44 -89 -100 -101 0
-47 -48 -78 -81 -103 0
-49 -82 -83 -87 -88 0
-43 -44 -89 -100 -101 0
-47 -48 -78 -81 -103 0
-50 -82 -84 -87 -88 0
-43 -44 -90 -100 -102 0
-47 -48 -78 -81 -104 0
-50 -82 -84 -87 -88 0
-43 -44 -90 -100 -102 0
-47 -48 -78 -81 -104 0
-50 -83 -84 -87 -89 0
-43 -44 -90 -101 -102 0
-47 -49 -78 -81 -105 0
-50 -83 -84 -87 -89 0
-43 -44 -90 -101 -102 0
-47 -49 -78 -81 -105 0
-50 -83 -84 -88 -89 0
-43 -44 -90 -103 -104 0
-48 -49 -78 -82 -105 0
-50 -83 -84 -88 -89 0
-43 -44 -90 -103 -104 0
-48 -49 -78 -82 -105 0
-48 -81 -82 -91 -92 0
-43 -45 -93 -96 -97 0
-46 -47 -79 -80 -100 0
-48 -81 -82 -91 -92 0
-43 -45 -93 -96 -97 0
-46 -47 -79 -80 -100 0
-49 -81 -83 -91 -92 0
-43 -45 -94 -96 -98 0
-46 -47 -79 -80 -101 0
-49 -81 -83 -91 -92 0
-43 -45 -94 -96 -98 0
-46 -47 -79 -80 -101 0
-50 -81 -84 -91 -92 0
-43 -45 -95 -96 -99 0
-46 -47 -79 -80 -102 0
-50 -81 -84 -91 -92 0
-43 -45 -95 -96 -99 0
-46 -47 -79 -80 -102 0
-49 -82 -83 -91 -93 0
-43 -45 -94 -97 -98 0
-46 -48 -79 -80 -103 0
-49 -82 -83 -91 -93 0
-43 -45 -94 -97 -98 0
-46 -48 -79 -80 -103 0
-50 -82 -84 -91 -93 0
-43 -45 -95 -97 -99 0
-46 -48 -79 -80 -104 0
-50 -82 -84 -91 -93 0
-43 -45 -95 -97 -99 0
-46 -48 -79 -80 -104 0
-50 -83 -84 -91 -94 0
-43 -45 -95 -98 -99 0
-46 -49 -79 -80 -105 0
-50 -83 -84 -91 -94 0
-43 -45 -95 -98 -99 0
-46 -49 -79 -80 -105 0
-49 -82 -83 -92 -93 0
-43 -45 -94 -100 -101 0
-47 -48 -79 -81 -103 0
-49 -82 -83 -92 -93 0
-43 -45 -94 -100 -101 0
-47 -48 -79 -81 -103 0
-50 -82 -84 -92 -93 0
-43 -45 -95 -100 -102 0
-47 -48 -79 -81 -104 0
-50 -82 -84 -92 -93 0
-43 -45 -95 -100 -102 0
-47 -48 -79 -81 -104 0
-50 -83 -84 -92 -94 0
-43 -45 -95 -101 -102 0
-47 -49 -79 -81 -105 0
-50 -83 -84 -92 -94 0
-43 -45 -95 -101 -102 0
-47 -49 -79 -81 -105 0
-50 -83 -84 -93 -94 0
-43 -45 -95 -103 -104 0
-48 -49 -79 -82 -105 0
-50 -83 -84 -93 -94 0
-43 -45 -95 -103 -104 0
-48 -49 -79 -82 -105 0
-49 -82 -83 -96 -97 0
-43 -46 -98 -100 -101 0
-47 -48 -80 -81 -103 0
-49 -82 -83 -96 -97 0
-43 -46 -98 -100 -101 0
-47 -48 -80 -81 -103 0
-50 -82 -84 -96 -97 0
-43 -46 -99 -100 -102 0
-47 -48 -80 -81 -104 0
-50 -82 -84 -96 -97 0
-43 -46 -99 -100 -102 0
-47 -48 -80 -81 -104 0
-50 -83 -84 -96 -98 0
-43 -46 -99 -101 -102 0
-47 -49 -80 -81 -105 0
-50 -83 -84 -96 -98 0
-43 -46 -99 -101 -102 0
-47 -49 -80 -81 -105 0
-50 -83 -84 -97 -98 0
-43 -46 -99 -103 -104 0
-48 -49 -80 -82 -105 0
-50 -83 -84 -97 -98 0
-43 -46 -99 -103 -104 0
-48 -49 -80 -82 -105 0
-50 -83 -84 -100 -101 0
-43 -47 -102 -103 -104 0
-48 -49 -81 -82 -105 0
-50 -83 -84 -100 -101 0
-43 -47 -102 -103 -104 0
-48 -49 -81 -82 -105 0
-48 -87 -88 -91 -92 0
-44 -45 -93 -96 -97 0
-46 -47 -85 -86 -100 0
-48 -87 -88 -91 -92 0
-44 -45 -93 -96 -97 0
-46 -47 -85 -86 -100 0
-49 -87 -89 -91 -92 0
-44 -45 -94 -96 -98 0
-46 -47 -85 -86 -101 0
-49 -87 -89 -91 -92 0
-44 -45 -94 -96 -98 0
-46 -47 -85 -86 -101 0
-50 -87 -90 -91 -92 0
-44 -45 -95 -96 -99 0
-46 -47 -85 -86 -102 0
-50 -87 -90 -91 -92 0
-44 -45 -95 -96 -99 0
-46 -47 -85 -86 -102 0
-49 -88 -89 -91 -93 0
-44 -45 -94 -97 -98 0
-46 -48 -85 -86 -103 0
-49 -88 -89 -91 -93 0
-44 -45 -94 -97 -98 0
-46 -48 -85 -86 -103 0
-50 -88 -90 -91 -93 0
-44 -45 -95 -97 -99 0
-46 -48 -85 -86 -104 0
-50 -88 -90 -91 -93 0
-44 -45 -95 -97 -99 0
-46 -48 -85 -86 -104 0
-50 -89 -90 -91 -94 0
-44 -45 -95 -98 -99 0
-46 -49 -85 -86 -105 0
-50 -89 -90 -91 -94 0
-44 -45 -95 -98 -99 0
-46 -49 -85 -86 -105 0
-49 -88 -89 -92 -93 0
-44 -45 -94 -100 -101 0
-47 -48 -85 -87 -103 0
-49 -88 -89 -92 -93 0
-44 -45 -94 -100 -101 0
-47 -48 -85 -87 -103 0
-50 -88 -90 -92 -93 0
-44 -45 -95 -100 -102 0
-47 -48 -85 -87 -104 0
-50 -88 -90 -92 -93 0
-44 -45 -95 -100 -102 0
-47 -48 -85 -87 -104 0
-50 -89 -90 -92 -94 0
-44 -45 -95 -101 -102 0
-47 -49 -85 -87 -105 0
-50 -89 -90 -92 -94 0
-44 -45 -95 -101 -102 0
-47 -49 -85 -87 -105 0
-50 -89 -90 -93 -94 0
-44 -45 -95 -103 -104 0
-48 -49 -85 -88 -105 0
-50 -89 -90 -93 -94 0
-44 -45 -95 -103 -104 0
-48 -49 -85 -88 -105 0
-49 -88 -89 -96 -97 0
-44 -46 -98 -100 -101 0
-47 -48 -86 -87 -103 0
-49 -88 -89 -96 -97 0
-44 -46 -98 -100 -101 0
-47 -48 -86 -87 -103 0
-50 -88 -90 -96 -97 0
-44 -46 -99 -100 -102 0
-47 -48 -86 -87 -104 0
-50 -88 -90 -96 -97 0
-44 -46 -99 -100 -102 0
-47 -48 -86 -87 -104 0
-50 -89 -90 -96 -98 0
-44 -46 -99 -101 -102 0
-47 -49 -86 -87 -105 0
-50 -89 -90 -96 -98 0
-44 -46 -99 -101 -102 0
-47 -49 -86 -87 -105 0
-50 -89 -90 -97 -98 0
-44 -46 -99 -103 -104 0
-48 -49 -86 -88 -105 0
-50 -89 -90 -97 -98 0
-44 -46 -99 -103 -104 0
-48 -49 -86 -88 -105 0
-50 -89 -90 -100 -101 0
-44 -47 -102 -103 -104 0
-48 -49 -87 -88 -105 0
-50 -89 -90 -100 -101 0
-44 -47 -102 -103 -104 0
-48 -49 -87 -88 -105 0
-49 -93 -94 -96 -97 0
-45 -46 -98 -100 -101 0
-47 -48 -91 -92 -103 0
-49 -93 -94 -96 -97 0
-45 -46 -98 -100 -101 0
-47 -48 -91 -92 -103 0
-50 -93 -95 -96 -97 0
-45 -46 -99 -100 -102 0
-47 -48 -91 -92 -104 0
-50 -93 -95 -96 -97 0
-45 -46 -99 -100 -102 0
-47 -48 -91 -92 -104 0
-50 -94 -95 -96 -98 0
-45 -46 -99 -101 -102 0
-47 -49 -91 -92 -105 0
-50 -94 -95 -96 -98 0
-45 -46 -99 -101 -102 0
-47 -49 -91 -92 -105 0
-50 -94 -95 -97 -98 0
-45 -46 -99 -103 -104 0
-48 -49 -91 -93 -105 0
-50 -94 -95 -97 -98 0
-45 -46 -99 -103 -104 0
-48 -49 -91 -93 -105 0
-50 -94 -95 -100 -101 0
-45 -47 -102 -103 -104 0
-48 -49 -92 -93 -105 0
-50 -94 -95 -100 -101 0
-45 -47 -102 -103 -104 0
-48 -49 -92 -93 -105 0
-50 -98 -99 -100 -101 0
-46 -47 -102 -103 -104 0
-48 -49 -96 -97 -105 0
-50 -98 -99 -100 -101 0
-46 -47 -102 -103 -104 0
-48 -49 -96 -97 -105 0
-55 -63 -64 -70 -71 0
-51 -52 -72 -78 -79 0
-53 -54 -61 -62 -85 0
-55 -63 -64 -70 -71 0
-51 -52 -72 -78 -79 0
-53 -54 -61 -62 -85 0
-56 -63 -65 -70 -71 0
-51 -52 -73 -78 -80 0
-53 -54 -61 -62 -86 0
-56 -63 -65 -70 -71 0
-51 -52 -73 -78 -80 0
-53 -54 -61 -62 -86 0
-57 -63 -66 -70 -71 0
-51 -52 -74 -78 -81 0
-53 -54 -61 -62 -87 0
-57 -63 -66 -70 -71 0
-51 -52 -74 -78 -81 0
-53 -54 -61 -62 -87 0
-58 -63 -67 -70 -71 0
-51 -52 -75 -78 -82 0
-53 -54 -61 -62 -88 0
-58 -63 -67 -70 -71 0
-51 -52 -75 -78 -82 0
-53 -54 -61 -62 -88 0
-59 -63 -68 -70 -71 0
-51 -52 -76 -78 -83 0
-53 -54 -61 -62 -89 0
-59 -63 -68 -70 -71 0
-51 -52 -76 -78 -83 0
-53 -54 -61 -62 -89 0
-60 -63 -69 -70 -71 0
-51 -52 -77 -78 -84 0
-53 -54 -61 -62 -90 0
-60 -63 -69 -70 -71 0
-51 -52 -77 -78 -84 0
-53 -54 -61 -62 -90 0
-56 -64 -65 -70 -72 0
-51 -52 -73 -79 -80 0
-53 -55 -61 -62 -91 0
-56 -64 -65 -70 -72 0
-51 -52 -73 -79 -80 0
-53 -55 -61 -62 -91 0
-57 -64 -66 -70 -72 0
-51 -52 -74 -79 -81 0
-53 -55 -61 -62 -92 0
-57 -64 -66 -70 -72 0
-51 -52 -74 -79 -81 0
-53 -55 -61 -62 -92 0
-58 -64 -67 -70 -72 0
-51 -52 -75 -79 -82 0
-53 -55 -61 -62 -93 0
-58 -64 -67 -70 -72 0
-51 -52 -75 -79 -82 0
-53 -55 -61 -62 -93 0
-59 -64 -68 -70 -72 0
-51 -52 -76 -79 -83 0
-53 -55 -61 -62 -94 0
-59 -64 -68 -70 -72 0
-51 -52 -76 -79 -83 0
-53 -55 -61 -62 -94 0
-60 -64 -69 -70 -72 0
-51 -52 -77 -79 -84 0
-53 -55 -61 -62 -95 0
-60 -64 -69 -70 -72 0
-51 -52 -77 -79 -84 0
-53 -55 -61 -62 -95 0
-57 -65 -66 -70 -73 0
-51 -52 -74 -80 -81 0
-53 -56 -61 -62 -96 0
-57 -65 -66 -70 -73 0
-51 -52 -74 -80 -81 0
-53 -56 -61 -62 -96 0
-58 -65 -67 -70 -73 0
-51 -52 -75 -80 -82 0
-53 -56 -61 -62 -97 0
-58 -65 -67 -70 -73 0
-51 -52 -75 -80 -82 0
-53 -56 -61 -62 -97 0
-59 -65 -68 -70 -73 0
-51 -52 -76 -80 -83 0
-53 -56 -61 -62 -98 0
-59 -65 -68 -70 -73 0
-51 -52 -76 -80 -83 0
-53 -56 -61 -62 -98 0
-60 -65 -69 -70 -73 0
-51 -52 -77 -80 -84 0
-53 -56 -61 -62 -99 0
-60 -65 -69 -70 -73 0
-51 -52 -77 -80 -84 0
-53 -56 -61 -62 -99 0
-58 -66 -67 -70 -74 0
-51 -52 -75 -81 -82 0
-53 -57 -61 -62 -100 0
-58 -66 -67 -70 -74 0
-51 -52 -75 -81 -82 0
-53 -57 -61 -62 -100 0
-59 -66 -68 -70 -74 0
-51 -52 -76 -81 -83 0
-53 -57 -61 -62 -101 0
-59 -66 -68 -70 -74 0
-51 -52 -76 -81 -83 0
-53 -57 -61 -62 -101 0
-60 -66 -69 -70 -74 0
-51 -52 -77 -81 -84 0
-53 -57 -61 -62 -102 0
-60 -66 -69 -70 -74 0
-51 -52 -77 -81 -84 0
-53 -57 -61 -62 -102 0
-59 -67 -68 -70 -75 0
-51 -52 -76 -82 -83 0
-53 -58 -61 -62 -103 0
-59 -67 -68 -70 -75 0
-51 -52 -76 -82 -83 0
-53 -58 -61 -62 -103 0
-60 -67 -69 -70 -75 0
-51 -52 -77 -82 -84 0
-53 -58 -61 -62 -104 0
-60 -67 -69 -70 -75 0
-51 -52 -77 -82 -84 0
-53 -58 -61 -62 -104 0
-60 -68 -69 -70 -76 0
-51 -52 -77 -83 -84 0
-53 -59 -61 -62 -105 0
-60 -68 -69 -70 -76 0
-51 -52 -77 -83 -84 0
-53 -59 -61 -62 -105 0
-56 -64 -65 -71 -72 0
-51 -52 -73 -85 -86 0
-54 -55 -61 -63 -91 0
-56 -64 -65 -71 -72 0
-51 -52 -73 -85 -86 0
-54 -55 -61 -63 -91 0
-57 -64 -66 -71 -72 0
-51 -52 -74 -85 -87 0
-54 -55 -61 -63 -92 0
-57 -64 -66 -71 -72 0
-51 -52 -74 -85 -87 0
-54 -55 -61 -63 -92 0
-58 -64 -67 -71 -72 0
-51 -52 -75 -85 -88 0
-54 -55 -61 -63 -93 0
-58 -64 -67 -71 -72 0
-51 -52 -75 -85 -88 0
-54 -55 -61 -63 -93 0
-59 -64 -68 -71 -72 0
-51 -52 -76 -85 -89 0
-54 -55 -61 -63 -94 0
-59 -64 -68 -71 -72 0
-51 -52 -76 -85 -89 0
-54 -55 -61 -63 -94 0
-60 -64 -69 -71 -72 0
-51 -52 -77 -85 -90 0
-54 -55 -61 -63 -95 0
-60 -64 -69 -71 -72 0
-51 -52 -77 -85 -90 0
-54 -55 -61 -63 -95 0
-57 -65 -66 -71 -73 0
-51 -52 -74 -86 -87 0
-54 -56 -61 -63 -96 0
-57 -65 -66 -71 -73 0
-51 -52 -74 -86 -87 0
-54 -56 -61 -63 -96 0
-58 -65 -67 -71 -73 0
-51 -52 -75 -86 -88 0
-54 -56 -61 -63 -97 0
-58 -65 -67 -71 -73 0
-51 -52 -75 -86 -88 0
-54 -56 -61 -63 -97 0
-59 -65 -68 -71 -73 0
-51 -52 -76 -86 -89 0
-54 -56 -61 -63 -98 0
-59 -65 -68 -71 -73 0
-51 -52 -76 -86 -89 0
-54 -56 -61 -63 -98 0
-60 -65 -69 -71 -73 0
-51 -52 -77 -86 -90 0
-54 -56 -61 -63 -99 0
-60 -65 -69 -71 -73 0
-51 -52 -77 -86 -90 0
-54 -56 -61 -63 -99 0
-58 -66 -67 -71 -74 0
-51 -52 -75 -87 -88 0
-54 -57 -61 -63 -100 0
-58 -66 -67 -71 -74 0
-51 -52 -75 -87 -88 0
-54 -57 -61 -63 -100 0
-59 -66 -68 -71 -74 0
-51 -52 -76 -87 -89 0
-54 -57 -61 -63 -101 0
-59 -66 -68 -71 -74 0
-51 -52 -76 -87 -89 0
-54 -57 -61 -63 -101 0
-60 -66 -69 -71 -74 0
-51 -52 -77 -87 -90 0
-54 -57 -61 -63 -102 0
-60 -66 -69 -71 -74 0
-51 -52 -77 -87 -90 0
-54 -57 -61 -63 -102 0
-59 -67 -68 -71 -75 0
-51 -52 -76 -88 -89 0
-54 -58 -61 -63 -103 0
-59 -67 -68 -71 -75 0
-51 -52 -76 -88 -89 0
-54 -58 -61 -63 -103 0
-60 -67 -69 -71 -75 0
-51 -52 -77 -88 -90 0
-54 -58 -61 -63 -104 0
-60 -67 -69 -71 -75 0
-51 -52 -77 -88 -90 0
-54 -58 -61 -63 -104 0
-60 -68 -69 -71 -76 0
-51 -52 -77 -89 -90 0
-54 -59 -61 -63 -105 0
-60 -68 -69 -71 -76 0
-51 -52 -77 -89 -90 0
-54 -59 -61 -63 -105 0
-57 -65 -66 -72 -73 0
-51 -52 -74 -91 -92 0
-55 -56 -61 -64 -96 0
-57 -65 -66 -72 -73 0
-51 -52 -74 -91 -92 0
-55 -56 -61 -64 -96 0
-58 -65 -67 -72 -73 0
-51 -52 -75 -91 -93 0
-55 -56 -61 -64 -97 0
-58 -65 -67 -72 -73 0
-51 -52 -75 -91 -93 0
-55 -56 -61 -64 -97 0
-59 -65 -68 -72 -73 0
-51 -52 -76 -91 -94 0
-55 -56 -61 -64 -98 0
-59 -65 -68 -72 -73 0
-51 -52 -76 -91 -94 0
-55 -56 -61 -64 -98 0
-60 -65 -69 -72 -73 0
-51 -52 -77 -91 -95 0
-55 -56 -61 -64 -99 0
-60 -65 -69 -72 -73 0
-51 -52 -77 -91 -95 0
-55 -56 -61 -64 -99 0
-58 -66 -67 -72 -74 0
-51 -52 -75 -92 -93 0
-55 -57 -61 -64 -100 0
-58 -66 -67 -72 -74 0
-51 -52 -75 -92 -93 0
-55 -57 -61 -64 -100 0
-59 -66 -68 -72 -74 0
-51 -52 -76 -92 -94 0
-55 -57 -61 -64 -101 0
-59 -66 -68 -72 -74 0
-51 -52 -76 -92 -94 0
-55 -57 -61 -64 -101 0
-60 -66 -69 -72 -74 0
-51 -52 -77 -92 -95 0
-55 -57 -61 -64 -102 0
-60 -66 -69 -72 -74 0
-51 -52 -77 -92 -95 0
-55 -57 -61 -64 -102 0
-59 -67 -68 -72 -75 0
-51 -52 -76 -93 -94 0
-55 -58 -61 -64 -103 0
-59 -67 -68 -72 -75 0
-51 -52 -76 -93 -94 0
-55 -58 -61 -64 -103 0
-60 -67 -69 -72 -75 0
-51 -52 -77 -93 -95 0
-55 -58 -61 -64 -104 0
-60 -67 -69 -72 -75 0
-51 -52 -77 -93 -95 0
-55 -58 -61 -64 -104 0
-60 -68 -69 -72 -76 0
-51 -52 -77 -94 -95 0
-55 -59 -61 -64 -105 0
-60 -68 -69 -72 -76 0
-51 -52 -77 -94 -95 0
-55 -59 -61 -64 -105 0
-58 -66 -67 -73 -74 0
-51 -52 -75 -96 -97 0
-56 -57 -61 -65 -100 0
-58 -66 -67 -73 -74 0
-51 -52 -75 -96 -97 0
-56 -57 -61 -65 -100 0
-59 -66 -68 -73 -74 0
-51 -52 -76 -96 -98 0
-56 -57 -61 -65 -101 0
-59 -66 -68 -73 -74 0
-51 -52 -76 -96 -98 0
-56 -57 -61 -65 -101 0
-60 -66 -69 -73 -74 0
-51 -52 -77 -96 -99 0
-56 -57 -61 -65 -102 0
-60 -66 -69 -73 -74 0
-51 -52 -77 -96 -99 0
-56 -57 -61 -65 -102 0
-59 -67 -68 -73 -75 0
-51 -52 -76 -97 -98 0
-56 -58 -61 -65 -103 0
-59 -67 -68 -73 -75 0
-51 -52 -76 -97 -98 0
-56 -58 -61 -65 -103 0
-60 -67 -69 -73 -75 0
-51 -52 -77 -97 -99 0
-56 -58 -61 -65 -104 0
-60 -67 -69 -73 -75 0
-51 -52 -77 -97 -99 0
-56 -58 -61 -65 -104 0
-60 -68 -69 -73 -76 0
-51 -52 -77 -98 -99 0
-56 -59 -61 -65 -105 0
-60 -68 -69 -73 -76 0
-51 -52 -77 -98 -99 0
-56 -59 -61 -65 -105 0
-59 -67 -68 -74 -75 0
-51 -52 -76 -100 -101 0
-57 -58 -61 -66 -103 0
-59 -67 -68 -74 -75 0
-51 -52 -76 -100 -101 0
-57 -58 -61 -66 -103 0
-60 -67 -69 -74 -75 0
-51 -52 -77 -100 -102 0
-57 -58 -61 -66 -104 0
-60 -67 -69 -74 -75 0
-51 -52 -77 -100 -102 0
-57 -58 -61 -66 -104 0
-60 -68 -69 -74 -76 0
-51 -52 -77 -101 -102 0
-57 -59 -61 -66 -105 0
-60 -68 -69 -74 -76 0
-51 -52 -77 -101 -102 0
-57 -59 -61 -66 -105 0
-60 -68 -69 -75 -76 0
-51 -52 -77 -103 -104 0
-58 -59 -61 -67 -105 0
-60 -68 -69 -75 -76 0
-51 -52 -77 -103 -104 0
-58 -59 -61 -67 -105 0
-56 -64 -65 -78 -79 0
-51 -53 -80 -85 -86 0
-54 -55 -62 -63 -91 0
-56 -64 -65 -78 -79 0
-51 -53 -80 -85 -86 0
-54 -55 -62 -63 -91 0
-57 -64 -66 -78 -79 0
-51 -53 -81 -85 -87 0
-54 -55 -62 -63 -92 0
-57 -64 -66 -78 -79 0
-51 -53 -81 -85 -87 0
-54 -55 -62 -63 -92 0
-58 -64 -67 -78 -79 0
-51 -53 -82 -85 -88 0
-54 -55 -62 -63 -93 0
-58 -64 -67 -78 -79 0
-51 -53 -82 -85 -88 0
-54 -55 -62 -63 -93 0
-59 -64 -68 -78 -79 0
-51 -53 -83 -85 -89 0
-54 -55 -62 -63 -94 0
-59 -64 -68 -78 -79 0
-51 -53 -83 -85 -89 0
-54 -55 -62 -63 -94 0
-60 -64 -69 -78 -79 0
-51 -53 -84 -85 -90 0
-54 -55 -62 -63 -95 0
-60 -64 -69 -78 -79 0
-51 -53 -84 -85 -90 0
-54 -55 -62 -63 -95 0
-57 -65 -66 -78 -80 0
-51 -53 -81 -86 -87 0
-54 -56 -62 -63 -96 0
-57 -65 -66 -78 -80 0
-51 -53 -81 -86 -87 0
-54 -56 -62 -63 -96 0
-58 -65 -67 -78 -80 0
-51 -53 -82 -86 -88 0
-54 -56 -62 -63 -97 0
-58 -65 -67 -78 -80 0
-51 -53 -82 -86 -88 0
-54 -56 -62 -63 -97 0
-59 -65 -68 -78 -80 0
-51 -53 -83 -86 -89 0
-54 -56 -62 -63 -98 0
-59 -65 -68 -78 -80 0
-51 -53 -83 -86 -89 0
-54 -56 -62 -63 -98 0
-60 -65 -69 -78 -80 0
-51 -53 -84 -86 -90 0
-54 -56 -62 -63 -99 0
-60 -65 -69 -78 -80 0
-51 -53 -84 -86 -90 0
-54 -56 -62 -63 -99 0
-58 -66 -67 -78 -81 0
-51 -53 -82 -87 -88 0
-54 -57 -62 -63 -100 0
-58 -66 -67 -78 -81 0
-51 -53 -82 -87 -88 0
-54 -57 -62 -63 -100 0
-59 -66 -68 -78 -81 0
-51 -53 -83 -87 -89 0
-54 -57 -62 -63 -101 0
-59 -66 -68 -78 -81 0
-51 -53 -83 -87 -89 0
-54 -57 -62 -63 -101 0
-60 -66 -69 -78 -81 0
-51 -53 -84 -87 -90 0
-54 -57 -62 -63 -102 0
-60 -66 -69 -78 -81 0
-51 -53 -84 -87 -90 0
-54 -57 -62 -63 -102 0
-59 -67 -68 -78 -82 0
-51 -53 -83 -88 -89 0
-54 -58 -62 -63 -103 0
-59 -67 -68 -78 -82 0
-51 -53 -83 -88 -89 0
-54 -58 -62 -63 -103 0
-60 -67 -69 -78 -82 0
-51 -53 -84 -88 -90 0
-54 -58 -62 -63 -104 0
-60 -67 -69 -78 -82 0
-51 -53 -84 -88 -90 0
-54 -58 -62 -63 -104 0
-60 -68 -69 -78 -83 0
-51 -53 -84 -89 -90 0
-54 -59 -62 -63 -105 0
-60 -68 -69 -78 -83 0
-51 -53 -84 -89 -90 0
-54 -59 -62 -63 -105 0
-57 -65 -66 -79 -80 0
-51 -53 -81 -91 -92 0
-55 -56 -62 -64 -96 0
-57 -65 -66 -79 -80 0
-51 -53 -81 -91 -92 0
-55 -56 -62 -64 -96 0
-58 -65 -67 -79 -80 0
-51 -53 -82 -91 -93 0
-55 -56 -62 -64 -97 0
-58 -65 -67 -79 -80 0
-51 -53 -82 -91 -93 0
-55 -56 -62 -64 -97 0
-59 -65 -68 -79 -80 0
-51 -53 -83 -91 -94 0
-55 -56 -62 -64 -98 0
-59 -65 -68 -79 -80 0
-51 -53 -83 -91 -94 0
-55 -56 -62 -64 -98 0
-60 -65 -69 -79 -80 0
-51 -53 -84 -91 -95 0
-55 -56 -62 -64 -99 0
-60 -65 -69 -79 -80 0
-51 -53 -84 -91 -95 0
-55 -56 -62 -64 -99 0
-58 -66 -67 -79 -81 0
-51 -53 -82 -92 -93 0
-55 -57 -62 -64 -100 0
-58 -66 -67 -79 -81 0
-51 -53 -82 -92 -93 0
-55 -57 -62 -64 -100 0
-59 -66 -68 -79 -81 0
-51 -53 -83 -92 -94 0
-55 -57 -62 -64 -101 0
-59 -66 -68 -79 -81 0
-51 -53 -83 -92 -94 0
-55 -57 -62 -64 -101 0
-60 -66 -69 -79 -81 0
-51 -53 -84 -92 -95 0
-55 -57 -62 -64 -102 0
-60 -66 -69 -79 -81 0
-51 -53 -84 -92 -95 0
-55 -57 -62 -64 -102 0
-59 -67 -68 -79 -82 0
-51 -53 -83 -93 -94 0
-55 -58 -62 -64 -103 0
-59 -67 -68 -79 -82 0
-51 -53 -83 -93 -94 0
-55 -58 -62 -64 -103 0
-60 -67 -69 -79 -82 0
-51 -53 -84 -93 -95 0
-55 -58 -62 -64 -104 0
-60 -67 -69 -79 -82 0
-51 -53 -84 -93 -95 0
-55 -58 -62 -64 -104 0
-60 -68 -69 -79 -83 0
-51 -53 -84 -94 -95 0
-55 -59 -62 -64 -105 0
-60 -68 -69 -79 -83 0
-51 -53 -84 -94 -95 0
-55 -59 -62 -64 -105 0
-58 -66 -67 -80 -81 0
-51 -53 -82 -96 -97 0
-56 -57 -62 -65 -100 0
-58 -66 -67 -80 -81 0
-51 -53 -82 -96 -97 0
-56 -57 -62 -65 -100 0
-59 -66 -68 -80 -81 0
-51 -53 -83 -96 -98 0
-56 -57 -62 -65 -101 0
-59 -66 -68 -80 -81 0
-51 -53 -83 -96 -98 0
-56 -57 -62 -65 -101 0
-60 -66 -69 -80 -81 0
-51 -53 -84 -96 -99 0
-56 -57 -62 -65 -102 0
-60 -66 -69 -80 -81 0
-51 -53 -84 -96 -99 0
-56 -57 -62 -65 -102 0
-59 -67 -68 -80 -82 0
-51 -53 -83 -97 -98 0
-56 -58 -62 -65 -103 0
-59 -67 -68 -80 -82 0
-51 -53 -83 -97 -98 0
-56 -58 -62 -65 -103 0
-60 -67 -69 -80 -82 0
-51 -53 -84 -97 -99 0
-56 -58 -62 -65 -104 0
-60 -67 -69 -80 -82 0
-51 -53 -84 -97 -99 0
-56 -58 -62 -65 -104 0
-60 -68 -69 -80 -83 0
-51 -53 -84 -98 -99 0
-56 -59 -62 -65 -105 0
-60 -68 -69 -80 -83 0
-51 -53 -84 -98 -99 0
-56 -59 -62 -65 -105 0
-59 -67 -68 -81 -82 0
-51 -53 -83 -100 -101 0
-57 -58 -62 -66 -103 0
-59 -67 -68 -81 -82 0
-51 -53 -83 -100 -101 0
-57 -58 -62 -66 -103 0
-60 -67 -69 -81 -82 0
-51 -53 -84 -100 -102 0
-57 -58 -62 -66 -104 0
-60 -67 -69 -81 -82 0
-51 -53 -84 -100 -102 0
-57 -58 -62 -66 -104 0
-60 -68 -69 -81 -83 0
-51 -53 -84 -101 -102 0
-57 -59 -62 -66 -105 0
-60 -68 -69 -81 -83 0
-51 -53 -84 -101 -102 0
-57 -59 -62 -66 -105 0
-60 -68 -69 -82 -83 0
-51 -53 -84 -103 -104 0
-58 -59 -62 -67 -105 0
-60 -68 -69 -82 -83 0
-51 -53 -84 -103 -104 0
-58 -59 -62 -67 -105 0
-57 -65 -66 -85 -86 0
-51 -54 -87 -91 -92 0
-55 -56 -63 -64 -96 0
-57 -65 -66 -85 -86 0
-51 -54 -87 -91 -92 0
-55 -56 -63 -64 -96 0
-58 -65 -67 -85 -86 0
-51 -54 -88 -91 -93 0
-55 -56 -63 -64 -97 0
-58 -65 -67 -85 -86 0
-51 -54 -88 -91 -93 0
-55 -56 -63 -64 -97 0
-59 -65 -68 -85 -86 0
-51 -54 -89 -91 -94 0
-55 -56 -63 -64 -98 0
-59 -65 -68 -85 -86 0
-51 -54 -89 -91 -94 0
-55 -56 -63 -64 -98 0
-60 -65 -69 -85 -86 0
-51 -54 -90 -91 -95 0
-55 -56 -63 -64 -99 0
-60 -65 -69 -85 -86 0
-51 -54 -90 -91 -95 0
-55 -56 -63 -64 -99 0
-58 -66 -67 -85 -87 0
-51 -54 -88 -92 -93 0
-55 -57 -63 -64 -100 0
-58 -66 -67 -85 -87 0
-51 -54 -88 -92 -93 0
-55 -57 -63 -64 -100 0
-59 -66 -68 -85 -87 0
-51 -54 -89 -92 -94 0
-55 -57 -63 -64 -101 0
-59 -66 -68 -85 -87 0
-51 -54 -89 -92 -94 0
-55 -57 -63 -64 -101 0
-60 -66 -69 -85 -87 0
-51 -54 -90 -92 -95 0
-55 -57 -63 -64 -102 0
-60 -66 -69 -85 -87 0
-51 -54 -90 -92 -95 0
-55 -57 -63 -64 -102 0
-59 -67 -68 -85 -88 0
-51 -54 -89 -93 -94 0
-55 -58 -63 -64 -103 0
-59 -67 -68 -85 -88 0
-51 -54 -89 -93 -94 0
-55 -58 -63 -64 -103 0
-60 -67 -69 -85 -88 0
-51 -54 -90 -93 -95 0
-55 -58 -63 -64 -104 0
-60 -67 -69 -85 -88 0
-51 -54 -90 -93 -95 0
-55 -58 -63 -64 -104 0
-60 -68 -69 -85 -89 0
-51 -54 -90 -94 -95 0
-55 -59 -63 -64 -105 0
-60 -68 -69 -85 -89 0
-51 -54 -90 -94 -95 0
-55 -59 -63 -64 -105 0
-58 -66 -67 -86 -87 0
-51 -54 -88 -96 -97 0
-56 -57 -63 -65 -100 0
-58 -66 -67 -86 -87 0
-51 -54 -88 -96 -97 0
-56 -57 -63 -65 -100 0
-59 -66 -68 -86 -87 0
-51 -54 -89 -96 -98 0
-56 -57 -63 -65 -101 0
-59 -66 -68 -86 -87 0
-51 -54 -89 -96 -98 0
-56 -57 -63 -65 -101 0
-60 -66 -69 -86 -87 0
-51 -54 -90 -96 -99 0
-56 -57 -63 -65 -102 0
-60 -66 -69 -86 -87 0
-51 -54 -90 -96 -99 0
-56 -57 -63 -65 -102 0
-59 -67 -68 -86 -88 0
-51 -54 -89 -97 -98 0
-56 -58 -63 -65 -103 0
-59 -67 -68 -86 -88 0
-51 -54 -89 -97 -98 0
-56 -58 -63 -65 -103 0
-60 -67 -69 -86 -88 0
-51 -54 -90 -97 -99 0
-56 -58 -63 -65 -104 0
-60 -67 -69 -86 -88 0
-51 -54 -90 -97 -99 0
-56 -58 -63 -65 -104 0
-60 -68 -69 -86 -89 0
-51 -54 -90 -98 -99 0
-56 -59 -63 -65 -105 0
-60 -68 -69 -86 -89 0
-51 -54 -90 -98 -99 0
-56 -59 -63 -65 -105 0
-59 -67 -68 -87 -88 0
-51 -54 -89 -100 -101 0
-57 -58 -63 -66 -103 0
-59 -67 -68 -87 -88 0
-51 -54 -89 -100 -101 0
-57 -58 -63 -66 -103 0
-60 -67 -69 -87 -88 0
-51 -54 -90 -100 -102 0
-57 -58 -63 -66 -104 0
-60 -67 -69 -87 -88 0
-51 -54 -90 -100 -102 0
-57 -58 -63 -66 -104 0
-60 -68 -69 -87 -89 0
-51 -54 -90 -101 -102 0
-57 -59 -63 -66 -105 0
-60 -68 -69 -87 -89 0
-51 -54 -90 -101 -102 0
-57 -59 -63 -66 -105 0
-60 -68 -69 -88 -89 0
-51 -54 -90 -103 -104 0
-58 -59 -63 -67 -105 0
-60 -68 -69 -88 -89 0
-51 -54 -90 -103 -104 0
-58 -59 -63 -67 -105 0
-58 -66 -67 -91 -92 0
-51 -55 -93 -96 -97 0
-56 -57 -64 -65 -100 0
-58 -66 -67 -91 -92 0
-51 -55 -93 -96 -97 0
-56 -57 -64 -65 -100 0
-59 -66 -68 -91 -92 0
-51 -55 -94 -96 -98 0
-56 -57 -64 -65 -101 0
-59 -66 -68 -91 -92 0
-51 -55 -94 -96 -98 0
-56 -57 -64 -65 -101 0
-60 -66 -69 -91 -92 0
-51 -55 -95 -96 -99 0
-56 -57 -64 -65 -102 0
-60 -66 -69 -91 -92 0
-51 -55 -95 -96 -99 0
-56 -57 -64 -65 -102 0
-59 -67 -68 -91 -93 0
-51 -55 -94 -97 -98 0
-56 -58 -64 -65 -103 0
-59 -67 -68 -91 -93 0
-51 -55 -94 -97 -98 0
-56 -58 -64 -65 -103 0
-60 -67 -69 -91 -93 0
-51 -55 -95 -97 -99 0
-56 -58 -64 -65 -104 0
-60 -67 -69 -91 -93 0
-51 -55 -95 -97 -99 0
-56 -58 -64 -65 -104 0
-60 -68 -69 -91 -94 0
-51 -55 -95 -98 -99 0
-56 -59 -64 -65 -105 0
-60 -68 -69 -91 -94 0
-51 -55 -95 -98 -99 0
-56 -59 -64 -65 -105 0
-59 -67 -68 -92 -93 0
-51 -55 -94 -100 -101 0
-57 -58 -64 -66 -103 0
-59 -67 -68 -92 -93 0
-51 -55 -94 -100 -101 0
-57 -58 -64 -66 -103 0
-60 -67 -69 -92 -93 0
-51 -55 -95 -100 -102 0
-57 -58 -64 -66 -104 0
-60 -67 -69 -92 -93 0
-51 -55 -95 -100 -102 0
-57 -58 -64 -66 -104 0
-60 -68 -69 -92 -94 0
-51 -55 -95 -101 -102 0
-57 -59 -64 -66 -105 0
-60 -68 -69 -92 -94 0
-51 -55 -95 -101 -102 0
-57 -59 -64 -66 -105 0
-60 -68 -69 -93 -94 0
-51 -55 -95 -103 -104 0
-58 -59 -64 -67 -105 0
-60 -68 -69 -93 -94 0
-51 -55 -95 -103 -104 0
-58 -59 -64 -67 -105 0
-59 -67 -68 -96 -97 0
-51 -56 -98 -100 -101 0
-57 -58 -65 -66 -103 0
-59 -67 -68 -96 -97 0
-51 -56 -98 -100 -101 0
-57 -58 -65 -66 -103 0
-60 -67 -69 -96 -97 0
-51 -56 -99 -100 -102 0
-57 -58 -65 -66 -104 0
-60 -67 -69 -96 -97 0
-51 -56 -99 -100 -102 0
-57 -58 -65 -66 -104 0
-60 -68 -69 -96 -98 0
-51 -56 -99 -101 -102 0
-57 -59 -65 -66 -105 0
-60 -68 -69 -96 -98 0
-51 -56 -99 -101 -102 0
-57 -59 -65 -66 -105 0
-60 -68 -69 -97 -98 0
-51 -56 -99 -103 -104 0
-58 -59 -65 -67 -105 0
-60 -68 -69 -97 -98 0
-51 -56 -99 -103 -104 0
-58 -59 -65 -67 -105 0
-60 -68 -69 -100 -101 0
-51 -57 -102 -103 -104 0
-58 -59 -66 -67 -105 0
-60 -68 -69 -100 -101 0
-51 -57 -102 -103 -104 0
-58 -59 -66 -67 -105 0
-56 -72 -73 -78 -79 0
-52 -53 -80 -85 -86 0
-54 -55 -70 -71 -91 0
-56 -72 -73 -78 -79 0
-52 -53 -80 -85 -86 0
-54 -55 -70 -71 -91 0
-57 -72 -74 -78 -79 0
-52 -53 -81 -85 -87 0
-54 -55 -70 -71 -92 0
-57 -72 -74 -78 -79 0
-52 -53 -81 -85 -87 0
-54 -55 -70 -71 -92 0
-58 -72 -75 -78 -79 0
-52 -53 -82 -85 -88 0
-54 -55 -70 -71 -93 0
-58 -72 -75 -78 -79 0
-52 -53 -82 -85 -88 0
-54 -55 -70 -71 -93 0
-59 -72 -76 -78 -79 0
-52 -53 -83 -85 -89 0
-54 -55 -70 -71 -94 0
-59 -72 -76 -78 -79 0
-52 -53 -83 -85 -89 0
-54 -55 -70 -71 -94 0
-60 -72 -77 -78 -79 0
-52 -53 -84 -85 -90 0
-54 -55 -70 -71 -95 0
-60 -72 -77 -78 -79 0
-52 -53 -84 -85 -90 0
-54 -55 -70 -71 -95 0
-57 -73 -74 -78 -80 0
-52 -53 -81 -86 -87 0
-54 -56 -70 -71 -96 0
-57 -73 -74 -78 -80 0
-52 -53 -81 -86 -87 0
-54 -56 -70 -71 -96 0
-58 -73 -75 -78 -80 0
-52 -53 -82 -86 -88 0
-54 -56 -70 -71 -97 0
-58 -73 -75 -78 -80 0
-52 -53 -82 -86 -88 0
-54 -56 -70 -71 -97 0
-59 -73 -76 -78 -80 0
-52 -53 -83 -86 -89 0
-54 -56 -70 -71 -98 0
-59 -73 -76 -78 -80 0
-52 -53 -83 -86 -89 0
-54 -56 -70 -71 -98 0
-60 -73 -77 -78 -80 0
-52 -53 -84 -86 -90 0
-54 -56 -70 -71 -99 0
-60 -73 -77 -78 -80 0
-52 -53 -84 -86 -90 0
-54 -56 -70 -71 -99 0
-58 -74 -75 -78 -81 0
-52 -53 -82 -87 -88 0
-54 -57 -70 -71 -100 0
-58 -74 -75 -78 -81 0
-52 -53 -82 -87 -88 0
-54 -57 -70 -71 -100 0
-59 -74 -76 -78 -81 0
-52 -53 -83 -87 -89 0
-54 -57 -70 -71 -101 0
-59 -74 -76 -78 -81 0
-52 -53 -83 -87 -89 0
-54 -57 -70 -71 -101 0
-60 -74 -77 -78 -81 0
-52 -53 -84 -87 -90 0
-54 -57 -70 -71 -102 0
-60 -74 -77 -78 -81 0
-52 -53 -84 -87 -90 0
-54 -57 -70 -71 -102 0
-59 -75 -76 -78 -82 0
-52 -53 -83 -88 -89 0
-54 -58 -70 -71 -103 0
-59 -75 -76 -78 -82 0
-52 -53 -83 -88 -89 0
-54 -58 -70 -71 -103 0
-60 -75 -77 -78 -82 0
-52 -53 -84 -88 -90 0
-54 -58 -70 -71 -104 0
-60 -75 -77 -78 -82 0
-52 -53 -84 -88 -90 0
-54 -58 -70 -71 -104 0
-60 -76 -77 -78 -83 0
-52 -53 -84 -89 -90 0
-54 -59 -70 -71 -105 0
-60 -76 -77 -78 -83 0
-52 -53 -84 -89 -90 0
-54 -59 -70 -71 -105 0
-57 -73 -74 -79 -80 0
-52 -53 -81 -91 -92 0
-55 -56 -70 -72 -96 0
-57 -73 -74 -79 -80 0
-52 -53 -81 -91 -92 0
-55 -56 -70 -72 -96 0
-58 -73 -75 -79 -80 0
-52 -53 -82 -91 -93 0
-55 -56 -70 -72 -97 0
-58 -73 -75 -79 -80 0
-52 -53 -82 -91 -93 0
-55 -56 -70 -72 -97 0
-59 -73 -76 -79 -80 0
-52 -53 -83 -91 -94 0
-55 -56 -70 -72 -98 0
-59 -73 -76 -79 -80 0
-52 -53 -83 -91 -94 0
-55 -56 -70 -72 -98 0
-60 -73 -77 -79 -80 0
-52 -53 -84 -91 -95 0
-55 -56 -70 -72 -99 0
-60 -73 -77 -79 -80 0
-52 -53 -84 -91 -95 0
-55 -56 -70 -72 -99 0
-58 -74 -75 -79 -81 0
-52 -53 -82 -92 -93 0
-55 -57 -70 -72 -100 0
-58 -74 -75 -79 -81 0
-52 -53 -82 -92 -93 0
-55 -57 -70 -72 -100 0
-59 -74 -76 -79 -81 0
-52 -53 -83 -92 -94 0
-55 -57 -70 -72 -101 0
-59 -74 -76 -79 -81 0
-52 -53 -83 -92 -94 0
-55 -57 -70 -72 -101 0
-60 -74 -77 -79 -81 0
-52 -53 -84 -92 -95 0
-55 -57 -70 -72 -102 0
-60 -74 -77 -79 -81 0
-52 -53 -84 -92 -95 0
-55 -57 -70 -72 -102 0
-59 -75 -76 -79 -82 0
-52 -53 -83 -93 -94 0
-55 -58 -70 -72 -103 0
-59 -75 -76 -79 -82 0
-52 -53 -83 -93 -94 0
-55 -58 -70 -72 -103 0
-60 -75 -77 -79 -82 0
-52 -53 -84 -93 -95 0
-55 -58 -70 -72 -104 0
-60 -75 -77 -79 -82 0
-52 -53 -84 -93 -95 0
-55 -58 -70 -72 -104 0
-60 -76 -77 -79 -83 0
-52 -53 -84 -94 -95 0
-55 -59 -70 -72 -105 0
-60 -76 -77 -79 -83 0
-52 -53 -84 -94 -95 0
-55 -59 -70 -72 -105 0
-58 -74 -75 -80 -81 0
-52 -53 -82 -96 -97 0
-56 -57 -70 -73 -100 0
-58 -74 -75 -80 -81 0
-52 -53 -82 -96 -97 0
-56 -57 -70 -73 -100 0
-59 -74 -76 -80 -81 0
-52 -53 -83 -96 -98 0
-56 -57 -70 -73 -101 0
-59 -74 -76 -80 -81 0
-52 -53 -83 -96 -98 0
-56 -57 -70 -73 -101 0
-60 -74 -77 -80 -81 0
-52 -53 -84 -96 -99 0
-56 -57 -70 -73 -102 0
-60 -74 -77 -80 -81 0
-52 -53 -84 -96 -99 0
-56 -57 -70 -73 -102 0
-59 -75 -76 -80 -82 0
-52 -53 -83 -97 -98 0
-56 -58 -70 -73 -103 0
-59 -75 -76 -80 -82 0
-52 -53 -83 -97 -98 0
-56 -58 -70 -73 -103 0
-60 -75 -77 -80 -82 0
-52 -53 -84 -97 -99 0
-56 -58 -70 -73 -104 0
-60 -75 -77 -80 -82 0
-52 -53 -84 -97 -99 0
-56 -58 -70 -73 -104 0
-60 -76 -77 -80 -83 0
-52 -53 -84 -98 -99 0
-56 -59 -70 -73 -105 0
-60 -76 -77 -80 -83 0
-52 -53 -84 -98 -99 0
-56 -59 -70 -73 -105 0
-59 -75 -76 -81 -82 0
-52 -53 -83 -100 -101 0
-57 -58 -70 -74 -103 0
-59 -75 -76 -81 -82 0
-52 -53 -83 -100 -101 0
-57 -58 -70 -74 -103 0
-60 -75 -77 -81 -82 0
-52 -53 -84 -100 -102 0
-57 -58 -70 -74 -104 0
-60 -75 -77 -81 -82 0
-52 -53 -84 -100 -102 0
-57 -58 -70 -74 -104 0
-60 -76 -77 -81 -83 0
-52 -53 -84 -101 -102 0
-57 -59 -70 -74 -105 0
-60 -76 -77 -81 -83 0
-52 -53 -84 -101 -102 0
-57 -59 -70 -74 -105 0
-60 -76 -77 -82 -83 0
-52 -53 -84 -103 -104 0
-58 -59 -70 -75 -105 0
-60 -76 -77 -82 -83 0
-52 -53 -84 -103 -104 0
-58 -59 -70 -75 -105 0
-57 -73 -74 -85 -86 0
-52 -54 -87 -91 -92 0
-55 -56 -71 -72 -96 0
-57 -73 -74 -85 -86 0
-52 -54 -87 -91 -92 0
-55 -56 -71 -72 -96 0
-58 -73 -75 -85 -86 0
-52 -54 -88 -91 -93 0
-55 -56 -71 -72 -97 0
-58 -73 -75 -85 -86 0
-52 -54 -88 -91 -93 0
-55 -56 -71 -72 -97 0
-59 -73 -76 -85 -86 0
-52 -54 -89 -91 -94 0
-55 -56 -71 -72 -98 0
-59 -73 -76 -85 -86 0
-52 -54 -89 -91 -94 0
-55 -56 -71 -72 -98 0
-60 -73 -77 -85 -86 0
-52 -54 -90 -91 -95 0
-55 -56 -71 -72 -99 0
-60 -73 -77 -85 -86 0
-52 -54 -90 -91 -95 0
-55 -56 -71 -72 -99 0
-58 -74 -75 -85 -87 0
-52 -54 -88 -92 -93 0
-55 -57 -71 -72 -100 0
-58 -74 -75 -85 -87 0
-52 -54 -88 -92 -93 0
-55 -57 -71 -72 -100 0
-59 -74 -76 -85 -87 0
-52 -54 -89 -92 -94 0
-55 -57 -71 -72 -101 0
-59 -74 -76 -85 -87 0
-52 -54 -89 -92 -94 0
-55 -57 -71 -72 -101 0
-60 -74 -77 -85 -87 0
-52 -54 -90 -92 -95 0
-55 -57 -71 -72 -102 0
-60 -74 -77 -85 -87 0
-52 -54 -90 -92 -95 0
-55 -57 -71 -72 -102 0
-59 -75 -76 -85 -88 0
-52 -54 -89 -93 -94 0
-55 -58 -71 -72 -103 0
-59 -75 -76 -85 -88 0
-52 -54 -89 -93 -94 0
-55 -58 -71 -72 -103 0
-60 -75 -77 -85 -88 0
-52 -54 -90 -93 -95 0
-55 -58 -71 -72 -104 0
-60 -75 -77 -85 -88 0
-52 -54 -90 -93 -95 0
-55 -58 -71 -72 -104 0
-60 -76 -77 -85 -89 0
-52 -54 -90 -94 -95 0
-55 -59 -71 -72 -105 0
-60 -76 -77 -85 -89 0
-52 -54 -90 -94 -95 0
-55 -59 -71 -72 -105 0
-58 -74 -75 -86 -87 0
-52 -54 -88 -96 -97 0
-56 -57 -71 -73 -100 0
-58 -74 -75 -86 -87 0
-52 -54 -88 -96 -97 0
-56 -57 -71 -73 -100 0
-59 -74 -76 -86 -87 0
-52 -54 -89 -96 -98 0
-56 -57 -71 -73 -101 0
-59 -74 -76 -86 -87 0
-52 -54 -89 -96 -98 0
-56 -57 -71 -73 -101 0
-60 -74 -77 -86 -87 0
-52 -54 -90 -96 -99 0
-56 -57 -71 -73 -102 0
-60 -74 -77 -86 -87 0
-52 -54 -90 -96 -99 0
-56 -57 -71 -73 -102 0
-59 -75 -76 -86 -88 0
-52 -54 -89 -97 -98 0
-56 -58 -71 -73 -103 0
-59 -75 -76 -86 -88 0
-52 -54 -89 -97 -98 0
-56 -58 -71 -73 -103 0
-60 -75 -77 -86 -88 0
-52 -54 -90 -97 -99 0
-56 -58 -71 -73 -104 0
-60 -75 -77 -86 -88 0
-52 -54 -90 -97 -99 0
-56 -58 -71 -73 -104 0
-60 -76 -77 -86 -89 0
-52 -54 -90 -98 -99 0
-56 -59 -71 -73 -105 0
-60 -76 -77 -86 -89 0
-52 -54 -90 -98 -99 0
-56 -59 -71 -73 -105 0
-59 -75 -76 -87 -88 0
-52 -54 -89 -100 -101 0
-57 -58 -71 -74 -103 0
-59 -75 -76 -87 -88 0
-52 -54 -89 -100 -101 0
-57 -58 -71 -74 -103 0
-60 -75 -77 -87 -88 0
-52 -54 -90 -100 -102 0
-57 -58 -71 -74 -104 0
-60 -75 -77 -87 -88 0
-52 -54 -90 -100 -102 0
-57 -58 -71 -74 -104 0
-60 -76 -77 -87 -89 0
-52 -54 -90 -101 -102 0
-57 -59 -71 -74 -105 0
-60 -76 -77 -87 -89 0
-52 -54 -90 -101 -102 0
-57 -59 -71 -74 -105 0
-60 -76 -77 -88 -89 0
-52 -54 -90 -103 -104 0
-58 -59 -71 -75 -105 0
-60 -76 -77 -88 -89 0
-52 -54 -90 -103 -104 0
-58 -59 -71 -75 -105 0
-58 -74 -75 -91 -92 0
-52 -55 -93 -96 -97 0
-56 -57 -72 -73 -100 0
-58 -74 -75 -91 -92 0
-52 -55 -93 -96 -97 0
-56 -57 -72 -73 -100 0
-59 -74 -76 -91 -92 0
-52 -55 -94 -96 -98 0
-56 -57 -72 -73 -101 0
-59 -74 -76 -91 -92 0
-52 -55 -94 -96 -98 0
-56 -57 -72 -73 -101 0
-60 -74 -77 -91 -92 0
-52 -55 -95 -96 -99 0
-56 -57 -72 -73 -102 0
-60 -74 -77 -91 -92 0
-52 -55 -95 -96 -99 0
-56 -57 -72 -73 -102 0
-59 -75 -76 -91 -93 0
-52 -55 -94 -97 -98 0
-56 -58 -72 -73 -103 0
-59 -75 -76 -91 -93 0
-52 -55 -94 -97 -98 0
-56 -58 -72 -73 -103 0
-60 -75 -77 -91 -93 0
-52 -55 -95 -97 -99 0
-56 -58 -72 -73 -104 0
-60 -75 -77 -91 -93 0
-52 -55 -95 -97 -99 0
-56 -58 -72 -73 -104 0
-60 -76 -77 -91 -94 0
-52 -55 -95 -98 -99 0
-56 -59 -72 -73 -105 0
-60 -76 -77 -91 -94 0
-52 -55 -95 -98 -99 0
-56 -59 -72 -73 -105 0
-59 -75 -76 -92 -93 0
-52 -55 -94 -100 -101 0
-57 -58 -72 -74 -103 0
-59 -75 -76 -92 -93 0
-52 -55 -94 -100 -101 0
-57 -58 -72 -74 -103 0
-60 -75 -77 -92 -93 0
-52 -55 -95 -100 -102 0
-57 -58 -72 -74 -104 0
-60 -75 -77 -92 -93 0
-52 -55 -95 -100 -102 0
-57 -58 -72 -74 -104 0
-60 -76 -77 -92 -94 0
-52 -55 -95 -101 -102 0
-57 -59 -72 -74 -105 0
-60 -76 -77 -92 -94 0
-52 -55 -95 -101 -102 0
-57 -59 -72 -74 -105 0
-60 -76 -77 -93 -94 0
-52 -55 -95 -103 -104 0
-58 -59 -72 -75 -105 0
-60 -76 -77 -93 -94 0
-52 -55 -95 -103 -104 0
-58 -59 -72 -75 -105 0
-59 -75 -76 -96 -97 0
-52 -56 -98 -100 -101 0
-57 -58 -73 -74 -103 0
-59 -75 -76 -96 -97 0
-52 -56 -98 -100 -101 0
-57 -58 -73 -74 -103 0
-60 -75 -77 -96 -97 0
-52 -56 -99 -100 -102 0
-57 -58 -73 -74 -104 0
-60 -75 -77 -96 -97 0
-52 -56 -99 -100 -102 0
-57 -58 -73 -74 -104 0
-60 -76 -77 -96 -98 0
-52 -56 -99 -101 -102 0
-57 -59 -73 -74 -105 0
-60 -76 -77 -96 -98 0
-52 -56 -99 -101 -102 0
-57 -59 -73 -74 -105 0
-60 -76 -77 -97 -98 0
-52 -56 -99 -103 -104 0
-58 -59 -73 -75 -105 0
-60 -76 -77 -97 -98 0
-52 -56 -99 -103 -104 0
-58 -59 -73 -75 -105 0
-60 -76 -77 -100 -101 0
-52 -57 -102 -103 -104 0
-58 -59 -74 -75 -105 0
-60 -76 -77 -100 -101 0
-52 -57 -102 -103 -104 0
-58 -59 -74 -75 -105 0
-57 -80 -81 -85 -86 0
-53 -54 -87 -91 -92 0
-55 -56 -78 -79 -96 0
-57 -80 -81 -85 -86 0
-53 -54 -87 -91 -92 0
-55 -56 -78 -79 -96 0
-58 -80 -82 -85 -86 0
-53 -54 -88 -91 -93 0
-55 -56 -78 -79 -97 0
-58 -80 -82 -85 -86 0
-53 -54 -88 -91 -93 0
-55 -56 -78 -79 -97 0
-59 -80 -83 -85 -86 0
-53 -54 -89 -91 -94 0
-55 -56 -78 -79 -98 0
-59 -80 -83 -85 -86 0
-53 -54 -89 -91 -94 0
-55 -56 -78 -79 -98 0
-60 -80 -84 -85 -86 0
-53 -54 -90 -91 -95 0
-55 -56 -78 -79 -99 0
-60 -80 -84 -85 -86 0
-53 -54 -90 -91 -95 0
-55 -56 -78 -79 -99 0
-58 -81 -82 -85 -87 0
-53 -54 -88 -92 -93 0
-55 -57 -78 -79 -100 0
-58 -81 -82 -85 -87 0
-53 -54 -88 -92 -93 0
-55 -57 -78 -79 -100 0
-59 -81 -83 -85 -87 0
-53 -54 -89 -92 -94 0
-55 -57 -78 -79 -101 0
-59 -81 -83 -85 -87 0
-53 -54 -89 -92 -94 0
-55 -57 -78 -79 -101 0
-60 -81 -84 -85 -87 0
-53 -54 -90 -92 -95 0
-55 -57 -78 -79 -102 0
-60 -81 -84 -85 -87 0
-53 -54 -90 -92 -95 0
-55 -57 -78 -79 -102 0
-59 -82 -83 -85 -88 0
-53 -54 -89 -93 -94 0
-55 -58 -78 -79 -103 0
-59 -82 -83 -85 -88 0
-53 -54 -89 -93 -94 0
-55 -58 -78 -79 -103 0
-60 -82 -84 -85 -88 0
-53 -54 -90 -93 -95 0
-55 -58 -78 -79 -104 0
-60 -82 -84 -85 -88 0
-53 -54 -90 -93 -95 0
-55 -58 -78 -79 -104 0
-60 -83 -84 -85 -89 0
-53 -54 -90 -94 -95 0
-55 -59 -78 -79 -105 0
-60 -83 -84 -85 -89 0
-53 -54 -90 -94 -95 0
-55 -59 -78 -79 -105 0
-58 -81 -82 -86 -87 0
-53 -54 -88 -96 -97 0
-56 -57 -78 -80 -100 0
-58 -81 -82 -86 -87 0
-53 -54 -88 -96 -97 0
-56 -57 -78 -80 -100 0
-59 -81 -83 -86 -87 0
-53 -54 -89 -96 -98 0
-56 -57 -78 -80 -101 0
-59 -81 -83 -86 -87 0
-53 -54 -89 -96 -98 0
-56 -57 -78 -80 -101 0
-60 -81 -84 -86 -87 0
-53 -54 -90 -96 -99 0
-56 -57 -78 -80 -102 0
-60 -81 -84 -86 -87 0
-53 -54 -90 -96 -99 0
-56 -57 -78 -80 -102 0
-59 -82 -83 -86 -88 0
-53 -54 -89 -97 -98 0
-56 -58 -78 -80 -103 0
-59 -82 -83 -86 -88 0
-53 -54 -89 -97 -98 0
-56 -58 -78 -80 -103 0
-60 -82 -84 -86 -88 0
-53 -54 -90 -97 -99 0
-56 -58 -78 -80 -104 0
-60 -82 -84 -86 -88 0
-53 -54 -90 -97 -99 0
-56 -58 -78 -80 -104 0
-60 -83 -84 -86 -89 0
-53 -54 -90 -98 -99 0
-56 -59 -78 -80 -105 0
-60 -83 -84 -86 -89 0
-53 -54 -90 -98 -99 0
-56 -59 -78 -80 -105 0
-59 -82 -83 -87 -88 0
-53 -54 -89 -100 -101 0
-57 -58 -78 -81 -103 0
-59 -82 -83 -87 -88 0
-53 -54 -89 -100 -101 0
-57 -58 -78 -81 -103 0
-60 -82 -84 -87 -88 0
-53 -54 -90 -100 -102 0
-57 -58 -78 -81 -104 0
-60 -82 -84 -87 -88 0
-53 -54 -90 -100 -102 0
-57 -58 -78 -81 -104 0
-60 -83 -84 -87 -89 0
-53 -54 -90 -101 -102 0
-57 -59 -78 -81 -105 0
-60 -83 -84 -87 -89 0
-53 -54 -90 -101 -102 0
-57 -59 -78 -81 -105 0
-60 -83 -84 -88 -89 0
-53 -54 -90 -103 -104 0
-58 -59 -78 -82 -105 0
-60 -83 -84 -88 -89 0
-53 -54 -90 -103 -104 0
-58 -59 -78 -82 -105 0
-58 -81 -82 -91 -92 0
-53 -55 -93 -96 -97 0
-56 -57 -79 -80 -100 0
-58 -81 -82 -91 -92 0
-53 -55 -93 -96 -97 0
-56 -57 -79 -80 -100 0
-59 -81 -83 -91 -92 0
-53 -55 -94 -96 -98 0
-56 -57 -79 -80 -101 0
-59 -81 -83 -91 -92 0
-53 -55 -94 -96 -98 0
-56 -57 -79 -80 -101 0
-60 -81 -84 -91 -92 0
-53 -55 -95 -96 -99 0
-56 -57 -79 -80 -102 0
-60 -81 -84 -91 -92 0
-53 -55 -95 -96 -99 0
-56 -57 -79 -80 -102 0
-59 -82 -83 -91 -93 0
-53 -55 -94 -97 -98 0
-56 -58 -79 -80 -103 0
-59 -82 -83 -91 -93 0
-53 -55 -94 -97 -98 0
-56 -58 -79 -80 -103 0
-60 -82 -84 -91 -93 0
-53 -55 -95 -97 -99 0
-56 -58 -79 -80 -104 0
-60 -82 -84 -91 -93 0
-53 -55 -95 -97 -99 0
-56 -58 -79 -80 -104 0
-60 -83 -84 -91 -94 0
-53 -55 -95 -98 -99 0
-56 -59 -79 -80 -105 0
-60 -83 -84 -91 -94 0
-53 -55 -95 -98 -99 0
-56 -59 -79 -80 -105 0
-59 -82 -83 -92 -93 0
-53 -55 -94 -100 -101 0
-57 -58 -79 -81 -103 0
-59 -82 -83 -92 -93 0
-53 -55 -94 -100 -101 0
-57 -58 -79 -81 -103 0
-60 -82 -84 -92 -93 0
-53 -55 -95 -100 -102 0
-57 -58 -79 -81 -104 0
-60 -82 -84 -92 -93 0
-53 -55 -95 -100 -102 0
-57 -58 -79 -81 -104 0
-60 -83 -84 -92 -94 0
-53 -55 -95 -101 -102 0
-57 -59 -79 -81 -105 0
-60 -83 -84 -92 -94 0
-53 -55 -95 -101 -102 0
-57 -59 -79 -81 -105 0
-60 -83 -84 -93 -94 0
-53 -55 -95 -103 -104 0
-58 -59 -79 -82 -105 0
-60 -83 -84 -93 -94 0
-53 -55 -95 -103 -104 0
-58 -59 -79 -82 -105 0
-59 -82 -83 -96 -97 0
-53 -56 -98 -100 -101 0
-57 -58 -80 -81 -103 0
-59 -82 -83 -96 -97 0
-53 -56 -98 -100 -101 0
-57 -58 -80 -81 -103 0
-60 -82 -84 -96 -97 0
-53 -56 -99 -100 -102 0
-57 -58 -80 -81 -104 0
-60 -82 -84 -96 -97 0
-53 -56 -99 -100 -102 0
-57 -58 -80 -81 -104 0
-60 -83 -84 -96 -98 0
-53 -56 -99 -101 -102 0
-57 -59 -80 -81 -105 0
-60 -83 -84 -96 -98 0
-53 -56 -99 -101 -102 0
-57 -59 -80 -81 -105 0
-60 -83 -84 -97 -98 0
-53 -56 -99 -103 -104 0
-58 -59 -80 -82 -105 0
-60 -83 -84 -97 -98 0
-53 -56 -99 -103 -104 0
-58 -59 -80 -82 -105 0
-60 -83 -84 -100 -101 0
-53 -57 -102 -103 -104 0
-58 -59 -81 -82 -105 0
-60 -83 -84 -100 -101 0
-53 -57 -102 -103 -104 0
-58 -59 -81 -82 -105 0
-58 -87 -88 -91 -92 0
-54 -55 -93 -96 -97 0
-56 -57 -85 -86 -100 0
-58 -87 -88 -91 -92 0
-54 -55 -93 -96 -97 0
-56 -57 -85 -86 -100 0
-59 -87 -89 -91 -92 0
-54 -55 -94 -96 -98 0
-56 -57 -85 -86 -101 0
-59 -87 -89 -91 -92 0
-54 -55 -94 -96 -98 0
-56 -57 -85 -86 -101 0
-60 -87 -90 -91 -92 0
-54 -55 -95 -96 -99 0
-56 -57 -85 -86 -102 0
-60 -87 -90 -91 -92 0
-54 -55 -95 -96 -99 0
-56 -57 -85 -86 -102 0
-59 -88 -89 -91 -93 0
-54 -55 -94 -97 -98 0
-56 -58 -85 -86 -103 0
-59 -88 -89 -91 -93 0
-54 -55 -94 -97 -98 0
-56 -58 -85 -86 -103 0
-60 -88 -90 -91 -93 0
-54 -55 -95 -97 -99 0
-56 -58 -85 -86 -104 0
-60 -88 -90 -91 -93 0
-54 -55 -95 -97 -99 0
-56 -58 -85 -86 -104 0
-60 -89 -90 -91 -94 0
-54 -55 -95 -98 -99 0
-56 -59 -85 -86 -105 0
-60 -89 -90 -91 -94 0
-54 -55 -95 -98 -99 0
-56 -59 -85 -86 -105 0
-59 -88 -89 -92 -93 0
-54 -55 -94 -100 -101 0
-57 -58 -85 -87 -103 0
-59 -88 -89 -92 -93 0
-54 -55 -94 -100 -101 0
-57 -58 -85 -87 -103 0
-60 -88 -90 -92 -93 0
-54 -55 -95 -100 -102 0
-57 -58 -85 -87 -104 0
-60 -88 -90 -92 -93 0
-54 -55 -95 -100 -102 0
-57 -58 -85 -87 -104 0
-60 -89 -90 -92 -94 0
-54 -55 -95 -101 -102 0
-57 -59 -85 -87 -105 0
-60 -89 -90 -92 -94 0
-54 -55 -95 -101 -102 0
-57 -59 -85 -87 -105 0
-60 -89 -90 -93 -94 0
-54 -55 -95 -103 -104 0
-58 -59 -85 -88 -105 0
-60 -89 -90 -93 -94 0
-54 -55 -95 -103 -104 0
-58 -59 -85 -88 -105 0
-59 -88 -89 -96 -97 0
-54 -56 -98 -100 -101 0
-57 -58 -86 -87 -103 0
-59 -88 -89 -96 -97 0
-54 -56 -98 -100 -101 0
-57 -58 -86 -87 -103 0
-60 -88 -90 -96 -97 0
-54 -56 -99 -100 -102 0
-57 -58 -86 -87 -104 0
-60 -88 -90 -96 -97 0
-54 -56 -99 -100 -102 0
-57 -58 -86 -87 -104 0
-60 -89 -90 -96 -98 0
-54 -56 -99 -101 -102 0
-57 -59 -86 -87 -105 0
-60 -89 -90 -96 -98 0
-54 -56 -99 -101 -102 0
-57 -59 -86 -87 -105 0
-60 -89 -90 -97 -98 0
-54 -56 -99 -103 -104 0
-58 -59 -86 -88 -105 0
-60 -89 -90 -97 -98 0
-54 -56 -99 -103 -104 0
-58 -59 -86 -88 -105 0
-60 -89 -90 -100 -101 0
-54 -57 -102 -103 -104 0
-58 -59 -87 -88 -105 0
-60 -89 -90 -100 -101 0
-54 -57 -102 -103 -104 0
-58 -59 -87 -88 -105 0
-59 -93 -94 -96 -97 0
-55 -56 -98 -100 -101 0
-57 -58 -91 -92 -103 0
-59 -93 -94 -96 -97 0
-55 -56 -98 -100 -101 0
-57 -58 -91 -92 -103 0
-60 -93 -95 -96 -97 0
-55 -56 -99 -100 -102 0
-57 -58 -91 -92 -104 0
-60 -93 -95 -96 -97 0
-55 -56 -99 -100 -102 0
-57 -58 -91 -92 -104 0
-60 -94 -95 -96 -98 0
-55 -56 -99 -101 -102 0
-57 -59 -91 -92 -105 0
-60 -94 -95 -96 -98 0
-55 -56 -99 -101 -102 0
-57 -59 -91 -92 -105 0
-60 -94 -95 -97 -98 0
-55 -56 -99 -103 -104 0
-58 -59 -91 -93 -105 0
-60 -94 -95 -97 -98 0
-55 -56 -99 -103 -104 0
-58 -59 -91 -93 -105 0
-60 -94 -95 -100 -101 0
-55 -57 -102 -103 -104 0
-58 -59 -92 -93 -105 0
-60 -94 -95 -100 -101 0
-55 -57 -102 -103 -104 0
-58 -59 -92 -93 -105 0
-60 -98 -99 -100 -101 0
-56 -57 -102 -103 -104 0
-58 -59 -96 -97 -105 0
-60 -98 -99 -100 -101 0
-56 -57 -102 -103 -104 0
-58 -59 -96 -97 -105 0
-65 -72 -73 -78 -79 0
-61 -62 -80 -85 -86 0
-63 -64 -70 -71 -91 0
-65 -72 -73 -78 -79 0
-61 -62 -80 -85 -86 0
-63 -64 -70 -71 -91 0
-66 -72 -74 -78 -79 0
-61 -62 -81 -85 -87 0
-63 -64 -70 -71 -92 0
-66 -72 -74 -78 -79 0
-61 -62 -81 -85 -87 0
-63 -64 -70 -71 -92 0
-67 -72 -75 -78 -79 0
-61 -62 -82 -85 -88 0
-63 -64 -70 -71 -93 0
-67 -72 -75 -78 -79 0
-61 -62 -82 -85 -88 0
-63 -64 -70 -71 -93 0
-68 -72 -76 -78 -79 0
-61 -62 -83 -85 -89 0
-63 -64 -70 -71 -94 0
-68 -72 -76 -78 -79 0
-61 -62 -83 -85 -89 0
-63 -64 -70 -71 -94 0
-69 -72 -77 -78 -79 0
-61 -62 -84 -85 -90 0
-63 -64 -70 -71 -95 0
-69 -72 -77 -78 -79 0
-61 -62 -84 -85 -90 0
-63 -64 -70 -71 -95 0
-66 -73 -74 -78 -80 0
-61 -62 -81 -86 -87 0
-63 -65 -70 -71 -96 0
-66 -73 -74 -78 -80 0
-61 -62 -81 -86 -87 0
-63 -65 -70 -71 -96 0
-67 -73 -75 -78 -80 0
-61 -62 -82 -86 -88 0
-63 -65 -70 -71 -97 0
-67 -73 -75 -78 -80 0
-61 -62 -82 -86 -88 0
-63 -65 -70 -71 -97 0
-68 -73 -76 -78 -80 0
-61 -62 -83 -86 -89 0
-63 -65 -70 -71 -98 0
-68 -73 -76 -78 -80 0
-61 -62 -83 -86 -89 0
-63 -65 -70 -71 -98 0
-69 -73 -77 -78 -80 0
-61 -62 -84 -86 -90 0
-63 -65 -70 -71 -99 0
-69 -73 -77 -78 -80 0
-61 -62 -84 -86 -90 0
-63 -65 -70 -71 -99 0
-67 -74 -75 -78 -81 0
-61 -62 -82 -87 -88 0
-63 -66 -70 -71 -100 0
-67 -74 -75 -78 -81 0
-61 -62 -82 -87 -88 0
-63 -66 -70 -71 -100 0
-68 -74 -76 -78 -81 0
-61 -62 -83 -87 -89 0
-63 -66 -70 -71 -101 0
-68 -74 -76 -78 -81 0
-61 -62 -83 -87 -89 0
-63 -66 -70 -71 -101 0
-69 -74 -77 -78 -81 0
-61 -62 -84 -87 -90 0
-63 -66 -70 -71 -102 0
-69 -74 -77 -78 -81 0
-61 -62 -84 -87 -90 0
-63 -66 -70 -71 -102 0
-68 -75 -76 -78 -82 0
-61 -62 -83 -88 -89 0
-63 -67 -70 -71 -103 0
-68 -75 -76 -78 -82 0
-61 -62 -83 -88 -89 0
-63 -67 -70 -71 -103 0
-69 -75 -77 -78 -82 0
-61 -62 -84 -88 -90 0
-63 -67 -70 -71 -104 0
-69 -75 -77 -78 -82 0
-61 -62 -84 -88 -90 0
-63 -67 -70 -71 -104 0
-69 -76 -77 -78 -83 0
-61 -62 -84 -89 -90 0
-63 -68 -70 -71 -105 0
-69 -76 -77 -78 -83 0
-61 -62 -84 -89 -90 0
-63 -68 -70 -71 -105 0
-66 -73 -74 -79 -80 0
-61 -62 -81 -91 -92 0
-64 -65 -70 -72 -96 0
-66 -73 -74 -79 -80 0
-61 -62 -81 -91 -92 0
-64 -65 -70 -72 -96 0
-67 -73 -75 -79 -80 0
-61 -62 -82 -91 -93 0
-64 -65 -70 -72 -97 0
-67 -73 -75 -79 -80 0
-61 -62 -82 -91 -93 0
-64 -65 -70 -72 -97 0
-68 -73 -76 -79 -80 0
-61 -62 -83 -91 -94 0
-64 -65 -70 -72 -98 0
-68 -73 -76 -79 -80 0
-61 -62 -83 -91 -94 0
-64 -65 -70 -72 -98 0
-69 -73 -77 -79 -80 0
-61 -62 -84 -91 -95 0
-64 -65 -70 -72 -99 0
-69 -73 -77 -79 -80 0
-61 -62 -84 -91 -95 0
-64 -65 -70 -72 -99 0
-67 -74 -75 -79 -81 0
-61 -62 -82 -92 -93 0
-64 -66 -70 -72 -100 0
-67 -74 -75 -79 -81 0
-61 -62 -82 -92 -93 0
-64 -66 -70 -72 -100 0
-68 -74 -76 -79 -81 0
-61 -62 -83 -92 -94 0
-64 -66 -70 -72 -101 0
-68 -74 -76 -79 -81 0
-61 -62 -83 -92 -94 0
-64 -66 -70 -72 -101 0
-69 -74 -77 -79 -81 0
-61 -62 -84 -92 -95 0
-64 -66 -70 -72 -102 0
-69 -74 -77 -79 -81 0
-61 -62 -84 -92 -95 0
-64 -66 -70 -72 -102 0
-68 -75 -76 -79 -82 0
-61 -62 -83 -93 -94 0
-64 -67 -70 -72 -103 0
-68 -75 -76 -79 -82 0
-61 -62 -83 -93 -94 0
-64 -67 -70 -72 -103 0
-69 -75 -77 -79 -82 0
-61 -62 -84 -93 -95 0
-64 -67 -70 -72 -104 0
-69 -75 -77 -79 -82 0
-61 -62 -84 -93 -95 0
-64 -67 -70 -72 -104 0
-69 -76 -77 -79 -83 0
-61 -62 -84 -94 -95 0
-64 -68 -70 -72 -105 0
-69 -76 -77 -79 -83 0
-61 -62 -84 -94 -95 0
-64 -68 -70 -72 -105 0
-67 -74 -75 -80 -81 0
-61 -62 -82 -96 -97 0
-65 -66 -70 -73 -100 0
-67 -74 -75 -80 -81 0
-61 -62 -82 -96 -97 0
-65 -66 -70 -73 -100 0
-68 -74 -76 -80 -81 0
-61 -62 -83 -96 -98 0
-65 -66 -70 -73 -101 0
-68 -74 -76 -80 -81 0
-61 -62 -83 -96 -98 0
-65 -66 -70 -73 -101 0
-69 -74 -77 -80 -81 0
-61 -62 -84 -96 -99 0
-65 -66 -70 -73 -102 0
-69 -74 -77 -80 -81 0
-61 -62 -84 -96 -99 0
-65 -66 -70 -73 -102 0
-68 -75 -76 -80 -82 0
-61 -62 -83 -97 -98 0
-65 -67 -70 -73 -103 0
-68 -75 -76 -80 -82 0
-61 -62 -83 -97 -98 0
-65 -67 -70 -73 -103 0
-69 -75 -77 -80 -82 0
-61 -62 -84 -97 -99 0
-65 -67 -70 -73 -104 0
-69 -75 -77 -80 -82 0
-61 -62 -84 -97 -99 0
-65 -67 -70 -73 -104 0
-69 -76 -77 -80 -83 0
-61 -62 -84 -98 -99 0
-65 -68 -70 -73 -105 0
-69 -76 -77 -80 -83 0
-61 -62 -84 -98 -99 0
-65 -68 -70 -73 -105 0
-68 -75 -76 -81 -82 0
-61 -62 -83 -100 -101 0
-66 -67 -70 -74 -103 0
-68 -75 -76 -81 -82 0
-61 -62 -83 -100 -101 0
-66 -67 -70 -74 -103 0
-69 -75 -77 -81 -82 0
-61 -62 -84 -100 -102 0
-66 -67 -70 -74 -104 0
-69 -75 -77 -81 -82 0
-61 -62 -84 -100 -102 0
-66 -67 -70 -74 -104 0
-69 -76 -77 -81 -83 0
-61 -62 -84 -101 -102 0
-66 -68 -70 -74 -105 0
-69 -76 -77 -81 -83 0
-61 -62 -84 -101 -102 0
-66 -68 -70 -74 -105 0
-69 -76 -77 -82 -83 0
-61 -62 -84 -103 -104 0
-67 -68 -70 -75 -105 0
-69 -76 -77 -82 -83 0
-61 -62 -84 -103 -104 0
-67 -68 -70 -75 -105 0
-66 -73 -74 -85 -86 0
-61 -63 -87 -91 -92 0
-64 -65 -71 -72 -96 0
-66 -73 -74 -85 -86 0
-61 -63 -87 -91 -92 0
-64 -65 -71 -72 -96 0
-67 -73 -75 -85 -86 0
-61 -63 -88 -91 -93 0
-64 -65 -71 -72 -97 0
-67 -73 -75 -85 -86 0
-61 -63 -88 -91 -93 0
-64 -65 -71 -72 -97 0
-68 -73 -76 -85 -86 0
-61 -63 -89 -91 -94 0
-64 -65 -71 -72 -98 0
-68 -73 -76 -85 -86 0
-61 -63 -89 -91 -94 0
-64 -65 -71 -72 -98 0
-69 -73 -77 -85 -86 0
-61 -63 -90 -91 -95 0
-64 -65 -71 -72 -99 0
-69 -73 -77 -85 -86 0
-61 -63 -90 -91 -95 0
-64 -65 -71 -72 -99 0
-67 -74 -75 -85 -87 0
-61 -63 -88 -92 -93 0
-64 -66 -71 -72 -100 0
-67 -74 -75 -85 -87 0
-61 -63 -88 -92 -93 0
-64 -66 -71 -72 -100 0
-68 -74 -76 -85 -87 0
-61 -63 -89 -92 -94 0
-64 -66 -71 -72 -101 0
-68 -74 -76 -85 -87 0
-61 -63 -89 -92 -94 0
-64 -66 -71 -72 -101 0
-69 -74 -77 -85 -87 0
-61 -63 -90 -92 -95 0
-64 -66 -71 -72 -102 0
-69 -74 -77 -85 -87 0
-61 -63 -90 -92 -95 0
-64 -66 -71 -72 -102 0
-68 -75 -76 -85 -88 0
-61 -63 -89 -93 -94 0
-64 -67 -71 -72 -103 0
-68 -75 -76 -85 -88 0
-61 -63 -89 -93 -94 0
-64 -67 -71 -72 -103 0
-69 -75 -77 -85 -88 0
-61 -63 -90 -93 -95 0
-64 -67 -71 -72 -104 0
-69 -75 -77 -85 -88 0
-61 -63 -90 -93 -95 0
-64 -67 -71 -72 -104 0
-69 -76 -77 -85 -89 0
-61 -63 -90 -94 -95 0
-64 -68 -71 -72 -105 0
-69 -76 -77 -85 -89 0
-61 -63 -90 -94 -95 0
-64 -68 -71 -72 -105 0
-67 -74 -75 -86 -87 0
-61 -63 -88 -96 -97 0
-65 -66 -71 -73 -100 0
-67 -74 -75 -86 -87 0
-61 -63 -88 -96 -97 0
-65 -66 -71 -73 -100 0
-68 -74 -76 -86 -87 0
-61 -63 -89 -96 -98 0
-65 -66 -71 -73 -101 0
-68 -74 -76 -86 -87 0
-61 -63 -89 -96 -98 0
-65 -66 -71 -73 -101 0
-69 -74 -77 -86 -87 0
-61 -63 -90 -96 -99 0
-65 -66 -71 -73 -102 0
-69 -74 -77 -86 -87 0
-61 -63 -90 -96 -99 0
-65 -66 -71 -73 -102 0
-68 -75 -76 -86 -88 0
-61 -63 -89 -97 -98 0
-65 -67 -71 -73 -103 0
-68 -75 -76 -86 -88 0
-61 -63 -89 -97 -98 0
-65 -67 -71 -73 -103 0
-69 -75 -77 -86 -88 0
-61 -63 -90 -97 -99 0
-65 -67 -71 -73 -104 0
-69 -75 -77 -86 -88 0
-61 -63 -90 -97 -99 0
-65 -67 -71 -73 -104 0
-69 -76 -77 -86 -89 0
-61 -63 -90 -98 -99 0
-65 -68 -71 -73 -105 0
-69 -76 -77 -86 -89 0
-61 -63 -90 -98 -99 0
-65 -68 -71 -73 -105 0
-68 -75 -76 -87 -88 0
-61 -63 -89 -100 -101 0
-66 -67 -71 -74 -103 0
-68 -75 -76 -87 -88 0
-61 -63 -89 -100 -101 0
-66 -67 -71 -74 -103 0
-69 -75 -77 -87 -88 0
-61 -63 -90 -100 -102 0
-66 -67 -71 -74 -104 0
-69 -75 -77 -87 -88 0
-61 -63 -90 -100 -102 0
-66 -67 -71 -74 -104 0
-69 -76 -77 -87 -89 0
-61 -63 -90 -101 -102 0
-66 -68 -71 -74 -105 0
-69 -76 -77 -87 -89 0
-61 -63 -90 -101 -102 0
-66 -68 -71 -74 -105 0
-69 -76 -77 -88 -89 0
-61 -63 -90 -103 -104 0
-67 -68 -71 -75 -105 0
-69 -76 -77 -88 -89 0
-61 -63 -90 -103 -104 0
-67 -68 -71 -75 -105 0
-67 -74 -75 -91 -92 0
-61 -64 -93 -96 -97 0
-65 -66 -72 -73 -100 0
-67 -74 -75 -91 -92 0
-61 -64 -93 -96 -97 0
-65 -66 -72 -73 -100 0
-68 -74 -76 -91 -92 0
-61 -64 -94 -96 -98 0
-65 -66 -72 -73 -101 0
-68 -74 -76 -91 -92 0
-61 -64 -94 -96 -98 0
-65 -66 -72 -73 -101 0
-69 -74 -77 -91 -92 0
-61 -64 -95 -96 -99 0
-65 -66 -72 -73 -102 0
-69 -74 -77 -91 -92 0
-61 -64 -95 -96 -99 0
-65 -66 -72 -73 -102 0
-68 -75 -76 -91 -93 0
-61 -64 -94 -97 -98 0
-65 -67 -72 -73 -103 0
-68 -75 -76 -91 -93 0
-61 -64 -94 -97 -98 0
-65 -67 -72 -73 -103 0
-69 -75 -77 -91 -93 0
-61 -64 -95 -97 -99 0
-65 -67 -72 -73 -104 0
-69 -75 -77 -91 -93 0
-61 -64 -95 -97 -99 0
-65 -67 -72 -73 -104 0
-69 -76 -77 -91 -94 0
-61 -64 -95 -98 -99 0
-65 -68 -72 -73 -105 0
-69 -76 -77 -91 -94 0
-61 -64 -95 -98 -99 0
-65 -68 -72 -73 -105 0
-68 -75 -76 -92 -93 0
-61 -64 -94 -100 -101 0
-66 -67 -72 -74 -103 0
-68 -75 -76 -92 -93 0
-61 -64 -94 -100 -101 0
-66 -67 -72 -74 -103 0
-69 -75 -77 -92 -93 0
-61 -64 -95 -100 -102 0
-66 -67 -72 -74 -104 0
-69 -75 -77 -92 -93 0
-61 -64 -95 -100 -102 0
-66 -67 -72 -74 -104 0
-69 -76 -77 -92 -94 0
-61 -64 -95 -101 -102 0
-66 -68 -72 -74 -105 0
-69 -76 -77 -92 -94 0
-61 -64 -95 -101 -102 0
-66 -68 -72 -74 -105 0
-69 -76 -77 -93 -94 0
-61 -64 -95 -103 -104 0
-67 -68 -72 -75 -105 0
-69 -76 -77 -93 -94 0
-61 -64 -95 -103 -104 0
-67 -68 -72 -75 -105 0
-68 -75 -76 -96 -97 0
-61 -65 -98 -100 -101 0
-66 -67 -73 -74 -103 0
-68 -75 -76 -96 -97 0
-61 -65 -98 -100 -101 0
-66 -67 -73 -74 -103 0
-69 -75 -77 -96 -97 0
-61 -65 -99 -100 -102 0
-66 -67 -73 -74 -104 0
-69 -75 -77 -96 -97 0
-61 -65 -99 -100 -102 0
-66 -67 -73 -74 -104 0
-69 -76 -77 -96 -98 0
-61 -65 -99 -101 -102 0
-66 -68 -73 -74 -105 0
-69 -76 -77 -96 -98 0
-61 -65 -99 -101 -102 0
-66 -68 -73 -74 -105 0
-69 -76 -77 -97 -98 0
-61 -65 -99 -103 -104 0
-67 -68 -73 -75 -105 0
-69 -76 -77 -97 -98 0
-61 -65 -99 -103 -104 0
-67 -68 -73 -75 -105 0
-69 -76 -77 -100 -101 0
-61 -66 -102 -103 -104 0
-67 -68 -74 -75 -105 0
-69 -76 -77 -100 -101 0
-61 -66 -102 -103 -104 0
-67 -68 -74 -75 -105 0
-66 -80 -81 -85 -86 0
-62 -63 -87 -91 -92 0
-64 -65 -78 -79 -96 0
-66 -80 -81 -85 -86 0
-62 -63 -87 -91 -92 0
-64 -65 -78 -79 -96 0
-67 -80 -82 -85 -86 0
-62 -63 -88 -91 -93 0
-64 -65 -78 -79 -97 0
-67 -80 -82 -85 -86 0
-62 -63 -88 -91 -93 0
-64 -65 -78 -79 -97 0
-68 -80 -83 -85 -86 0
-62 -63 -89 -91 -94 0
-64 -65 -78 -79 -98 0
-68 -80 -83 -85 -86 0
-62 -63 -89 -91 -94 0
-64 -65 -78 -79 -98 0
-69 -80 -84 -85 -86 0
-62 -63 -90 -91 -95 0
-64 -65 -78 -79 -99 0
-69 -80 -84 -85 -86 0
-62 -63 -90 -91 -95 0
-64 -65 -78 -79 -99 0
-67 -81 -82 -85 -87 0
-62 -63 -88 -92 -93 0
-64 -66 -78 -79 -100 0
-67 -81 -82 -85 -87 0
-62 -63 -88 -92 -93 0
-64 -66 -78 -79 -100 0
-68 -81 -83 -85 -87 0
-62 -63 -89 -92 -94 0
-64 -66 -78 -79 -101 0
-68 -81 -83 -85 -87 0
-62 -63 -89 -92 -94 0
-64 -66 -78 -79 -101 0
-69 -81 -84 -85 -87 0
-62 -63 -90 -92 -95 0
-64 -66 -78 -79 -102 0
-69 -81 -84 -85 -87 0
-62 -63 -90 -92 -95 0
-64 -66 -78 -79 -102 0
-68 -82 -83 -85 -88 0
-62 -63 -89 -93 -94 0
-64 -67 -78 -79 -103 0
-68 -82 -83 -85 -88 0
-62 -63 -89 -93 -94 0
-64 -67 -78 -79 -103 0
-69 -82 -84 -85 -88 0
-62 -63 -90 -93 -95 0
-64 -67 -78 -79 -104 0
-69 -82 -84 -85 -88 0
-62 -63 -90 -93 -95 0
-64 -67 -78 -79 -104 0
-69 -83 -84 -85 -89 0
-62 -63 -90 -94 -95 0
-64 -68 -78 -79 -105 0
-69 -83 -84 -85 -89 0
-62 -63 -90 -94 -95 0
-64 -68 -78 -79 -105 0
-67 -81 -82 -86 -87 0
-62 -63 -88 -96 -97 0
-65 -66 -78 -80 -100 0
-67 -81 -82 -86 -87 0
-62 -63 -88 -96 -97 0
-65 -66 -78 -80 -100 0
-68 -81 -83 -86 -87 0
-62 -63 -89 -96 -98 0
-65 -66 -78 -80 -101 0
-68 -81 -83 -86 -87 0
-62 -63 -89 -96 -98 0
-65 -66 -78 -80 -101 0
-69 -81 -84 -86 -87 0
-62 -63 -90 -96 -99 0
-65 -66 -78 -80 -102 0
-69 -81 -84 -86 -87 0
-62 -63 -90 -96 -99 0
-65 -66 -78 -80 -102 0
-68 -82 -83 -86 -88 0
-62 -63 -89 -97 -98 0
-65 -67 -78 -80 -103 0
-68 -82 -83 -86 -88 0
-62 -63 -89 -97 -98 0
-65 -67 -78 -80 -103 0
-69 -82 -84 -86 -88 0
-62 -63 -90 -97 -99 0
-65 -67 -78 -80 -104 0
-69 -82 -84 -86 -88 0
-62 -63 -90 -97 -99 0
-65 -67 -78 -80 -104 0
-69 -83 -84 -86 -89 0
-62 -63 -90 -98 -99 0
-65 -68 -78 -80 -105 0
-69 -83 -84 -86 -89 0
-62 -63 -90 -98 -99 0
-65 -68 -78 -80 -105 0
-68 -82 -83 -87 -88 0
-62 -63 -89 -100 -101 0
-66 -67 -78 -81 -103 0
-68 -82 -83 -87 -88 0
-62 -63 -89 -100 -101 0
-66 -67 -78 -81 -103 0
-69 -82 -84 -87 -88 0
-62 -63 -90 -100 -102 0
-66 -67 -78 -81 -104 0
-69 -82 -84 -87 -88 0
-62 -63 -90 -100 -102 0
-66 -67 -78 -81 -104 0
-69 -83 -84 -87 -89 0
-62 -63 -90 -101 -102 0
-66 -68 -78 -81 -105 0
-69 -83 -84 -87 -89 0
-62 -63 -90 -101 -102 0
-66 -68 -78 -81 -105 0
-69 -83 -84 -88 -89 0
-62 -63 -90 -103 -104 0
-67 -68 -78 -82 -105 0
-69 -83 -84 -88 -89 0
-62 -63 -90 -103 -104 0
-67 -68 -78 -82 -105 0
-67 -81 -82 -91 -92 0
-62 -64 -93 -96 -97 0
-65 -66 -79 -80 -100 0
-67 -81 -82 -91 -92 0
-62 -64 -93 -96 -97 0
-65 -66 -79 -80 -100 0
-68 -81 -83 -91 -92 0
-62 -64 -94 -96 -98 0
-65 -66 -79 -80 -101 0
-68 -81 -83 -91 -92 0
-62 -64 -94 -96 -98 0
-65 -66 -79 -80 -101 0
-69 -81 -84 -91 -92 0
-62 -64 -95 -96 -99 0
-65 -66 -79 -80 -102 0
-69 -81 -84 -91 -92 0
-62 -64 -95 -96 -99 0
-65 -66 -79 -80 -102 0
-68 -82 -83 -91 -93 0
-62 -64 -94 -97 -98 0
-65 -67 -79 -80 -103 0
-68 -82 -83 -91 -93 0
-62 -64 -94 -97 -98 0
-65 -67 -79 -80 -103 0
-69 -82 -84 -91 -93 0
-62 -64 -95 -97 -99 0
-65 -67 -79 -80 -104 0
-69 -82 -84 -91 -93 0
-62 -64 -95 -97 -99 0
-65 -67 -79 -80 -104 0
-69 -83 -84 -91 -94 0
-62 -64 -95 -98 -99 0
-65 -68 -79 -80 -105 0
-69 -83 -84 -91 -94 0
-62 -64 -95 -98 -99 0
-65 -68 -79 -80 -105 0
-68 -82 -83 -92 -93 0
-62 -64 -94 -100 -101 0
-66 -67 -79 -81 -103 0
-68 -82 -83 -92 -93 0
-62 -64 -94 -100 -101 0
-66 -67 -79 -81 -103 0
-69 -82 -84 -92 -93 0
-62 -64 -95 -100 -102 0
-66 -67 -79 -81 -104 0
-69 -82 -84 -92 -93 0
-62 -64 -95 -100 -102 0
-66 -67 -79 -81 -104 0
-69 -83 -84 -92 -94 0
-62 -64 -95 -101 -102 0
-66 -68 -79 -81 -105 0
-69 -83 -84 -92 -94 0
-62 -64 -95 -101 -102 0
-66 -68 -79 -81 -105 0
-69 -83 -84 -93 -94 0
-62 -64 -95 -103 -104 0
-67 -68 -79 -82 -105 0
-69 -83 -84 -93 -94 0
-62 -64 -95 -103 -104 0
-67 -68 -79 -82 -105 0
-68 -82 -83 -96 -97 0
-62 -65 -98 -100 -101 0
-66 -67 -80 -81 -103 0
-68 -82 -83 -96 -97 0
-62 -65 -98 -100 -101 0
-66 -67 -80 -81 -103 0
-69 -82 -84 -96 -97 0
-62 -65 -99 -100 -102 0
-66 -67 -80 -81 -104 0
-69 -82 -84 -96 -97 0
-62 -65 -99 -100 -102 0
-66 -67 -80 -81 -104 0
-69 -83 -84 -96 -98 0
-62 -65 -99 -101 -102 0
-66 -68 -80 -81 -105 0
-69 -83 -84 -96 -98 0
-62 -65 -99 -101 -102 0
-66 -68 -80 -81 -105 0
-69 -83 -84 -97 -98 0
-62 -65 -99 -103 -104 0
-67 -68 -80 -82 -105 0
-69 -83 -84 -97 -98 0
-62 -65 -99 -103 -104 0
-67 -68 -80 -82 -105 0
-69 -83 -84 -100 -101 0
-62 -66 -102 -103 -104 0
-67 -68 -81 -82 -105 0
-69 -83 -84 -100 -101 0
-62 -66 -102 -103 -104 0
-67 -68 -81 -82 -105 0
-67 -87 -88 -91 -92 0
-63 -64 -93 -96 -97 0
-65 -66 -85 -86 -100 0
-67 -87 -88 -91 -92 0
-63 -64 -93 -96 -97 0
-65 -66 -85 -86 -100 0
-68 -87 -89 -91 -92 0
-63 -64 -94 -96 -98 0
-65 -66 -85 -86 -101 0
-68 -87 -89 -91 -92 0
-63 -64 -94 -96 -98 0
-65 -66 -85 -86 -101 0
-69 -87 -90 -91 -92 0
-63 -64 -95 -96 -99 0
-65 -66 -85 -86 -102 0
-69 -87 -90 -91 -92 0
-63 -64 -95 -96 -99 0
-65 -66 -85 -86 -102 0
-68 -88 -89 -91 -93 0
-63 -64 -94 -97 -98 0
-65 -67 -85 -86 -103 0
-68 -88 -89 -91 -93 0
-63 -64 -94 -97 -98 0
-65 -67 -85 -86 -103 0
-69 -88 -90 -91 -93 0
-63 -64 -95 -97 -99 0
-65 -67 -85 -86 -104 0
-69 -88 -90 -91 -93 0
-63 -64 -95 -97 -99 0
-65 -67 -85 -86 -104 0
-69 -89 -90 -91 -94 0
-63 -64 -95 -98 -99 0
-65 -68 -85 -86 -105 0
-69 -89 -90 -91 -94 0
-63 -64 -95 -98 -99 0
-65 -68 -85 -86 -105 0
-68 -88 -89 -92 -93 0
-63 -64 -94 -100 -101 0
-66 -67 -85 -87 -103 0
-68 -88 -89 -92 -93 0
-63 -64 -94 -100 -101 0
-66 -67 -85 -87 -103 0
-69 -88 -90 -92 -93 0
-63 -64 -95 -100 -102 0
-66 -67 -85 -87 -104 0
-69 -88 -90 -92 -93 0
-63 -64 -95 -100 -102 0
-66 -67 -85 -87 -104 0
-69 -89 -90 -92 -94 0
-63 -64 -95 -101 -102 0
-66 -68 -85 -87 -105 0
-69 -89 -90 -92 -94 0
-63 -64 -95 -101 -102 0
-66 -68 -85 -87 -105 0
-69 -89 -90 -93 -94 0
-63 -64 -95 -103 -104 0
-67 -68 -85 -88 -105 0
-69 -89 -90 -93 -94 0
-63 -64 -95 -103 -104 0
-67 -68 -85 -88 -105 0
-68 -88 -89 -96 -97 0
-63 -65 -98 -100 -101 0
-66 -67 -86 -87 -103 0
-68 -88 -89 -96 -97 0
-63 -65 -98 -100 -101 0
-66 -67 -86 -87 -103 0
-69 -88 -90 -96 -97 0
-63 -65 -99 -100 -102 0
-66 -67 -86 -87 -104 0
-69 -88 -90 -96 -97 0
-63 -65 -99 -100 -102 0
-66 -67 -86 -87 -104 0
-69 -89 -90 -96 -98 0
-63 -65 -99 -101 -102 0
-66 -68 -86 -87 -105 0
-69 -89 -90 -96 -98 0
-63 -65 -99 -101 -102 0
-66 -68 -86 -87 -105 0
-69 -89 -90 -97 -98 0
-63 -65 -99 -103 -104 0
-67 -68 -86 -88 -105 0
-69 -89 -90 -97 -98 0
-63 -65 -99 -103 -104 0
-67 -68 -86 -88 -105 0
-69 -89 -90 -100 -101 0
-63 -66 -102 -103 -104 0
-67 -68 -87 -88 -105 0
-69 -89 -90 -100 -101 0
-63 -66 -102 -103 -104 0
-67 -68 -87 -88 -105 0
-68 -93 -94 -96 -97 0
-64 -65 -98 -100 -101 0
-66 -67 -91 -92 -103 0
-68 -93 -94 -96 -97 0
-64 -65 -98 -100 -101 0
-66 -67 -91 -92 -103 0
-69 -93 -95 -96 -97 0
-64 -65 -99 -100 -102 0
-66 -67 -91 -92 -104 0
-69 -93 -95 -96 -97 0
-64 -65 -99 -100 -102 0
-66 -67 -91 -92 -104 0
-69 -94 -95 -96 -98 0
-64 -65 -99 -101 -102 0
-66 -68 -91 -92 -105 0
-69 -94 -95 -96 -98 0
-64 -65 -99 -101 -102 0
-66 -68 -91 -92 -105 0
-69 -94 -95 -97 -98 0
-64 -65 -99 -103 -104 0
-67 -68 -91 -93 -105 0
-69 -94 -95 -97 -98 0
-64 -65 -99 -103 -104 0
-67 -68 -91 -93 -105 0
-69 -94 -95 -100 -101 0
-64 -66 -102 -103 -104 0
-67 -68 -92 -93 -105 0
-69 -94 -95 -100 -101 0
-64 -66 -102 -103 -104 0
-67 -68 -92 -93 -105 0
-69 -98 -99 -100 -101 0
-65 -66 -102 -103 -104 0
-67 -68 -96 -97 -105 0
-69 -98 -99 -100 -101 0
-65 -66 -102 -103 -104 0
-67 -68 -96 -97 -105 0
-74 -80 -81 -85 -86 0
-70 -71 -87 -91 -92 0
-72 -73 -78 -79 -96 0
-74 -80 -81 -85 -86 0
-70 -71 -87 -91 -92 0
-72 -73 -78 -79 -96 0
-75 -80 -82 -85 -86 0
-70 -71 -88 -91 -93 0
-72 -73 -78 -79 -97 0
-75 -80 -82 -85 -86 0
-70 -71 -88 -91 -93 0
-72 -73 -78 -79 -97 0
-76 -80 -83 -85 -86 0
-70 -71 -89 -91 -94 0
-72 -73 -78 -79 -98 0
-76 -80 -83 -85 -86 0
-70 -71 -89 -91 -94 0
-72 -73 -78 -79 -98 0
-77 -80 -84 -85 -86 0
-70 -71 -90 -91 -95 0
-72 -73 -78 -79 -99 0
-77 -80 -84 -85 -86 0
-70 -71 -90 -91 -95 0
-72 -73 -78 -79 -99 0
-75 -81 -82 -85 -87 0
-70 -71 -88 -92 -93 0
-72 -74 -78 -79 -100 0
-75 -81 -82 -85 -87 0
-70 -71 -88 -92 -93 0
-72 -74 -78 -79 -100 0
-76 -81 -83 -85 -87 0
-70 -71 -89 -92 -94 0
-72 -74 -78 -79 -101 0
-76 -81 -83 -85 -87 0
-70 -71 -89 -92 -94 0
-72 -74 -78 -79 -101 0
-77 -81 -84 -85 -87 0
-70 -71 -90 -92 -95 0
-72 -74 -78 -79 -102 0
-77 -81 -84 -85 -87 0
-70 -71 -90 -92 -95 0
-72 -74 -78 -79 -102 0
-76 -82 -83 -85 -88 0
-70 -71 -89 -93 -94 0
-72 -75 -78 -79 -103 0
-76 -82 -83 -85 -88 0
-70 -71 -89 -93 -94 0
-72 -75 -78 -79 -103 0
-77 -82 -84 -85 -88 0
-70 -71 -90 -93 -95 0
-72 -75 -78 -79 -104 0
-77 -82 -84 -85 -88 0
-70 -71 -90 -93 -95 0
-72 -75 -78 -79 -104 0
-77 -83 -84 -85 -89 0
-70 -71 -90 -94 -95 0
-72 -76 -78 -79 -105 0
-77 -83 -84 -85 -89 0
-70 -71 -90 -94 -95 0
-72 -76 -78 -79 -105 0
-75 -81 -82 -86 -87 0
-70 -71 -88 -96 -97 0
-73 -74 -78 -80 -100 0
-75 -81 -82 -86 -87 0
-70 -71 -88 -96 -97 0
-73 -74 -78 -80 -100 0
-76 -81 -83 -86 -87 0
-70 -71 -89 -96 -98 0
-73 -74 -78 -80 -101 0
-76 -81 -83 -86 -87 0
-70 -71 -89 -96 -98 0
-73 -74 -78 -80 -101 0
-77 -81 -84 -86 -87 0
-70 -71 -90 -96 -99 0
-73 -74 -78 -80 -102 0
-77 -81 -84 -86 -87 0
-70 -71 -90 -96 -99 0
-73 -74 -78 -80 -102 0
-76 -82 -83 -86 -88 0
-70 -71 -89 -97 -98 0
-73 -75 -78 -80 -103 0
-76 -82 -83 -86 -88 0
-70 -71 -89 -97 -98 0
-73 -75 -78 -80 -103 0
-77 -82 -84 -86 -88 0
-70 -71 -90 -97 -99 0
-73 -75 -78 -80 -104 0
-77 -82 -84 -86 -88 0
-70 -71 -90 -97 -99 0
-73 -75 -78 -80 -104 0
-77 -83 -84 -86 -89 0
-70 -71 -90 -98 -99 0
-73 -76 -78 -80 -105 0
-77 -83 -84 -86 -89 0
-70 -71 -90 -98 -99 0
-73 -76 -78 -80 -105 0
-76 -82 -83 -87 -88 0
-70 -71 -89 -100 -101 0
-74 -75 -78 -81 -103 0
-76 -82 -83 -87 -88 0
-70 -71 -89 -100 -101 0
-74 -75 -78 -81 -103 0
-77 -82 -84 -87 -88 0
-70 -71 -90 -100 -102 0
-74 -75 -78 -81 -104 0
-77 -82 -84 -87 -88 0
-70 -71 -90 -100 -102 0
-74 -75 -78 -81 -104 0
-77 -83 -84 -87 -89 0
-70 -71 -90 -101 -102 0
-74 -76 -78 -81 -105 0
-77 -83 -84 -87 -89 0
-70 -71 -90 -101 -102 0
-74 -76 -78 -81 -105 0
-77 -83 -84 -88 -89 0
-70 -71 -90 -103 -104 0
-75 -76 -78 -82 -105 0
-77 -83 -84 -88 -89 0
-70 -71 -90 -103 -104 0
-75 -76 -78 -82 -105 0
-75 -81 -82 -91 -92 0
-70 -72 -93 -96 -97 0
-73 -74 -79 -80 -100 0
-75 -81 -82 -91 -92 0
-70 -72 -93 -96 -97 0
-73 -74 -79 -80 -100 0
-76 -81 -83 -91 -92 0
-70 -72 -94 -96 -98 0
-73 -74 -79 -80 -101 0
-76 -81 -83 -91 -92 0
-70 -72 -94 -96 -98 0
-73 -74 -79 -80 -101 0
-77 -81 -84 -91 -92 0
-70 -72 -95 -96 -99 0
-73 -74 -79 -80 -102 0
-77 -81 -84 -91 -92 0
-70 -72 -95 -96 -99 0
-73 -74 -79 -80 -102 0
-76 -82 -83 -91 -93 0
-70 -72 -94 -97 -98 0
-73 -75 -79 -80 -103 0
-76 -82 -83 -91 -93 0
-70 -72 -94 -97 -98 0
-73 -75 -79 -80 -103 0
-77 -82 -84 -91 -93 0
-70 -72 -95 -97 -99 0
-73 -75 -79 -80 -104 0
-77 -82 -84 -91 -93 0
-70 -72 -95 -97 -99 0
-73 -75 -79 -80 -104 0
-77 -83 -84 -91 -94 0
-70 -72 -95 -98 -99 0
-73 -76 -79 -80 -105 0
-77 -83 -84 -91 -94 0
-70 -72 -95 -98 -99 0
-73 -76 -79 -80 -105 0
-76 -82 -83 -92 -93 0
-70 -72 -94 -100 -101 0
-74 -75 -79 -81 -103 0
-76 -82 -83 -92 -93 0
-70 -72 -94 -100 -101 0
-74 -75 -79 -81 -103 0
-77 -82 -84 -92 -93 0
-70 -72 -95 -100 -102 0
-74 -75 -79 -81 -104 0
-77 -82 -84 -92 -93 0
-70 -72 -95 -100 -102 0
-74 -75 -79 -81 -104 0
-77 -83 -84 -92 -94 0
-70 -72 -95 -101 -102 0
-74 -76 -79 -81 -105 0
-77 -83 -84 -92 -94 0
-70 -72 -95 -101 -102 0
-74 -76 -79 -81 -105 0
-77 -83 -84 -93 -94 0
-70 -72 -95 -103 -104 0
-75 -76 -79 -82 -105 0
-77 -83 -84 -93 -94 0
-70 -72 -95 -103 -104 0
-75 -76 -79 -82 -105 0
-76 -82 -83 -96 -97 0
-70 -73 -98 -100 -101 0
-74 -75 -80 -81 -103 0
-76 -82 -83 -96 -97 0
-70 -73 -98 -100 -101 0
-74 -75 -80 -81 -103 0
-77 -82 -84 -96 -97 0
-70 -73 -99 -100 -102 0
-74 -75 -80 -81 -104 0
-77 -82 -84 -96 -97 0
-70 -73 -99 -100 -102 0
-74 -75 -80 -81 -104 0
-77 -83 -84 -96 -98 0
-70 -73 -99 -101 -102 0
-74 -76 -80 -81 -105 0
-77 -83 -84 -96 -98 0
-70 -73 -99 -101 -102 0
-74 -76 -80 -81 -105 0
-77 -83 -84 -97 -98 0
-70 -73 -99 -103 -104 0
-75 -76 -80 -82 -105 0
-77 -83 -84 -97 -98 0
-70 -73 -99 -103 -104 0
-75 -76 -80 -82 -105 0
-77 -83 -84 -100 -101 0
-70 -74 -102 -103 -104 0
-75 -76 -81 -82 -105 0
-77 -83 -84 -100 -101 0
-70 -74 -102 -103 -104 0
-75 -76 -81 -82 -105 0
-75 -87 -88 -91 -92 0
-71 -72 -93 -96 -97 0
-73 -74 -85 -86 -100 0
-75 -87 -88 -91 -92 0
-71 -72 -93 -96 -97 0
-73 -74 -85 -86 -100 0
-76 -87 -89 -91 -92 0
-71 -72 -94 -96 -98 0
-73 -74 -85 -86 -101 0
-76 -87 -89 -91 -92 0
-71 -72 -94 -96 -98 0
-73 -74 -85 -86 -101 0
-77 -87 -90 -91 -92 0
-71 -72 -95 -96 -99 0
-73 -74 -85 -86 -102 0
-77 -87 -90 -91 -92 0
-71 -72 -95 -96 -99 0
-73 -74 -85 -86 -102 0
-76 -88 -89 -91 -93 0
-71 -72 -94 -97 -98 0
-73 -75 -85 -86 -103 0
-76 -88 -89 -91 -93 0
-71 -72 -94 -97 -98 0
-73 -75 -85 -86 -103 0
-77 -88 -90 -91 -93 0
-71 -72 -95 -97 -99 0
-73 -75 -85 -86 -104 0
-77 -88 -90 -91 -93 0
-71 -72 -95 -97 -99 0
-73 -75 -85 -86 -104 0
-77 -89 -90 -91 -94 0
-71 -72 -95 -98 -99 0
-73 -76 -85 -86 -105 0
-77 -89 -90 -91 -94 0
-71 -72 -95 -98 -99 0
-73 -76 -85 -86 -105 0
-76 -88 -89 -92 -93 0
-71 -72 -94 -100 -101 0
-74 -75 -85 -87 -103 0
-76 -88 -89 -92 -93 0
-71 -72 -94 -100 -101 0
-74 -75 -85 -87 -103 0
-77 -88 -90 -92 -93 0
-71 -72 -95 -100 -102 0
-74 -75 -85 -87 -104 0
-77 -88 -90 -92 -93 0
-71 -72 -95 -100 -102 0
-74 -75 -85 -87 -104 0
-77 -89 -90 -92 -94 0
-71 -72 -95 -101 -102 0
-74 -76 -85 -87 -105 0
-77 -89 -90 -92 -94 0
-71 -72 -95 -101 -102 0
-74 -76 -85 -87 -105 0
-77 -89 -90 -93 -94 0
-71 -72 -95 -103 -104 0
-75 -76 -85 -88 -105 0
-77 -89 -90 -93 -94 0
-71 -72 -95 -103 -104 0
-75 -76 -85 -88 -105 0
-76 -88 -89 -96 -97 0
-71 -73 -98 -100 -101 0
-74 -75 -86 -87 -103 0
-76 -88 -89 -96 -97 0
-71 -73 -98 -100 -101 0
-74 -75 -86 -87 -103 0
-77 -88 -90 -96 -97 0
-71 -73 -99 -100 -102 0
-74 -75 -86 -87 -104 0
-77 -88 -90 -96 -97 0
-71 -73 -99 -100 -102 0
-74 -75 -86 -87 -104 0
-77 -89 -90 -96 -98 0
-71 -73 -99 -101 -102 0
-74 -76 -86 -87 -105 0
-77 -89 -90 -96 -98 0
-71 -73 -99 -101 -102 0
-74 -76 -86 -87 -105 0
-77 -89 -90 -97 -98 0
-71 -73 -99 -103 -104 0
-75 -76 -86 -88 -105 0
-77 -89 -90 -97 -98 0
-71 -73 -99 -103 -104 0
-75 -76 -86 -88 -105 0
-77 -89 -90 -100 -101 0
-71 -74 -102 -103 -104 0
-75 -76 -87 -88 -105 0
-77 -89 -90 -100 -101 0
-71 -74 -102 -103 -104 0
-75 -76 -87 -88 -105 0
-76 -93 -94 -96 -97 0
-72 -73 -98 -100 -101 0
-74 -75 -91 -92 -103 0
-76 -93 -94 -96 -97 0
-72 -73 -98 -100 -101 0
-74 -75 -91 -92 -103 0
-77 -93 -95 -96 -97 0
-72 -73 -99 -100 -102 0
-74 -75 -91 -92 -104 0
-77 -93 -95 -96 -97 0
-72 -73 -99 -100 -102 0
-74 -75 -91 -92 -104 0
-77 -94 -95 -96 -98 0
-72 -73 -99 -101 -102 0
-74 -76 -91 -92 -105 0
-77 -94 -95 -96 -98 0
-72 -73 -99 -101 -102 0
-74 -76 -91 -92 -105 0
-77 -94 -95 -97 -98 0
-72 -73 -99 -103 -104 0
-75 -76 -91 -93 -105 0
-77 -94 -95 -97 -98 0
-72 -73 -99 -103 -104 0
-75 -76 -91 -93 -105 0
-77 -94 -95 -100 -101 0
-72 -74 -102 -103 -104 0
-75 -76 -92 -93 -105 0
-77 -94 -95 -100 -101 0
-72 -74 -102 -103 -104 0
-75 -76 -92 -93 -105 0
-77 -98 -99 -100 -101 0
-73 -74 -102 -103 -104 0
-75 -76 -96 -97 -105 0
-77 -98 -99 -100 -101 0
-73 -74 -102 -103 -104 0
-75 -76 -96 -97 -105 0
-82 -87 -88 -91 -92 0
-78 -79 -93 -96 -97 0
-80 -81 -85 -86 -100 0
-82 -87 -88 -91 -92 0
-78 -79 -93 -96 -97 0
-80 -81 -85 -86 -100 0
-83 -87 -89 -91 -92 0
-78 -79 -94 -96 -98 0
-80 -81 -85 -86 -101 0
-83 -87 -89 -91 -92 0
-78 -79 -94 -96 -98 0
-80 -81 -85 -86 -101 0
-84 -87 -90 -91 -92 0
-78 -79 -95 -96 -99 0
-80 -81 -85 -86 -102 0
-84 -87 -90 -91 -92 0
-78 -79 -95 -96 -99 0
-80 -81 -85 -86 -102 0
-83 -88 -89 -91 -93 0
-78 -79 -94 -97 -98 0
-80 -82 -85 -86 -103 0
-83 -88 -89 -91 -93 0
-78 -79 -94 -97 -98 0
-80 -82 -85 -86 -103 0
-84 -88 -90 -91 -93 0
-78 -79 -95 -97 -99 0
-80 -82 -85 -86 -104 0
-84 -88 -90 -91 -93 0
-78 -79 -95 -97 -99 0
-80 -82 -85 -86 -104 0
-84 -89 -90 -91 -94 0
-78 -79 -95 -98 -99 0
-80 -83 -85 -86 -105 0
-84 -89 -90 -91 -94 0
-78 -79 -95 -98 -99 0
-80 -83 -85 -86 -105 0
-83 -88 -89 -92 -93 0
-78 -79 -94 -100 -101 0
-81 -82 -85 -87 -103 0
-83 -88 -89 -92 -93 0
-78 -79 -94 -100 -101 0
-81 -82 -85 -87 -103 0
-84 -88 -90 -92 -93 0
-78 -79 -95 -100 -102 0
-81 -82 -85 -87 -104 0
-84 -88 -90 -92 -93 0
-78 -79 -95 -100 -102 0
-81 -82 -85 -87 -104 0
-84 -89 -90 -92 -94 0
-78 -79 -95 -101 -102 0
-81 -83 -85 -87 -105 0
-84 -89 -90 -92 -94 0
-78 -79 -95 -101 -102 0
-81 -83 -85 -87 -105 0
-84 -89 -90 -93 -94 0
-78 -79 -95 -103 -104 0
-82 -83 -85 -88 -105 0
-84 -89 -90 -93 -94 0
-78 -79 -95 -103 -104 0
-82 -83 -85 -88 -105 0
-83 -88 -89 -96 -97 0
-78 -80 -98 -100 -101 0
-81 -82 -86 -87 -103 0
-83 -88 -89 -96 -97 0
-78 -80 -98 -100 -101 0
-81 -82 -86 -87 -103 0
-84 -88 -90 -96 -97 0
-78 -80 -99 -100 -102 0
-81 -82 -86 -87 -104 0
-84 -88 -90 -96 -97 0
-78 -80 -99 -100 -102 0
-81 -82 -86 -87 -104 0
-84 -89 -90 -96 -98 0
-78 -80 -99 -101 -102 0
-81 -83 -86 -87 -105 0
-84 -89 -90 -96 -98 0
-78 -80 -99 -101 -102 0
-81 -83 -86 -87 -105 0
-84 -89 -90 -97 -98 0
-78 -80 -99 -103 -104 0
-82 -83 -86 -88 -105 0
-84 -89 -90 -97 -98 0
-78 -80 -99 -103 -104 0
-82 -83 -86 -88 -105 0
-84 -89 -90 -100 -101 0
-78 -81 -102 -103 -104 0
-82 -83 -87 -88 -105 0
-84 -89 -90 -100 -101 0
-78 -81 -102 -103 -104 0
-82 -83 -87 -88 -105 0
-83 -93 -94 -96 -97 0
-79 -80 -98 -100 -101 0
-81 -82 -91 -92 -103 0
-83 -93 -94 -96 -97 0
-79 -80 -98 -100 -101 0
-81 -82 -91 -92 -103 0
-84 -93 -95 -96 -97 0
-79 -80 -99 -100 -102 0
-81 -82 -91 -92 -104 0
-84 -93 -95 -96 -97 0
-79 -80 -99 -100 -102 0
-81 -82 -91 -92 -104 0
-84 -94 -95 -96 -98 0
-79 -80 -99 -101 -102 0
-81 -83 -91 -92 -105 0
-84 -94 -95 -96 -98 0
-79 -80 -99 -101 -102 0
-81 -83 -91 -92 -105 0
-84 -94 -95 -97 -98 0
-79 -80 -99 -103 -104 0
-82 -83 -91 -93 -105 0
-84 -94 -95 -97 -98 0
-79 -80 -99 -103 -104 0
-82 -83 -91 -93 -105 0
-84 -94 -95 -100 -101 0
-79 -81 -102 -103 -104 0
-82 -83 -92 -93 -105 0
-84 -94 -95 -100 -101 0
-79 -81 -102 -103 -104 0
-82 -83 -92 -93 -105 0
-84 -98 -99 -100 -101 0
-80 -81 -102 -103 -104 0
-82 -83 -96 -97 -105 0
-84 -98 -99 -100 -101 0
-80 -81 -102 -103 -104 0
-82 -83 -96 -97 -105 0
-89 -93 -94 -96 -97 0
-85 -86 -98 -100 -101 0
-87 -88 -91 -92 -103 0
-89 -93 -94 -96 -97 0
-85 -86 -98 -100 -101 0
-87 -88 -91 -92 -103 0
-90 -93 -95 -96 -97 0
-85 -86 -99 -100 -102 0
-87 -88 -91 -92 -104 0
-90 -93 -95 -96 -97 0
-85 -86 -99 -100 -102 0
-87 -88 -91 -92 -104 0
-90 -94 -95 -96 -98 0
-85 -86 -99 -101 -102 0
-87 -89 -91 -92 -105 0
-90 -94 -95 -96 -98 0
-85 -86 -99 -101 -102 0
-87 -89 -91 -92 -105 0
-90 -94 -95 -97 -98 0
-85 -86 -99 -103 -104 0
-88 -89 -91 -93 -105 0
-90 -94 -95 -97 -98 0
-85 -86 -99 -103 -104 0
-88 -89 -91 -93 -105 0
-90 -94 -95 -100 -101 0
-85 -87 -102 -103 -104 0
-88 -89 -92 -93 -105 0
-90 -94 -95 -100 -101 0
-85 -87 -102 -103 -104 0
-88 -89 -92 -93 -105 0
-90 -98 -99 -100 -101 0
-86 -87 -102 -103 -104 0
-88 -89 -96 -97 -105 0
-90 -98 -99 -100 -101 0
-86 -87 -102 -103 -104 0
-88 -89 -96 -97 -105 0
-95 -98 -99 -100 -101 0
-91 -92 -102 -103 -104 0
-93 -94 -96 -97 -105 0
-95 -98 -99 -100 -101 0
-91 -92 -102 -103 -104 0
-93 -94 -96 -97 -105 0
